c Phase 3 generated performance instance
c family=exact_r_allocation
c scale=10
c variant=tune
c noise_percent=0
c expected=UNSATISFIABLE
p cnf 60 930
-1 -2 -3 0
-1 -2 -4 0
-1 -2 -5 0
-1 -2 -6 0
-1 -2 -7 0
-1 -2 -8 0
-1 -2 -9 0
-1 -2 -10 0
-1 -3 -4 0
-1 -3 -5 0
-1 -3 -6 0
-1 -3 -7 0
-1 -3 -8 0
-1 -3 -9 0
-1 -3 -10 0
-1 -4 -5 0
-1 -4 -6 0
-1 -4 -7 0
-1 -4 -8 0
-1 -4 -9 0
-1 -4 -10 0
-1 -5 -6 0
-1 -5 -7 0
-1 -5 -8 0
-1 -5 -9 0
-1 -5 -10 0
-1 -6 -7 0
-1 -6 -8 0
-1 -6 -9 0
-1 -6 -10 0
-1 -7 -8 0
-1 -7 -9 0
-1 -7 -10 0
-1 -8 -9 0
-1 -8 -10 0
-1 -9 -10 0
-2 -3 -4 0
-2 -3 -5 0
-2 -3 -6 0
-2 -3 -7 0
-2 -3 -8 0
-2 -3 -9 0
-2 -3 -10 0
-2 -4 -5 0
-2 -4 -6 0
-2 -4 -7 0
-2 -4 -8 0
-2 -4 -9 0
-2 -4 -10 0
-2 -5 -6 0
-2 -5 -7 0
-2 -5 -8 0
-2 -5 -9 0
-2 -5 -10 0
-2 -6 -7 0
-2 -6 -8 0
-2 -6 -9 0
-2 -6 -10 0
-2 -7 -8 0
-2 -7 -9 0
-2 -7 -10 0
-2 -8 -9 0
-2 -8 -10 0
-2 -9 -10 0
-3 -4 -5 0
-3 -4 -6 0
-3 -4 -7 0
-3 -4 -8 0
-3 -4 -9 0
-3 -4 -10 0
-3 -5 -6 0
-3 -5 -7 0
-3 -5 -8 0
-3 -5 -9 0
-3 -5 -10 0
-3 -6 -7 0
-3 -6 -8 0
-3 -6 -9 0
-3 -6 -10 0
-3 -7 -8 0
-3 -7 -9 0
-3 -7 -10 0
-3 -8 -9 0
-3 -8 -10 0
-3 -9 -10 0
-4 -5 -6 0
-4 -5 -7 0
-4 -5 -8 0
-4 -5 -9 0
-4 -5 -10 0
-4 -6 -7 0
-4 -6 -8 0
-4 -6 -9 0
-4 -6 -10 0
-4 -7 -8 0
-4 -7 -9 0
-4 -7 -10 0
-4 -8 -9 0
-4 -8 -10 0
-4 -9 -10 0
-5 -6 -7 0
-5 -6 -8 0
-5 -6 -9 0
-5 -6 -10 0
-5 -7 -8 0
-5 -7 -9 0
-5 -7 -10 0
-5 -8 -9 0
-5 -8 -10 0
-5 -9 -10 0
-6 -7 -8 0
-6 -7 -9 0
-6 -7 -10 0
-6 -8 -9 0
-6 -8 -10 0
-6 -9 -10 0
-7 -8 -9 0
-7 -8 -10 0
-7 -9 -10 0
-8 -9 -10 0
1 2 3 4 5 6 7 8 9 0
1 2 3 4 5 6 7 8 10 0
1 2 3 4 5 6 7 9 10 0
1 2 3 4 5 6 8 9 10 0
1 2 3 4 5 7 8 9 10 0
1 2 3 4 6 7 8 9 10 0
1 2 3 5 6 7 8 9 10 0
1 2 4 5 6 7 8 9 10 0
1 3 4 5 6 7 8 9 10 0
2 3 4 5 6 7 8 9 10 0
-11 -12 -13 0
-11 -12 -14 0
-11 -12 -15 0
-11 -12 -16 0
-11 -12 -17 0
-11 -12 -18 0
-11 -12 -19 0
-11 -12 -20 0
-11 -13 -14 0
-11 -13 -15 0
-11 -13 -16 0
-11 -13 -17 0
-11 -13 -18 0
-11 -13 -19 0
-11 -13 -20 0
-11 -14 -15 0
-11 -14 -16 0
-11 -14 -17 0
-11 -14 -18 0
-11 -14 -19 0
-11 -14 -20 0
-11 -15 -16 0
-11 -15 -17 0
-11 -15 -18 0
-11 -15 -19 0
-11 -15 -20 0
-11 -16 -17 0
-11 -16 -18 0
-11 -16 -19 0
-11 -16 -20 0
-11 -17 -18 0
-11 -17 -19 0
-11 -17 -20 0
-11 -18 -19 0
-11 -18 -20 0
-11 -19 -20 0
-12 -13 -14 0
-12 -13 -15 0
-12 -13 -16 0
-12 -13 -17 0
-12 -13 -18 0
-12 -13 -19 0
-12 -13 -20 0
-12 -14 -15 0
-12 -14 -16 0
-12 -14 -17 0
-12 -14 -18 0
-12 -14 -19 0
-12 -14 -20 0
-12 -15 -16 0
-12 -15 -17 0
-12 -15 -18 0
-12 -15 -19 0
-12 -15 -20 0
-12 -16 -17 0
-12 -16 -18 0
-12 -16 -19 0
-12 -16 -20 0
-12 -17 -18 0
-12 -17 -19 0
-12 -17 -20 0
-12 -18 -19 0
-12 -18 -20 0
-12 -19 -20 0
-13 -14 -15 0
-13 -14 -16 0
-13 -14 -17 0
-13 -14 -18 0
-13 -14 -19 0
-13 -14 -20 0
-13 -15 -16 0
-13 -15 -17 0
-13 -15 -18 0
-13 -15 -19 0
-13 -15 -20 0
-13 -16 -17 0
-13 -16 -18 0
-13 -16 -19 0
-13 -16 -20 0
-13 -17 -18 0
-13 -17 -19 0
-13 -17 -20 0
-13 -18 -19 0
-13 -18 -20 0
-13 -19 -20 0
-14 -15 -16 0
-14 -15 -17 0
-14 -15 -18 0
-14 -15 -19 0
-14 -15 -20 0
-14 -16 -17 0
-14 -16 -18 0
-14 -16 -19 0
-14 -16 -20 0
-14 -17 -18 0
-14 -17 -19 0
-14 -17 -20 0
-14 -18 -19 0
-14 -18 -20 0
-14 -19 -20 0
-15 -16 -17 0
-15 -16 -18 0
-15 -16 -19 0
-15 -16 -20 0
-15 -17 -18 0
-15 -17 -19 0
-15 -17 -20 0
-15 -18 -19 0
-15 -18 -20 0
-15 -19 -20 0
-16 -17 -18 0
-16 -17 -19 0
-16 -17 -20 0
-16 -18 -19 0
-16 -18 -20 0
-16 -19 -20 0
-17 -18 -19 0
-17 -18 -20 0
-17 -19 -20 0
-18 -19 -20 0
11 12 13 14 15 16 17 18 19 0
11 12 13 14 15 16 17 18 20 0
11 12 13 14 15 16 17 19 20 0
11 12 13 14 15 16 18 19 20 0
11 12 13 14 15 17 18 19 20 0
11 12 13 14 16 17 18 19 20 0
11 12 13 15 16 17 18 19 20 0
11 12 14 15 16 17 18 19 20 0
11 13 14 15 16 17 18 19 20 0
12 13 14 15 16 17 18 19 20 0
-21 -22 -23 0
-21 -22 -24 0
-21 -22 -25 0
-21 -22 -26 0
-21 -22 -27 0
-21 -22 -28 0
-21 -22 -29 0
-21 -22 -30 0
-21 -23 -24 0
-21 -23 -25 0
-21 -23 -26 0
-21 -23 -27 0
-21 -23 -28 0
-21 -23 -29 0
-21 -23 -30 0
-21 -24 -25 0
-21 -24 -26 0
-21 -24 -27 0
-21 -24 -28 0
-21 -24 -29 0
-21 -24 -30 0
-21 -25 -26 0
-21 -25 -27 0
-21 -25 -28 0
-21 -25 -29 0
-21 -25 -30 0
-21 -26 -27 0
-21 -26 -28 0
-21 -26 -29 0
-21 -26 -30 0
-21 -27 -28 0
-21 -27 -29 0
-21 -27 -30 0
-21 -28 -29 0
-21 -28 -30 0
-21 -29 -30 0
-22 -23 -24 0
-22 -23 -25 0
-22 -23 -26 0
-22 -23 -27 0
-22 -23 -28 0
-22 -23 -29 0
-22 -23 -30 0
-22 -24 -25 0
-22 -24 -26 0
-22 -24 -27 0
-22 -24 -28 0
-22 -24 -29 0
-22 -24 -30 0
-22 -25 -26 0
-22 -25 -27 0
-22 -25 -28 0
-22 -25 -29 0
-22 -25 -30 0
-22 -26 -27 0
-22 -26 -28 0
-22 -26 -29 0
-22 -26 -30 0
-22 -27 -28 0
-22 -27 -29 0
-22 -27 -30 0
-22 -28 -29 0
-22 -28 -30 0
-22 -29 -30 0
-23 -24 -25 0
-23 -24 -26 0
-23 -24 -27 0
-23 -24 -28 0
-23 -24 -29 0
-23 -24 -30 0
-23 -25 -26 0
-23 -25 -27 0
-23 -25 -28 0
-23 -25 -29 0
-23 -25 -30 0
-23 -26 -27 0
-23 -26 -28 0
-23 -26 -29 0
-23 -26 -30 0
-23 -27 -28 0
-23 -27 -29 0
-23 -27 -30 0
-23 -28 -29 0
-23 -28 -30 0
-23 -29 -30 0
-24 -25 -26 0
-24 -25 -27 0
-24 -25 -28 0
-24 -25 -29 0
-24 -25 -30 0
-24 -26 -27 0
-24 -26 -28 0
-24 -26 -29 0
-24 -26 -30 0
-24 -27 -28 0
-24 -27 -29 0
-24 -27 -30 0
-24 -28 -29 0
-24 -28 -30 0
-24 -29 -30 0
-25 -26 -27 0
-25 -26 -28 0
-25 -26 -29 0
-25 -26 -30 0
-25 -27 -28 0
-25 -27 -29 0
-25 -27 -30 0
-25 -28 -29 0
-25 -28 -30 0
-25 -29 -30 0
-26 -27 -28 0
-26 -27 -29 0
-26 -27 -30 0
-26 -28 -29 0
-26 -28 -30 0
-26 -29 -30 0
-27 -28 -29 0
-27 -28 -30 0
-27 -29 -30 0
-28 -29 -30 0
21 22 23 24 25 26 27 28 29 0
21 22 23 24 25 26 27 28 30 0
21 22 23 24 25 26 27 29 30 0
21 22 23 24 25 26 28 29 30 0
21 22 23 24 25 27 28 29 30 0
21 22 23 24 26 27 28 29 30 0
21 22 23 25 26 27 28 29 30 0
21 22 24 25 26 27 28 29 30 0
21 23 24 25 26 27 28 29 30 0
22 23 24 25 26 27 28 29 30 0
-31 -32 -33 0
-31 -32 -34 0
-31 -32 -35 0
-31 -32 -36 0
-31 -32 -37 0
-31 -32 -38 0
-31 -32 -39 0
-31 -32 -40 0
-31 -33 -34 0
-31 -33 -35 0
-31 -33 -36 0
-31 -33 -37 0
-31 -33 -38 0
-31 -33 -39 0
-31 -33 -40 0
-31 -34 -35 0
-31 -34 -36 0
-31 -34 -37 0
-31 -34 -38 0
-31 -34 -39 0
-31 -34 -40 0
-31 -35 -36 0
-31 -35 -37 0
-31 -35 -38 0
-31 -35 -39 0
-31 -35 -40 0
-31 -36 -37 0
-31 -36 -38 0
-31 -36 -39 0
-31 -36 -40 0
-31 -37 -38 0
-31 -37 -39 0
-31 -37 -40 0
-31 -38 -39 0
-31 -38 -40 0
-31 -39 -40 0
-32 -33 -34 0
-32 -33 -35 0
-32 -33 -36 0
-32 -33 -37 0
-32 -33 -38 0
-32 -33 -39 0
-32 -33 -40 0
-32 -34 -35 0
-32 -34 -36 0
-32 -34 -37 0
-32 -34 -38 0
-32 -34 -39 0
-32 -34 -40 0
-32 -35 -36 0
-32 -35 -37 0
-32 -35 -38 0
-32 -35 -39 0
-32 -35 -40 0
-32 -36 -37 0
-32 -36 -38 0
-32 -36 -39 0
-32 -36 -40 0
-32 -37 -38 0
-32 -37 -39 0
-32 -37 -40 0
-32 -38 -39 0
-32 -38 -40 0
-32 -39 -40 0
-33 -34 -35 0
-33 -34 -36 0
-33 -34 -37 0
-33 -34 -38 0
-33 -34 -39 0
-33 -34 -40 0
-33 -35 -36 0
-33 -35 -37 0
-33 -35 -38 0
-33 -35 -39 0
-33 -35 -40 0
-33 -36 -37 0
-33 -36 -38 0
-33 -36 -39 0
-33 -36 -40 0
-33 -37 -38 0
-33 -37 -39 0
-33 -37 -40 0
-33 -38 -39 0
-33 -38 -40 0
-33 -39 -40 0
-34 -35 -36 0
-34 -35 -37 0
-34 -35 -38 0
-34 -35 -39 0
-34 -35 -40 0
-34 -36 -37 0
-34 -36 -38 0
-34 -36 -39 0
-34 -36 -40 0
-34 -37 -38 0
-34 -37 -39 0
-34 -37 -40 0
-34 -38 -39 0
-34 -38 -40 0
-34 -39 -40 0
-35 -36 -37 0
-35 -36 -38 0
-35 -36 -39 0
-35 -36 -40 0
-35 -37 -38 0
-35 -37 -39 0
-35 -37 -40 0
-35 -38 -39 0
-35 -38 -40 0
-35 -39 -40 0
-36 -37 -38 0
-36 -37 -39 0
-36 -37 -40 0
-36 -38 -39 0
-36 -38 -40 0
-36 -39 -40 0
-37 -38 -39 0
-37 -38 -40 0
-37 -39 -40 0
-38 -39 -40 0
31 32 33 34 35 36 37 38 39 0
31 32 33 34 35 36 37 38 40 0
31 32 33 34 35 36 37 39 40 0
31 32 33 34 35 36 38 39 40 0
31 32 33 34 35 37 38 39 40 0
31 32 33 34 36 37 38 39 40 0
31 32 33 35 36 37 38 39 40 0
31 32 34 35 36 37 38 39 40 0
31 33 34 35 36 37 38 39 40 0
32 33 34 35 36 37 38 39 40 0
-41 -42 -43 0
-41 -42 -44 0
-41 -42 -45 0
-41 -42 -46 0
-41 -42 -47 0
-41 -42 -48 0
-41 -42 -49 0
-41 -42 -50 0
-41 -43 -44 0
-41 -43 -45 0
-41 -43 -46 0
-41 -43 -47 0
-41 -43 -48 0
-41 -43 -49 0
-41 -43 -50 0
-41 -44 -45 0
-41 -44 -46 0
-41 -44 -47 0
-41 -44 -48 0
-41 -44 -49 0
-41 -44 -50 0
-41 -45 -46 0
-41 -45 -47 0
-41 -45 -48 0
-41 -45 -49 0
-41 -45 -50 0
-41 -46 -47 0
-41 -46 -48 0
-41 -46 -49 0
-41 -46 -50 0
-41 -47 -48 0
-41 -47 -49 0
-41 -47 -50 0
-41 -48 -49 0
-41 -48 -50 0
-41 -49 -50 0
-42 -43 -44 0
-42 -43 -45 0
-42 -43 -46 0
-42 -43 -47 0
-42 -43 -48 0
-42 -43 -49 0
-42 -43 -50 0
-42 -44 -45 0
-42 -44 -46 0
-42 -44 -47 0
-42 -44 -48 0
-42 -44 -49 0
-42 -44 -50 0
-42 -45 -46 0
-42 -45 -47 0
-42 -45 -48 0
-42 -45 -49 0
-42 -45 -50 0
-42 -46 -47 0
-42 -46 -48 0
-42 -46 -49 0
-42 -46 -50 0
-42 -47 -48 0
-42 -47 -49 0
-42 -47 -50 0
-42 -48 -49 0
-42 -48 -50 0
-42 -49 -50 0
-43 -44 -45 0
-43 -44 -46 0
-43 -44 -47 0
-43 -44 -48 0
-43 -44 -49 0
-43 -44 -50 0
-43 -45 -46 0
-43 -45 -47 0
-43 -45 -48 0
-43 -45 -49 0
-43 -45 -50 0
-43 -46 -47 0
-43 -46 -48 0
-43 -46 -49 0
-43 -46 -50 0
-43 -47 -48 0
-43 -47 -49 0
-43 -47 -50 0
-43 -48 -49 0
-43 -48 -50 0
-43 -49 -50 0
-44 -45 -46 0
-44 -45 -47 0
-44 -45 -48 0
-44 -45 -49 0
-44 -45 -50 0
-44 -46 -47 0
-44 -46 -48 0
-44 -46 -49 0
-44 -46 -50 0
-44 -47 -48 0
-44 -47 -49 0
-44 -47 -50 0
-44 -48 -49 0
-44 -48 -50 0
-44 -49 -50 0
-45 -46 -47 0
-45 -46 -48 0
-45 -46 -49 0
-45 -46 -50 0
-45 -47 -48 0
-45 -47 -49 0
-45 -47 -50 0
-45 -48 -49 0
-45 -48 -50 0
-45 -49 -50 0
-46 -47 -48 0
-46 -47 -49 0
-46 -47 -50 0
-46 -48 -49 0
-46 -48 -50 0
-46 -49 -50 0
-47 -48 -49 0
-47 -48 -50 0
-47 -49 -50 0
-48 -49 -50 0
41 42 43 44 45 46 47 48 49 0
41 42 43 44 45 46 47 48 50 0
41 42 43 44 45 46 47 49 50 0
41 42 43 44 45 46 48 49 50 0
41 42 43 44 45 47 48 49 50 0
41 42 43 44 46 47 48 49 50 0
41 42 43 45 46 47 48 49 50 0
41 42 44 45 46 47 48 49 50 0
41 43 44 45 46 47 48 49 50 0
42 43 44 45 46 47 48 49 50 0
-51 -52 -53 0
-51 -52 -54 0
-51 -52 -55 0
-51 -52 -56 0
-51 -52 -57 0
-51 -52 -58 0
-51 -52 -59 0
-51 -52 -60 0
-51 -53 -54 0
-51 -53 -55 0
-51 -53 -56 0
-51 -53 -57 0
-51 -53 -58 0
-51 -53 -59 0
-51 -53 -60 0
-51 -54 -55 0
-51 -54 -56 0
-51 -54 -57 0
-51 -54 -58 0
-51 -54 -59 0
-51 -54 -60 0
-51 -55 -56 0
-51 -55 -57 0
-51 -55 -58 0
-51 -55 -59 0
-51 -55 -60 0
-51 -56 -57 0
-51 -56 -58 0
-51 -56 -59 0
-51 -56 -60 0
-51 -57 -58 0
-51 -57 -59 0
-51 -57 -60 0
-51 -58 -59 0
-51 -58 -60 0
-51 -59 -60 0
-52 -53 -54 0
-52 -53 -55 0
-52 -53 -56 0
-52 -53 -57 0
-52 -53 -58 0
-52 -53 -59 0
-52 -53 -60 0
-52 -54 -55 0
-52 -54 -56 0
-52 -54 -57 0
-52 -54 -58 0
-52 -54 -59 0
-52 -54 -60 0
-52 -55 -56 0
-52 -55 -57 0
-52 -55 -58 0
-52 -55 -59 0
-52 -55 -60 0
-52 -56 -57 0
-52 -56 -58 0
-52 -56 -59 0
-52 -56 -60 0
-52 -57 -58 0
-52 -57 -59 0
-52 -57 -60 0
-52 -58 -59 0
-52 -58 -60 0
-52 -59 -60 0
-53 -54 -55 0
-53 -54 -56 0
-53 -54 -57 0
-53 -54 -58 0
-53 -54 -59 0
-53 -54 -60 0
-53 -55 -56 0
-53 -55 -57 0
-53 -55 -58 0
-53 -55 -59 0
-53 -55 -60 0
-53 -56 -57 0
-53 -56 -58 0
-53 -56 -59 0
-53 -56 -60 0
-53 -57 -58 0
-53 -57 -59 0
-53 -57 -60 0
-53 -58 -59 0
-53 -58 -60 0
-53 -59 -60 0
-54 -55 -56 0
-54 -55 -57 0
-54 -55 -58 0
-54 -55 -59 0
-54 -55 -60 0
-54 -56 -57 0
-54 -56 -58 0
-54 -56 -59 0
-54 -56 -60 0
-54 -57 -58 0
-54 -57 -59 0
-54 -57 -60 0
-54 -58 -59 0
-54 -58 -60 0
-54 -59 -60 0
-55 -56 -57 0
-55 -56 -58 0
-55 -56 -59 0
-55 -56 -60 0
-55 -57 -58 0
-55 -57 -59 0
-55 -57 -60 0
-55 -58 -59 0
-55 -58 -60 0
-55 -59 -60 0
-56 -57 -58 0
-56 -57 -59 0
-56 -57 -60 0
-56 -58 -59 0
-56 -58 -60 0
-56 -59 -60 0
-57 -58 -59 0
-57 -58 -60 0
-57 -59 -60 0
-58 -59 -60 0
51 52 53 54 55 56 57 58 59 0
51 52 53 54 55 56 57 58 60 0
51 52 53 54 55 56 57 59 60 0
51 52 53 54 55 56 58 59 60 0
51 52 53 54 55 57 58 59 60 0
51 52 53 54 56 57 58 59 60 0
51 52 53 55 56 57 58 59 60 0
51 52 54 55 56 57 58 59 60 0
51 53 54 55 56 57 58 59 60 0
52 53 54 55 56 57 58 59 60 0
-1 -11 0
-1 -21 0
-1 -31 0
-1 -41 0
-1 -51 0
-11 -21 0
-11 -31 0
-11 -41 0
-11 -51 0
-21 -31 0
-21 -41 0
-21 -51 0
-31 -41 0
-31 -51 0
-41 -51 0
-2 -12 0
-2 -22 0
-2 -32 0
-2 -42 0
-2 -52 0
-12 -22 0
-12 -32 0
-12 -42 0
-12 -52 0
-22 -32 0
-22 -42 0
-22 -52 0
-32 -42 0
-32 -52 0
-42 -52 0
-3 -13 0
-3 -23 0
-3 -33 0
-3 -43 0
-3 -53 0
-13 -23 0
-13 -33 0
-13 -43 0
-13 -53 0
-23 -33 0
-23 -43 0
-23 -53 0
-33 -43 0
-33 -53 0
-43 -53 0
-4 -14 0
-4 -24 0
-4 -34 0
-4 -44 0
-4 -54 0
-14 -24 0
-14 -34 0
-14 -44 0
-14 -54 0
-24 -34 0
-24 -44 0
-24 -54 0
-34 -44 0
-34 -54 0
-44 -54 0
-5 -15 0
-5 -25 0
-5 -35 0
-5 -45 0
-5 -55 0
-15 -25 0
-15 -35 0
-15 -45 0
-15 -55 0
-25 -35 0
-25 -45 0
-25 -55 0
-35 -45 0
-35 -55 0
-45 -55 0
-6 -16 0
-6 -26 0
-6 -36 0
-6 -46 0
-6 -56 0
-16 -26 0
-16 -36 0
-16 -46 0
-16 -56 0
-26 -36 0
-26 -46 0
-26 -56 0
-36 -46 0
-36 -56 0
-46 -56 0
-7 -17 0
-7 -27 0
-7 -37 0
-7 -47 0
-7 -57 0
-17 -27 0
-17 -37 0
-17 -47 0
-17 -57 0
-27 -37 0
-27 -47 0
-27 -57 0
-37 -47 0
-37 -57 0
-47 -57 0
-8 -18 0
-8 -28 0
-8 -38 0
-8 -48 0
-8 -58 0
-18 -28 0
-18 -38 0
-18 -48 0
-18 -58 0
-28 -38 0
-28 -48 0
-28 -58 0
-38 -48 0
-38 -58 0
-48 -58 0
-9 -19 0
-9 -29 0
-9 -39 0
-9 -49 0
-9 -59 0
-19 -29 0
-19 -39 0
-19 -49 0
-19 -59 0
-29 -39 0
-29 -49 0
-29 -59 0
-39 -49 0
-39 -59 0
-49 -59 0
-10 -20 0
-10 -30 0
-10 -40 0
-10 -50 0
-10 -60 0
-20 -30 0
-20 -40 0
-20 -50 0
-20 -60 0
-30 -40 0
-30 -50 0
-30 -60 0
-40 -50 0
-40 -60 0
-50 -60 0
