c Phase 3 generated performance instance
c family=capacity2_violation
c scale=3
c variant=tune
c noise_percent=0
c expected=UNSATISFIABLE
p cnf 21 133
-1 -2 0
-1 -3 0
-2 -3 0
1 2 3 0
-4 -5 0
-4 -6 0
-5 -6 0
4 5 6 0
-7 -8 0
-7 -9 0
-8 -9 0
7 8 9 0
-10 -11 0
-10 -12 0
-11 -12 0
10 11 12 0
-13 -14 0
-13 -15 0
-14 -15 0
13 14 15 0
-16 -17 0
-16 -18 0
-17 -18 0
16 17 18 0
-19 -20 0
-19 -21 0
-20 -21 0
19 20 21 0
-1 -4 -7 0
-1 -4 -10 0
-1 -4 -13 0
-1 -4 -16 0
-1 -4 -19 0
-1 -7 -10 0
-1 -7 -13 0
-1 -7 -16 0
-1 -7 -19 0
-1 -10 -13 0
-1 -10 -16 0
-1 -10 -19 0
-1 -13 -16 0
-1 -13 -19 0
-1 -16 -19 0
-4 -7 -10 0
-4 -7 -13 0
-4 -7 -16 0
-4 -7 -19 0
-4 -10 -13 0
-4 -10 -16 0
-4 -10 -19 0
-4 -13 -16 0
-4 -13 -19 0
-4 -16 -19 0
-7 -10 -13 0
-7 -10 -16 0
-7 -10 -19 0
-7 -13 -16 0
-7 -13 -19 0
-7 -16 -19 0
-10 -13 -16 0
-10 -13 -19 0
-10 -16 -19 0
-13 -16 -19 0
-2 -5 -8 0
-2 -5 -11 0
-2 -5 -14 0
-2 -5 -17 0
-2 -5 -20 0
-2 -8 -11 0
-2 -8 -14 0
-2 -8 -17 0
-2 -8 -20 0
-2 -11 -14 0
-2 -11 -17 0
-2 -11 -20 0
-2 -14 -17 0
-2 -14 -20 0
-2 -17 -20 0
-5 -8 -11 0
-5 -8 -14 0
-5 -8 -17 0
-5 -8 -20 0
-5 -11 -14 0
-5 -11 -17 0
-5 -11 -20 0
-5 -14 -17 0
-5 -14 -20 0
-5 -17 -20 0
-8 -11 -14 0
-8 -11 -17 0
-8 -11 -20 0
-8 -14 -17 0
-8 -14 -20 0
-8 -17 -20 0
-11 -14 -17 0
-11 -14 -20 0
-11 -17 -20 0
-14 -17 -20 0
-3 -6 -9 0
-3 -6 -12 0
-3 -6 -15 0
-3 -6 -18 0
-3 -6 -21 0
-3 -9 -12 0
-3 -9 -15 0
-3 -9 -18 0
-3 -9 -21 0
-3 -12 -15 0
-3 -12 -18 0
-3 -12 -21 0
-3 -15 -18 0
-3 -15 -21 0
-3 -18 -21 0
-6 -9 -12 0
-6 -9 -15 0
-6 -9 -18 0
-6 -9 -21 0
-6 -12 -15 0
-6 -12 -18 0
-6 -12 -21 0
-6 -15 -18 0
-6 -15 -21 0
-6 -18 -21 0
-9 -12 -15 0
-9 -12 -18 0
-9 -12 -21 0
-9 -15 -18 0
-9 -15 -21 0
-9 -18 -21 0
-12 -15 -18 0
-12 -15 -21 0
-12 -18 -21 0
-15 -18 -21 0
