c Phase 3 generated performance instance
c family=capacity2_violation
c scale=3
c variant=tune
c noise_percent=100
c expected=UNSATISFIABLE
p cnf 88 266
-1 -2 0
-1 -3 0
-2 -3 0
1 2 3 0
-4 -5 0
-4 -6 0
-5 -6 0
4 5 6 0
-7 -8 0
-7 -9 0
-8 -9 0
7 8 9 0
-10 -11 0
-10 -12 0
-11 -12 0
10 11 12 0
-13 -14 0
-13 -15 0
-14 -15 0
13 14 15 0
-16 -17 0
-16 -18 0
-17 -18 0
16 17 18 0
-19 -20 0
-19 -21 0
-20 -21 0
19 20 21 0
-1 -4 -7 0
-1 -4 -10 0
-1 -4 -13 0
-1 -4 -16 0
-1 -4 -19 0
-1 -7 -10 0
-1 -7 -13 0
-1 -7 -16 0
-1 -7 -19 0
-1 -10 -13 0
-1 -10 -16 0
-1 -10 -19 0
-1 -13 -16 0
-1 -13 -19 0
-1 -16 -19 0
-4 -7 -10 0
-4 -7 -13 0
-4 -7 -16 0
-4 -7 -19 0
-4 -10 -13 0
-4 -10 -16 0
-4 -10 -19 0
-4 -13 -16 0
-4 -13 -19 0
-4 -16 -19 0
-7 -10 -13 0
-7 -10 -16 0
-7 -10 -19 0
-7 -13 -16 0
-7 -13 -19 0
-7 -16 -19 0
-10 -13 -16 0
-10 -13 -19 0
-10 -16 -19 0
-13 -16 -19 0
-2 -5 -8 0
-2 -5 -11 0
-2 -5 -14 0
-2 -5 -17 0
-2 -5 -20 0
-2 -8 -11 0
-2 -8 -14 0
-2 -8 -17 0
-2 -8 -20 0
-2 -11 -14 0
-2 -11 -17 0
-2 -11 -20 0
-2 -14 -17 0
-2 -14 -20 0
-2 -17 -20 0
-5 -8 -11 0
-5 -8 -14 0
-5 -8 -17 0
-5 -8 -20 0
-5 -11 -14 0
-5 -11 -17 0
-5 -11 -20 0
-5 -14 -17 0
-5 -14 -20 0
-5 -17 -20 0
-8 -11 -14 0
-8 -11 -17 0
-8 -11 -20 0
-8 -14 -17 0
-8 -14 -20 0
-8 -17 -20 0
-11 -14 -17 0
-11 -14 -20 0
-11 -17 -20 0
-14 -17 -20 0
-3 -6 -9 0
-3 -6 -12 0
-3 -6 -15 0
-3 -6 -18 0
-3 -6 -21 0
-3 -9 -12 0
-3 -9 -15 0
-3 -9 -18 0
-3 -9 -21 0
-3 -12 -15 0
-3 -12 -18 0
-3 -12 -21 0
-3 -15 -18 0
-3 -15 -21 0
-3 -18 -21 0
-6 -9 -12 0
-6 -9 -15 0
-6 -9 -18 0
-6 -9 -21 0
-6 -12 -15 0
-6 -12 -18 0
-6 -12 -21 0
-6 -15 -18 0
-6 -15 -21 0
-6 -18 -21 0
-9 -12 -15 0
-9 -12 -18 0
-9 -12 -21 0
-9 -15 -18 0
-9 -15 -21 0
-9 -18 -21 0
-12 -15 -18 0
-12 -15 -21 0
-12 -18 -21 0
-15 -18 -21 0
33 -47 -72 0
-27 57 75 0
-39 -42 57 0
38 -59 -68 0
-57 64 65 0
-31 36 -77 0
-26 -32 83 0
31 62 69 0
23 -74 85 0
47 -62 75 0
56 57 -58 0
-64 -72 75 0
25 -53 -69 0
70 -73 86 0
-33 -67 81 0
27 -44 49 0
33 -59 -60 0
-23 -56 61 0
-34 -45 47 0
-74 76 -79 0
-33 40 62 0
-30 31 37 0
45 -66 78 0
-29 -50 -58 0
58 75 79 0
25 -36 37 0
34 -42 -55 0
-31 -76 79 0
39 -55 72 0
-23 -35 -45 0
-26 55 74 0
29 38 44 0
64 -67 77 0
-33 56 82 0
-35 48 84 0
-22 -58 88 0
33 -36 -58 0
-38 -42 60 0
33 68 75 0
-46 47 72 0
31 59 83 0
-33 49 82 0
-24 38 75 0
-81 84 85 0
-30 -34 82 0
27 48 -84 0
-28 -42 -61 0
24 -36 -78 0
22 -24 74 0
22 44 -76 0
35 -62 65 0
34 -50 76 0
-27 66 68 0
25 -36 -74 0
25 -41 -58 0
39 57 77 0
-29 -49 63 0
-27 46 70 0
-34 -42 61 0
33 -57 -87 0
45 57 77 0
40 -65 -69 0
35 -46 -67 0
-33 -37 -60 0
50 -54 -60 0
-45 -61 -81 0
23 39 -43 0
24 -45 71 0
47 63 86 0
-44 45 87 0
-26 43 -55 0
-23 -51 -67 0
-30 -36 -43 0
44 -69 -86 0
37 59 -71 0
-61 -65 88 0
-35 -63 78 0
-69 -76 83 0
-31 69 85 0
30 60 83 0
48 -65 -88 0
36 -60 61 0
-62 -69 -79 0
-38 50 -58 0
46 -84 -88 0
-38 -47 58 0
-39 55 -66 0
-41 -64 -82 0
-29 -57 75 0
-49 60 82 0
-30 -64 -72 0
48 63 -71 0
-41 67 86 0
43 59 -72 0
53 55 -64 0
31 46 47 0
-52 -69 -77 0
33 48 80 0
38 -59 -86 0
-56 61 72 0
-23 32 -47 0
-38 -48 83 0
-54 -70 74 0
-36 -45 -65 0
42 -57 -78 0
39 53 -63 0
25 38 -71 0
-26 29 60 0
-37 71 82 0
-23 52 85 0
64 65 69 0
42 -83 88 0
45 62 70 0
-54 -66 82 0
32 -67 -79 0
-27 -59 -78 0
-71 -80 81 0
23 -24 59 0
33 59 -84 0
35 -42 47 0
-26 85 -86 0
-28 -33 50 0
39 55 82 0
30 -83 -86 0
24 -62 83 0
-38 62 78 0
42 -50 55 0
77 83 -87 0
-38 40 77 0
-26 -69 -77 0
-34 -44 50 0
27 -58 83 0
-35 41 -74 0
