c Phase 3 generated performance instance
c family=capacity2_violation
c scale=4
c variant=tune
c noise_percent=100
c expected=UNSATISFIABLE
p cnf 236 798
-1 -2 0
-1 -3 0
-1 -4 0
-2 -3 0
-2 -4 0
-3 -4 0
1 2 3 4 0
-5 -6 0
-5 -7 0
-5 -8 0
-6 -7 0
-6 -8 0
-7 -8 0
5 6 7 8 0
-9 -10 0
-9 -11 0
-9 -12 0
-10 -11 0
-10 -12 0
-11 -12 0
9 10 11 12 0
-13 -14 0
-13 -15 0
-13 -16 0
-14 -15 0
-14 -16 0
-15 -16 0
13 14 15 16 0
-17 -18 0
-17 -19 0
-17 -20 0
-18 -19 0
-18 -20 0
-19 -20 0
17 18 19 20 0
-21 -22 0
-21 -23 0
-21 -24 0
-22 -23 0
-22 -24 0
-23 -24 0
21 22 23 24 0
-25 -26 0
-25 -27 0
-25 -28 0
-26 -27 0
-26 -28 0
-27 -28 0
25 26 27 28 0
-29 -30 0
-29 -31 0
-29 -32 0
-30 -31 0
-30 -32 0
-31 -32 0
29 30 31 32 0
-33 -34 0
-33 -35 0
-33 -36 0
-34 -35 0
-34 -36 0
-35 -36 0
33 34 35 36 0
-1 -5 -9 0
-1 -5 -13 0
-1 -5 -17 0
-1 -5 -21 0
-1 -5 -25 0
-1 -5 -29 0
-1 -5 -33 0
-1 -9 -13 0
-1 -9 -17 0
-1 -9 -21 0
-1 -9 -25 0
-1 -9 -29 0
-1 -9 -33 0
-1 -13 -17 0
-1 -13 -21 0
-1 -13 -25 0
-1 -13 -29 0
-1 -13 -33 0
-1 -17 -21 0
-1 -17 -25 0
-1 -17 -29 0
-1 -17 -33 0
-1 -21 -25 0
-1 -21 -29 0
-1 -21 -33 0
-1 -25 -29 0
-1 -25 -33 0
-1 -29 -33 0
-5 -9 -13 0
-5 -9 -17 0
-5 -9 -21 0
-5 -9 -25 0
-5 -9 -29 0
-5 -9 -33 0
-5 -13 -17 0
-5 -13 -21 0
-5 -13 -25 0
-5 -13 -29 0
-5 -13 -33 0
-5 -17 -21 0
-5 -17 -25 0
-5 -17 -29 0
-5 -17 -33 0
-5 -21 -25 0
-5 -21 -29 0
-5 -21 -33 0
-5 -25 -29 0
-5 -25 -33 0
-5 -29 -33 0
-9 -13 -17 0
-9 -13 -21 0
-9 -13 -25 0
-9 -13 -29 0
-9 -13 -33 0
-9 -17 -21 0
-9 -17 -25 0
-9 -17 -29 0
-9 -17 -33 0
-9 -21 -25 0
-9 -21 -29 0
-9 -21 -33 0
-9 -25 -29 0
-9 -25 -33 0
-9 -29 -33 0
-13 -17 -21 0
-13 -17 -25 0
-13 -17 -29 0
-13 -17 -33 0
-13 -21 -25 0
-13 -21 -29 0
-13 -21 -33 0
-13 -25 -29 0
-13 -25 -33 0
-13 -29 -33 0
-17 -21 -25 0
-17 -21 -29 0
-17 -21 -33 0
-17 -25 -29 0
-17 -25 -33 0
-17 -29 -33 0
-21 -25 -29 0
-21 -25 -33 0
-21 -29 -33 0
-25 -29 -33 0
-2 -6 -10 0
-2 -6 -14 0
-2 -6 -18 0
-2 -6 -22 0
-2 -6 -26 0
-2 -6 -30 0
-2 -6 -34 0
-2 -10 -14 0
-2 -10 -18 0
-2 -10 -22 0
-2 -10 -26 0
-2 -10 -30 0
-2 -10 -34 0
-2 -14 -18 0
-2 -14 -22 0
-2 -14 -26 0
-2 -14 -30 0
-2 -14 -34 0
-2 -18 -22 0
-2 -18 -26 0
-2 -18 -30 0
-2 -18 -34 0
-2 -22 -26 0
-2 -22 -30 0
-2 -22 -34 0
-2 -26 -30 0
-2 -26 -34 0
-2 -30 -34 0
-6 -10 -14 0
-6 -10 -18 0
-6 -10 -22 0
-6 -10 -26 0
-6 -10 -30 0
-6 -10 -34 0
-6 -14 -18 0
-6 -14 -22 0
-6 -14 -26 0
-6 -14 -30 0
-6 -14 -34 0
-6 -18 -22 0
-6 -18 -26 0
-6 -18 -30 0
-6 -18 -34 0
-6 -22 -26 0
-6 -22 -30 0
-6 -22 -34 0
-6 -26 -30 0
-6 -26 -34 0
-6 -30 -34 0
-10 -14 -18 0
-10 -14 -22 0
-10 -14 -26 0
-10 -14 -30 0
-10 -14 -34 0
-10 -18 -22 0
-10 -18 -26 0
-10 -18 -30 0
-10 -18 -34 0
-10 -22 -26 0
-10 -22 -30 0
-10 -22 -34 0
-10 -26 -30 0
-10 -26 -34 0
-10 -30 -34 0
-14 -18 -22 0
-14 -18 -26 0
-14 -18 -30 0
-14 -18 -34 0
-14 -22 -26 0
-14 -22 -30 0
-14 -22 -34 0
-14 -26 -30 0
-14 -26 -34 0
-14 -30 -34 0
-18 -22 -26 0
-18 -22 -30 0
-18 -22 -34 0
-18 -26 -30 0
-18 -26 -34 0
-18 -30 -34 0
-22 -26 -30 0
-22 -26 -34 0
-22 -30 -34 0
-26 -30 -34 0
-3 -7 -11 0
-3 -7 -15 0
-3 -7 -19 0
-3 -7 -23 0
-3 -7 -27 0
-3 -7 -31 0
-3 -7 -35 0
-3 -11 -15 0
-3 -11 -19 0
-3 -11 -23 0
-3 -11 -27 0
-3 -11 -31 0
-3 -11 -35 0
-3 -15 -19 0
-3 -15 -23 0
-3 -15 -27 0
-3 -15 -31 0
-3 -15 -35 0
-3 -19 -23 0
-3 -19 -27 0
-3 -19 -31 0
-3 -19 -35 0
-3 -23 -27 0
-3 -23 -31 0
-3 -23 -35 0
-3 -27 -31 0
-3 -27 -35 0
-3 -31 -35 0
-7 -11 -15 0
-7 -11 -19 0
-7 -11 -23 0
-7 -11 -27 0
-7 -11 -31 0
-7 -11 -35 0
-7 -15 -19 0
-7 -15 -23 0
-7 -15 -27 0
-7 -15 -31 0
-7 -15 -35 0
-7 -19 -23 0
-7 -19 -27 0
-7 -19 -31 0
-7 -19 -35 0
-7 -23 -27 0
-7 -23 -31 0
-7 -23 -35 0
-7 -27 -31 0
-7 -27 -35 0
-7 -31 -35 0
-11 -15 -19 0
-11 -15 -23 0
-11 -15 -27 0
-11 -15 -31 0
-11 -15 -35 0
-11 -19 -23 0
-11 -19 -27 0
-11 -19 -31 0
-11 -19 -35 0
-11 -23 -27 0
-11 -23 -31 0
-11 -23 -35 0
-11 -27 -31 0
-11 -27 -35 0
-11 -31 -35 0
-15 -19 -23 0
-15 -19 -27 0
-15 -19 -31 0
-15 -19 -35 0
-15 -23 -27 0
-15 -23 -31 0
-15 -23 -35 0
-15 -27 -31 0
-15 -27 -35 0
-15 -31 -35 0
-19 -23 -27 0
-19 -23 -31 0
-19 -23 -35 0
-19 -27 -31 0
-19 -27 -35 0
-19 -31 -35 0
-23 -27 -31 0
-23 -27 -35 0
-23 -31 -35 0
-27 -31 -35 0
-4 -8 -12 0
-4 -8 -16 0
-4 -8 -20 0
-4 -8 -24 0
-4 -8 -28 0
-4 -8 -32 0
-4 -8 -36 0
-4 -12 -16 0
-4 -12 -20 0
-4 -12 -24 0
-4 -12 -28 0
-4 -12 -32 0
-4 -12 -36 0
-4 -16 -20 0
-4 -16 -24 0
-4 -16 -28 0
-4 -16 -32 0
-4 -16 -36 0
-4 -20 -24 0
-4 -20 -28 0
-4 -20 -32 0
-4 -20 -36 0
-4 -24 -28 0
-4 -24 -32 0
-4 -24 -36 0
-4 -28 -32 0
-4 -28 -36 0
-4 -32 -36 0
-8 -12 -16 0
-8 -12 -20 0
-8 -12 -24 0
-8 -12 -28 0
-8 -12 -32 0
-8 -12 -36 0
-8 -16 -20 0
-8 -16 -24 0
-8 -16 -28 0
-8 -16 -32 0
-8 -16 -36 0
-8 -20 -24 0
-8 -20 -28 0
-8 -20 -32 0
-8 -20 -36 0
-8 -24 -28 0
-8 -24 -32 0
-8 -24 -36 0
-8 -28 -32 0
-8 -28 -36 0
-8 -32 -36 0
-12 -16 -20 0
-12 -16 -24 0
-12 -16 -28 0
-12 -16 -32 0
-12 -16 -36 0
-12 -20 -24 0
-12 -20 -28 0
-12 -20 -32 0
-12 -20 -36 0
-12 -24 -28 0
-12 -24 -32 0
-12 -24 -36 0
-12 -28 -32 0
-12 -28 -36 0
-12 -32 -36 0
-16 -20 -24 0
-16 -20 -28 0
-16 -20 -32 0
-16 -20 -36 0
-16 -24 -28 0
-16 -24 -32 0
-16 -24 -36 0
-16 -28 -32 0
-16 -28 -36 0
-16 -32 -36 0
-20 -24 -28 0
-20 -24 -32 0
-20 -24 -36 0
-20 -28 -32 0
-20 -28 -36 0
-20 -32 -36 0
-24 -28 -32 0
-24 -28 -36 0
-24 -32 -36 0
-28 -32 -36 0
-63 170 182 0
-145 155 229 0
80 166 231 0
97 120 -208 0
-66 -106 -217 0
81 -119 -184 0
93 -172 -216 0
100 -167 -200 0
-72 -130 218 0
40 117 185 0
-64 198 226 0
66 134 168 0
-69 -79 -184 0
-167 172 -213 0
74 -117 184 0
-52 149 158 0
50 -189 206 0
55 194 229 0
138 -168 190 0
-84 132 213 0
-47 -57 -103 0
-78 -200 -201 0
-45 -57 220 0
92 -100 -235 0
82 156 202 0
51 197 -205 0
64 139 -145 0
-121 127 203 0
79 -123 -150 0
82 -159 -178 0
-93 125 128 0
58 139 -185 0
99 112 170 0
-78 133 -219 0
-59 -159 172 0
108 -114 -199 0
-131 182 -225 0
-124 176 229 0
-62 186 -214 0
54 -78 82 0
39 74 -164 0
-68 -85 167 0
-108 149 -204 0
-37 59 -125 0
191 -195 -220 0
-139 -140 205 0
37 -137 206 0
60 -113 -220 0
-84 218 -228 0
163 189 -199 0
37 45 -154 0
38 115 -189 0
122 164 -192 0
100 158 184 0
114 -188 -213 0
46 94 -115 0
103 104 109 0
-54 -78 134 0
130 -155 236 0
101 119 143 0
53 -60 83 0
37 -48 106 0
-131 -204 231 0
80 130 -150 0
-69 94 -172 0
-66 110 -155 0
-80 -94 -164 0
126 -138 177 0
101 154 -236 0
86 -124 -234 0
-99 101 113 0
-48 -89 -225 0
-41 98 150 0
71 -112 -219 0
-41 -80 139 0
-87 159 166 0
-94 133 185 0
59 -108 173 0
-72 -89 158 0
46 -68 -151 0
-119 178 -232 0
54 -97 120 0
68 -79 -175 0
102 188 197 0
104 -209 -224 0
135 -175 -189 0
54 -70 92 0
-43 -44 186 0
187 213 216 0
-40 -146 -208 0
-131 -208 -209 0
170 174 188 0
80 128 143 0
54 108 156 0
-64 202 -222 0
-62 191 -202 0
-102 222 226 0
68 202 225 0
117 145 -214 0
130 -173 233 0
-88 185 192 0
103 157 235 0
77 -86 191 0
-42 70 -171 0
-56 58 123 0
-57 -87 110 0
-112 131 146 0
84 108 168 0
79 155 -212 0
102 182 199 0
52 89 -180 0
121 -157 191 0
41 192 -200 0
-42 -109 147 0
-115 151 -180 0
90 -112 202 0
128 -169 225 0
-41 -142 176 0
54 63 -173 0
101 -192 236 0
-137 209 -223 0
135 185 -219 0
62 179 194 0
-40 55 116 0
114 -130 -148 0
-58 -125 200 0
100 -123 -163 0
91 -154 -206 0
65 -87 -109 0
126 190 230 0
-131 -133 -171 0
-40 -154 -235 0
-170 -190 198 0
54 -155 195 0
-58 151 -210 0
-106 -117 -147 0
-101 113 -232 0
-37 -78 -179 0
-67 169 -204 0
68 -124 140 0
57 131 184 0
-98 163 -232 0
-38 -92 -186 0
-95 107 139 0
41 88 236 0
37 66 -227 0
-92 107 -149 0
-59 -98 -224 0
-136 177 -228 0
45 -76 -140 0
133 -165 -232 0
-66 209 -231 0
-45 48 53 0
60 155 -201 0
-155 160 169 0
-89 -198 217 0
124 169 201 0
93 -109 -170 0
110 161 -226 0
-82 -111 139 0
-84 180 -205 0
-67 -80 -87 0
-82 125 136 0
-87 -138 235 0
-140 -193 -215 0
50 -167 -213 0
77 -91 -162 0
-70 72 -217 0
60 61 -168 0
97 -128 233 0
-44 -98 101 0
71 72 -227 0
-38 63 77 0
46 -65 -168 0
195 199 225 0
-106 175 216 0
49 58 -199 0
-141 -153 -192 0
144 156 231 0
-62 -205 -231 0
89 -95 111 0
47 105 -209 0
59 -160 -171 0
-61 86 -141 0
70 75 -175 0
-37 -108 -210 0
-115 -123 -228 0
55 -161 -192 0
47 88 -105 0
-55 -152 -235 0
-98 213 -230 0
-114 143 -165 0
76 -178 -205 0
100 -205 218 0
-99 199 226 0
-59 -141 -159 0
106 126 -168 0
-77 166 200 0
-38 -66 198 0
39 71 113 0
51 -183 -222 0
74 -121 200 0
82 107 -202 0
-93 145 -195 0
98 -117 198 0
-78 94 -188 0
39 -67 -117 0
90 -107 -211 0
84 -125 154 0
72 83 -110 0
-134 148 190 0
-40 76 139 0
91 -198 -211 0
42 -88 210 0
135 -144 -162 0
-55 64 77 0
66 160 178 0
60 113 -154 0
-39 59 125 0
56 121 -135 0
149 -167 200 0
-144 154 189 0
89 94 -232 0
-44 -184 -193 0
145 -146 152 0
-78 -123 177 0
45 50 68 0
123 -128 208 0
-75 -133 -226 0
-68 88 -151 0
138 -178 -209 0
37 -39 160 0
50 -148 229 0
75 -152 -218 0
69 -86 -118 0
110 154 -215 0
60 143 215 0
-50 -153 174 0
-43 151 156 0
-103 -127 231 0
145 205 216 0
-43 45 -53 0
-47 -62 191 0
-94 -95 218 0
-126 168 227 0
40 -132 170 0
100 -157 212 0
-65 139 153 0
42 -54 108 0
-129 -167 205 0
139 -221 -228 0
-86 142 -206 0
74 -76 188 0
-173 -177 236 0
70 -225 -232 0
-114 116 178 0
50 109 180 0
-76 172 207 0
57 69 -195 0
-62 91 129 0
-193 -204 -236 0
-58 223 -230 0
45 65 108 0
48 117 202 0
93 -170 -171 0
51 -125 -207 0
-85 -192 -230 0
-98 -176 183 0
109 159 -177 0
140 -196 -232 0
-84 -158 -184 0
-101 -219 -220 0
-59 120 -143 0
152 169 218 0
-102 -226 233 0
-105 112 133 0
-108 122 -147 0
91 203 223 0
47 -104 172 0
63 -66 198 0
-48 -97 160 0
-172 -192 210 0
-138 -177 -186 0
72 177 -208 0
108 -110 153 0
62 177 -226 0
-85 102 215 0
-77 130 -199 0
38 93 -95 0
-38 42 -234 0
-67 -176 -181 0
67 71 133 0
57 -102 121 0
-37 -137 145 0
85 101 -142 0
-91 -120 132 0
83 86 -87 0
-65 -176 -180 0
-64 165 -180 0
42 64 -162 0
-219 232 -236 0
64 -70 -199 0
126 180 -200 0
134 -165 -196 0
165 186 -190 0
43 -85 -97 0
-76 191 200 0
-139 158 223 0
67 -84 226 0
102 -157 -209 0
-87 119 224 0
-126 160 210 0
-56 65 225 0
73 -154 -206 0
-55 78 -162 0
61 147 -234 0
-98 189 -221 0
41 -75 -90 0
47 153 205 0
59 -79 -108 0
-64 -210 -229 0
-77 125 154 0
-60 161 -217 0
155 -211 -231 0
58 -181 -189 0
171 191 194 0
-77 156 -219 0
66 -140 229 0
-143 176 214 0
67 -220 223 0
90 -120 131 0
110 128 -166 0
-58 -115 -122 0
-61 82 135 0
144 184 223 0
-51 86 145 0
-38 -108 186 0
139 172 -219 0
164 -199 210 0
58 -184 -234 0
71 144 175 0
-110 218 221 0
118 194 219 0
-81 -109 -223 0
46 209 227 0
85 86 -91 0
48 -138 229 0
110 195 211 0
40 123 146 0
80 198 -204 0
51 118 -207 0
-54 143 -153 0
57 -114 -163 0
-131 -138 201 0
-57 -167 178 0
66 124 -209 0
158 170 -218 0
62 125 -187 0
-100 -163 -173 0
-54 -57 231 0
-142 193 214 0
-85 -118 201 0
-110 176 -235 0
-61 -183 215 0
-117 -157 -209 0
79 140 -220 0
197 -200 -213 0
86 121 -225 0
46 165 194 0
48 69 -143 0
-56 -59 -87 0
58 126 -197 0
37 108 -150 0
-90 -168 -213 0
51 -187 234 0
94 209 210 0
53 78 -152 0
-61 193 -209 0
44 61 -196 0
-87 -115 206 0
-51 148 152 0
75 -158 194 0
-62 170 -222 0
139 190 212 0
-37 -68 -232 0
-44 -101 125 0
-62 -113 183 0
61 -78 -182 0
37 -139 -174 0
-142 -155 204 0
72 145 -216 0
-38 73 111 0
87 -127 157 0
-81 107 -118 0
181 213 218 0
-97 185 -195 0
78 186 -211 0
-47 70 -212 0
-46 -139 -173 0
