c Phase 3 generated performance instance
c family=capacity2_violation
c scale=5
c variant=tune
c noise_percent=100
c expected=UNSATISFIABLE
p cnf 528 1892
-1 -2 0
-1 -3 0
-1 -4 0
-1 -5 0
-2 -3 0
-2 -4 0
-2 -5 0
-3 -4 0
-3 -5 0
-4 -5 0
1 2 3 4 5 0
-6 -7 0
-6 -8 0
-6 -9 0
-6 -10 0
-7 -8 0
-7 -9 0
-7 -10 0
-8 -9 0
-8 -10 0
-9 -10 0
6 7 8 9 10 0
-11 -12 0
-11 -13 0
-11 -14 0
-11 -15 0
-12 -13 0
-12 -14 0
-12 -15 0
-13 -14 0
-13 -15 0
-14 -15 0
11 12 13 14 15 0
-16 -17 0
-16 -18 0
-16 -19 0
-16 -20 0
-17 -18 0
-17 -19 0
-17 -20 0
-18 -19 0
-18 -20 0
-19 -20 0
16 17 18 19 20 0
-21 -22 0
-21 -23 0
-21 -24 0
-21 -25 0
-22 -23 0
-22 -24 0
-22 -25 0
-23 -24 0
-23 -25 0
-24 -25 0
21 22 23 24 25 0
-26 -27 0
-26 -28 0
-26 -29 0
-26 -30 0
-27 -28 0
-27 -29 0
-27 -30 0
-28 -29 0
-28 -30 0
-29 -30 0
26 27 28 29 30 0
-31 -32 0
-31 -33 0
-31 -34 0
-31 -35 0
-32 -33 0
-32 -34 0
-32 -35 0
-33 -34 0
-33 -35 0
-34 -35 0
31 32 33 34 35 0
-36 -37 0
-36 -38 0
-36 -39 0
-36 -40 0
-37 -38 0
-37 -39 0
-37 -40 0
-38 -39 0
-38 -40 0
-39 -40 0
36 37 38 39 40 0
-41 -42 0
-41 -43 0
-41 -44 0
-41 -45 0
-42 -43 0
-42 -44 0
-42 -45 0
-43 -44 0
-43 -45 0
-44 -45 0
41 42 43 44 45 0
-46 -47 0
-46 -48 0
-46 -49 0
-46 -50 0
-47 -48 0
-47 -49 0
-47 -50 0
-48 -49 0
-48 -50 0
-49 -50 0
46 47 48 49 50 0
-51 -52 0
-51 -53 0
-51 -54 0
-51 -55 0
-52 -53 0
-52 -54 0
-52 -55 0
-53 -54 0
-53 -55 0
-54 -55 0
51 52 53 54 55 0
-1 -6 -11 0
-1 -6 -16 0
-1 -6 -21 0
-1 -6 -26 0
-1 -6 -31 0
-1 -6 -36 0
-1 -6 -41 0
-1 -6 -46 0
-1 -6 -51 0
-1 -11 -16 0
-1 -11 -21 0
-1 -11 -26 0
-1 -11 -31 0
-1 -11 -36 0
-1 -11 -41 0
-1 -11 -46 0
-1 -11 -51 0
-1 -16 -21 0
-1 -16 -26 0
-1 -16 -31 0
-1 -16 -36 0
-1 -16 -41 0
-1 -16 -46 0
-1 -16 -51 0
-1 -21 -26 0
-1 -21 -31 0
-1 -21 -36 0
-1 -21 -41 0
-1 -21 -46 0
-1 -21 -51 0
-1 -26 -31 0
-1 -26 -36 0
-1 -26 -41 0
-1 -26 -46 0
-1 -26 -51 0
-1 -31 -36 0
-1 -31 -41 0
-1 -31 -46 0
-1 -31 -51 0
-1 -36 -41 0
-1 -36 -46 0
-1 -36 -51 0
-1 -41 -46 0
-1 -41 -51 0
-1 -46 -51 0
-6 -11 -16 0
-6 -11 -21 0
-6 -11 -26 0
-6 -11 -31 0
-6 -11 -36 0
-6 -11 -41 0
-6 -11 -46 0
-6 -11 -51 0
-6 -16 -21 0
-6 -16 -26 0
-6 -16 -31 0
-6 -16 -36 0
-6 -16 -41 0
-6 -16 -46 0
-6 -16 -51 0
-6 -21 -26 0
-6 -21 -31 0
-6 -21 -36 0
-6 -21 -41 0
-6 -21 -46 0
-6 -21 -51 0
-6 -26 -31 0
-6 -26 -36 0
-6 -26 -41 0
-6 -26 -46 0
-6 -26 -51 0
-6 -31 -36 0
-6 -31 -41 0
-6 -31 -46 0
-6 -31 -51 0
-6 -36 -41 0
-6 -36 -46 0
-6 -36 -51 0
-6 -41 -46 0
-6 -41 -51 0
-6 -46 -51 0
-11 -16 -21 0
-11 -16 -26 0
-11 -16 -31 0
-11 -16 -36 0
-11 -16 -41 0
-11 -16 -46 0
-11 -16 -51 0
-11 -21 -26 0
-11 -21 -31 0
-11 -21 -36 0
-11 -21 -41 0
-11 -21 -46 0
-11 -21 -51 0
-11 -26 -31 0
-11 -26 -36 0
-11 -26 -41 0
-11 -26 -46 0
-11 -26 -51 0
-11 -31 -36 0
-11 -31 -41 0
-11 -31 -46 0
-11 -31 -51 0
-11 -36 -41 0
-11 -36 -46 0
-11 -36 -51 0
-11 -41 -46 0
-11 -41 -51 0
-11 -46 -51 0
-16 -21 -26 0
-16 -21 -31 0
-16 -21 -36 0
-16 -21 -41 0
-16 -21 -46 0
-16 -21 -51 0
-16 -26 -31 0
-16 -26 -36 0
-16 -26 -41 0
-16 -26 -46 0
-16 -26 -51 0
-16 -31 -36 0
-16 -31 -41 0
-16 -31 -46 0
-16 -31 -51 0
-16 -36 -41 0
-16 -36 -46 0
-16 -36 -51 0
-16 -41 -46 0
-16 -41 -51 0
-16 -46 -51 0
-21 -26 -31 0
-21 -26 -36 0
-21 -26 -41 0
-21 -26 -46 0
-21 -26 -51 0
-21 -31 -36 0
-21 -31 -41 0
-21 -31 -46 0
-21 -31 -51 0
-21 -36 -41 0
-21 -36 -46 0
-21 -36 -51 0
-21 -41 -46 0
-21 -41 -51 0
-21 -46 -51 0
-26 -31 -36 0
-26 -31 -41 0
-26 -31 -46 0
-26 -31 -51 0
-26 -36 -41 0
-26 -36 -46 0
-26 -36 -51 0
-26 -41 -46 0
-26 -41 -51 0
-26 -46 -51 0
-31 -36 -41 0
-31 -36 -46 0
-31 -36 -51 0
-31 -41 -46 0
-31 -41 -51 0
-31 -46 -51 0
-36 -41 -46 0
-36 -41 -51 0
-36 -46 -51 0
-41 -46 -51 0
-2 -7 -12 0
-2 -7 -17 0
-2 -7 -22 0
-2 -7 -27 0
-2 -7 -32 0
-2 -7 -37 0
-2 -7 -42 0
-2 -7 -47 0
-2 -7 -52 0
-2 -12 -17 0
-2 -12 -22 0
-2 -12 -27 0
-2 -12 -32 0
-2 -12 -37 0
-2 -12 -42 0
-2 -12 -47 0
-2 -12 -52 0
-2 -17 -22 0
-2 -17 -27 0
-2 -17 -32 0
-2 -17 -37 0
-2 -17 -42 0
-2 -17 -47 0
-2 -17 -52 0
-2 -22 -27 0
-2 -22 -32 0
-2 -22 -37 0
-2 -22 -42 0
-2 -22 -47 0
-2 -22 -52 0
-2 -27 -32 0
-2 -27 -37 0
-2 -27 -42 0
-2 -27 -47 0
-2 -27 -52 0
-2 -32 -37 0
-2 -32 -42 0
-2 -32 -47 0
-2 -32 -52 0
-2 -37 -42 0
-2 -37 -47 0
-2 -37 -52 0
-2 -42 -47 0
-2 -42 -52 0
-2 -47 -52 0
-7 -12 -17 0
-7 -12 -22 0
-7 -12 -27 0
-7 -12 -32 0
-7 -12 -37 0
-7 -12 -42 0
-7 -12 -47 0
-7 -12 -52 0
-7 -17 -22 0
-7 -17 -27 0
-7 -17 -32 0
-7 -17 -37 0
-7 -17 -42 0
-7 -17 -47 0
-7 -17 -52 0
-7 -22 -27 0
-7 -22 -32 0
-7 -22 -37 0
-7 -22 -42 0
-7 -22 -47 0
-7 -22 -52 0
-7 -27 -32 0
-7 -27 -37 0
-7 -27 -42 0
-7 -27 -47 0
-7 -27 -52 0
-7 -32 -37 0
-7 -32 -42 0
-7 -32 -47 0
-7 -32 -52 0
-7 -37 -42 0
-7 -37 -47 0
-7 -37 -52 0
-7 -42 -47 0
-7 -42 -52 0
-7 -47 -52 0
-12 -17 -22 0
-12 -17 -27 0
-12 -17 -32 0
-12 -17 -37 0
-12 -17 -42 0
-12 -17 -47 0
-12 -17 -52 0
-12 -22 -27 0
-12 -22 -32 0
-12 -22 -37 0
-12 -22 -42 0
-12 -22 -47 0
-12 -22 -52 0
-12 -27 -32 0
-12 -27 -37 0
-12 -27 -42 0
-12 -27 -47 0
-12 -27 -52 0
-12 -32 -37 0
-12 -32 -42 0
-12 -32 -47 0
-12 -32 -52 0
-12 -37 -42 0
-12 -37 -47 0
-12 -37 -52 0
-12 -42 -47 0
-12 -42 -52 0
-12 -47 -52 0
-17 -22 -27 0
-17 -22 -32 0
-17 -22 -37 0
-17 -22 -42 0
-17 -22 -47 0
-17 -22 -52 0
-17 -27 -32 0
-17 -27 -37 0
-17 -27 -42 0
-17 -27 -47 0
-17 -27 -52 0
-17 -32 -37 0
-17 -32 -42 0
-17 -32 -47 0
-17 -32 -52 0
-17 -37 -42 0
-17 -37 -47 0
-17 -37 -52 0
-17 -42 -47 0
-17 -42 -52 0
-17 -47 -52 0
-22 -27 -32 0
-22 -27 -37 0
-22 -27 -42 0
-22 -27 -47 0
-22 -27 -52 0
-22 -32 -37 0
-22 -32 -42 0
-22 -32 -47 0
-22 -32 -52 0
-22 -37 -42 0
-22 -37 -47 0
-22 -37 -52 0
-22 -42 -47 0
-22 -42 -52 0
-22 -47 -52 0
-27 -32 -37 0
-27 -32 -42 0
-27 -32 -47 0
-27 -32 -52 0
-27 -37 -42 0
-27 -37 -47 0
-27 -37 -52 0
-27 -42 -47 0
-27 -42 -52 0
-27 -47 -52 0
-32 -37 -42 0
-32 -37 -47 0
-32 -37 -52 0
-32 -42 -47 0
-32 -42 -52 0
-32 -47 -52 0
-37 -42 -47 0
-37 -42 -52 0
-37 -47 -52 0
-42 -47 -52 0
-3 -8 -13 0
-3 -8 -18 0
-3 -8 -23 0
-3 -8 -28 0
-3 -8 -33 0
-3 -8 -38 0
-3 -8 -43 0
-3 -8 -48 0
-3 -8 -53 0
-3 -13 -18 0
-3 -13 -23 0
-3 -13 -28 0
-3 -13 -33 0
-3 -13 -38 0
-3 -13 -43 0
-3 -13 -48 0
-3 -13 -53 0
-3 -18 -23 0
-3 -18 -28 0
-3 -18 -33 0
-3 -18 -38 0
-3 -18 -43 0
-3 -18 -48 0
-3 -18 -53 0
-3 -23 -28 0
-3 -23 -33 0
-3 -23 -38 0
-3 -23 -43 0
-3 -23 -48 0
-3 -23 -53 0
-3 -28 -33 0
-3 -28 -38 0
-3 -28 -43 0
-3 -28 -48 0
-3 -28 -53 0
-3 -33 -38 0
-3 -33 -43 0
-3 -33 -48 0
-3 -33 -53 0
-3 -38 -43 0
-3 -38 -48 0
-3 -38 -53 0
-3 -43 -48 0
-3 -43 -53 0
-3 -48 -53 0
-8 -13 -18 0
-8 -13 -23 0
-8 -13 -28 0
-8 -13 -33 0
-8 -13 -38 0
-8 -13 -43 0
-8 -13 -48 0
-8 -13 -53 0
-8 -18 -23 0
-8 -18 -28 0
-8 -18 -33 0
-8 -18 -38 0
-8 -18 -43 0
-8 -18 -48 0
-8 -18 -53 0
-8 -23 -28 0
-8 -23 -33 0
-8 -23 -38 0
-8 -23 -43 0
-8 -23 -48 0
-8 -23 -53 0
-8 -28 -33 0
-8 -28 -38 0
-8 -28 -43 0
-8 -28 -48 0
-8 -28 -53 0
-8 -33 -38 0
-8 -33 -43 0
-8 -33 -48 0
-8 -33 -53 0
-8 -38 -43 0
-8 -38 -48 0
-8 -38 -53 0
-8 -43 -48 0
-8 -43 -53 0
-8 -48 -53 0
-13 -18 -23 0
-13 -18 -28 0
-13 -18 -33 0
-13 -18 -38 0
-13 -18 -43 0
-13 -18 -48 0
-13 -18 -53 0
-13 -23 -28 0
-13 -23 -33 0
-13 -23 -38 0
-13 -23 -43 0
-13 -23 -48 0
-13 -23 -53 0
-13 -28 -33 0
-13 -28 -38 0
-13 -28 -43 0
-13 -28 -48 0
-13 -28 -53 0
-13 -33 -38 0
-13 -33 -43 0
-13 -33 -48 0
-13 -33 -53 0
-13 -38 -43 0
-13 -38 -48 0
-13 -38 -53 0
-13 -43 -48 0
-13 -43 -53 0
-13 -48 -53 0
-18 -23 -28 0
-18 -23 -33 0
-18 -23 -38 0
-18 -23 -43 0
-18 -23 -48 0
-18 -23 -53 0
-18 -28 -33 0
-18 -28 -38 0
-18 -28 -43 0
-18 -28 -48 0
-18 -28 -53 0
-18 -33 -38 0
-18 -33 -43 0
-18 -33 -48 0
-18 -33 -53 0
-18 -38 -43 0
-18 -38 -48 0
-18 -38 -53 0
-18 -43 -48 0
-18 -43 -53 0
-18 -48 -53 0
-23 -28 -33 0
-23 -28 -38 0
-23 -28 -43 0
-23 -28 -48 0
-23 -28 -53 0
-23 -33 -38 0
-23 -33 -43 0
-23 -33 -48 0
-23 -33 -53 0
-23 -38 -43 0
-23 -38 -48 0
-23 -38 -53 0
-23 -43 -48 0
-23 -43 -53 0
-23 -48 -53 0
-28 -33 -38 0
-28 -33 -43 0
-28 -33 -48 0
-28 -33 -53 0
-28 -38 -43 0
-28 -38 -48 0
-28 -38 -53 0
-28 -43 -48 0
-28 -43 -53 0
-28 -48 -53 0
-33 -38 -43 0
-33 -38 -48 0
-33 -38 -53 0
-33 -43 -48 0
-33 -43 -53 0
-33 -48 -53 0
-38 -43 -48 0
-38 -43 -53 0
-38 -48 -53 0
-43 -48 -53 0
-4 -9 -14 0
-4 -9 -19 0
-4 -9 -24 0
-4 -9 -29 0
-4 -9 -34 0
-4 -9 -39 0
-4 -9 -44 0
-4 -9 -49 0
-4 -9 -54 0
-4 -14 -19 0
-4 -14 -24 0
-4 -14 -29 0
-4 -14 -34 0
-4 -14 -39 0
-4 -14 -44 0
-4 -14 -49 0
-4 -14 -54 0
-4 -19 -24 0
-4 -19 -29 0
-4 -19 -34 0
-4 -19 -39 0
-4 -19 -44 0
-4 -19 -49 0
-4 -19 -54 0
-4 -24 -29 0
-4 -24 -34 0
-4 -24 -39 0
-4 -24 -44 0
-4 -24 -49 0
-4 -24 -54 0
-4 -29 -34 0
-4 -29 -39 0
-4 -29 -44 0
-4 -29 -49 0
-4 -29 -54 0
-4 -34 -39 0
-4 -34 -44 0
-4 -34 -49 0
-4 -34 -54 0
-4 -39 -44 0
-4 -39 -49 0
-4 -39 -54 0
-4 -44 -49 0
-4 -44 -54 0
-4 -49 -54 0
-9 -14 -19 0
-9 -14 -24 0
-9 -14 -29 0
-9 -14 -34 0
-9 -14 -39 0
-9 -14 -44 0
-9 -14 -49 0
-9 -14 -54 0
-9 -19 -24 0
-9 -19 -29 0
-9 -19 -34 0
-9 -19 -39 0
-9 -19 -44 0
-9 -19 -49 0
-9 -19 -54 0
-9 -24 -29 0
-9 -24 -34 0
-9 -24 -39 0
-9 -24 -44 0
-9 -24 -49 0
-9 -24 -54 0
-9 -29 -34 0
-9 -29 -39 0
-9 -29 -44 0
-9 -29 -49 0
-9 -29 -54 0
-9 -34 -39 0
-9 -34 -44 0
-9 -34 -49 0
-9 -34 -54 0
-9 -39 -44 0
-9 -39 -49 0
-9 -39 -54 0
-9 -44 -49 0
-9 -44 -54 0
-9 -49 -54 0
-14 -19 -24 0
-14 -19 -29 0
-14 -19 -34 0
-14 -19 -39 0
-14 -19 -44 0
-14 -19 -49 0
-14 -19 -54 0
-14 -24 -29 0
-14 -24 -34 0
-14 -24 -39 0
-14 -24 -44 0
-14 -24 -49 0
-14 -24 -54 0
-14 -29 -34 0
-14 -29 -39 0
-14 -29 -44 0
-14 -29 -49 0
-14 -29 -54 0
-14 -34 -39 0
-14 -34 -44 0
-14 -34 -49 0
-14 -34 -54 0
-14 -39 -44 0
-14 -39 -49 0
-14 -39 -54 0
-14 -44 -49 0
-14 -44 -54 0
-14 -49 -54 0
-19 -24 -29 0
-19 -24 -34 0
-19 -24 -39 0
-19 -24 -44 0
-19 -24 -49 0
-19 -24 -54 0
-19 -29 -34 0
-19 -29 -39 0
-19 -29 -44 0
-19 -29 -49 0
-19 -29 -54 0
-19 -34 -39 0
-19 -34 -44 0
-19 -34 -49 0
-19 -34 -54 0
-19 -39 -44 0
-19 -39 -49 0
-19 -39 -54 0
-19 -44 -49 0
-19 -44 -54 0
-19 -49 -54 0
-24 -29 -34 0
-24 -29 -39 0
-24 -29 -44 0
-24 -29 -49 0
-24 -29 -54 0
-24 -34 -39 0
-24 -34 -44 0
-24 -34 -49 0
-24 -34 -54 0
-24 -39 -44 0
-24 -39 -49 0
-24 -39 -54 0
-24 -44 -49 0
-24 -44 -54 0
-24 -49 -54 0
-29 -34 -39 0
-29 -34 -44 0
-29 -34 -49 0
-29 -34 -54 0
-29 -39 -44 0
-29 -39 -49 0
-29 -39 -54 0
-29 -44 -49 0
-29 -44 -54 0
-29 -49 -54 0
-34 -39 -44 0
-34 -39 -49 0
-34 -39 -54 0
-34 -44 -49 0
-34 -44 -54 0
-34 -49 -54 0
-39 -44 -49 0
-39 -44 -54 0
-39 -49 -54 0
-44 -49 -54 0
-5 -10 -15 0
-5 -10 -20 0
-5 -10 -25 0
-5 -10 -30 0
-5 -10 -35 0
-5 -10 -40 0
-5 -10 -45 0
-5 -10 -50 0
-5 -10 -55 0
-5 -15 -20 0
-5 -15 -25 0
-5 -15 -30 0
-5 -15 -35 0
-5 -15 -40 0
-5 -15 -45 0
-5 -15 -50 0
-5 -15 -55 0
-5 -20 -25 0
-5 -20 -30 0
-5 -20 -35 0
-5 -20 -40 0
-5 -20 -45 0
-5 -20 -50 0
-5 -20 -55 0
-5 -25 -30 0
-5 -25 -35 0
-5 -25 -40 0
-5 -25 -45 0
-5 -25 -50 0
-5 -25 -55 0
-5 -30 -35 0
-5 -30 -40 0
-5 -30 -45 0
-5 -30 -50 0
-5 -30 -55 0
-5 -35 -40 0
-5 -35 -45 0
-5 -35 -50 0
-5 -35 -55 0
-5 -40 -45 0
-5 -40 -50 0
-5 -40 -55 0
-5 -45 -50 0
-5 -45 -55 0
-5 -50 -55 0
-10 -15 -20 0
-10 -15 -25 0
-10 -15 -30 0
-10 -15 -35 0
-10 -15 -40 0
-10 -15 -45 0
-10 -15 -50 0
-10 -15 -55 0
-10 -20 -25 0
-10 -20 -30 0
-10 -20 -35 0
-10 -20 -40 0
-10 -20 -45 0
-10 -20 -50 0
-10 -20 -55 0
-10 -25 -30 0
-10 -25 -35 0
-10 -25 -40 0
-10 -25 -45 0
-10 -25 -50 0
-10 -25 -55 0
-10 -30 -35 0
-10 -30 -40 0
-10 -30 -45 0
-10 -30 -50 0
-10 -30 -55 0
-10 -35 -40 0
-10 -35 -45 0
-10 -35 -50 0
-10 -35 -55 0
-10 -40 -45 0
-10 -40 -50 0
-10 -40 -55 0
-10 -45 -50 0
-10 -45 -55 0
-10 -50 -55 0
-15 -20 -25 0
-15 -20 -30 0
-15 -20 -35 0
-15 -20 -40 0
-15 -20 -45 0
-15 -20 -50 0
-15 -20 -55 0
-15 -25 -30 0
-15 -25 -35 0
-15 -25 -40 0
-15 -25 -45 0
-15 -25 -50 0
-15 -25 -55 0
-15 -30 -35 0
-15 -30 -40 0
-15 -30 -45 0
-15 -30 -50 0
-15 -30 -55 0
-15 -35 -40 0
-15 -35 -45 0
-15 -35 -50 0
-15 -35 -55 0
-15 -40 -45 0
-15 -40 -50 0
-15 -40 -55 0
-15 -45 -50 0
-15 -45 -55 0
-15 -50 -55 0
-20 -25 -30 0
-20 -25 -35 0
-20 -25 -40 0
-20 -25 -45 0
-20 -25 -50 0
-20 -25 -55 0
-20 -30 -35 0
-20 -30 -40 0
-20 -30 -45 0
-20 -30 -50 0
-20 -30 -55 0
-20 -35 -40 0
-20 -35 -45 0
-20 -35 -50 0
-20 -35 -55 0
-20 -40 -45 0
-20 -40 -50 0
-20 -40 -55 0
-20 -45 -50 0
-20 -45 -55 0
-20 -50 -55 0
-25 -30 -35 0
-25 -30 -40 0
-25 -30 -45 0
-25 -30 -50 0
-25 -30 -55 0
-25 -35 -40 0
-25 -35 -45 0
-25 -35 -50 0
-25 -35 -55 0
-25 -40 -45 0
-25 -40 -50 0
-25 -40 -55 0
-25 -45 -50 0
-25 -45 -55 0
-25 -50 -55 0
-30 -35 -40 0
-30 -35 -45 0
-30 -35 -50 0
-30 -35 -55 0
-30 -40 -45 0
-30 -40 -50 0
-30 -40 -55 0
-30 -45 -50 0
-30 -45 -55 0
-30 -50 -55 0
-35 -40 -45 0
-35 -40 -50 0
-35 -40 -55 0
-35 -45 -50 0
-35 -45 -55 0
-35 -50 -55 0
-40 -45 -50 0
-40 -45 -55 0
-40 -50 -55 0
-45 -50 -55 0
-193 -337 444 0
-110 399 476 0
132 -252 -397 0
258 421 477 0
119 227 -508 0
81 -305 327 0
-230 330 -413 0
90 143 -275 0
-171 352 -382 0
-184 -384 411 0
164 354 -357 0
103 339 -509 0
-110 -211 -344 0
-379 -412 -486 0
110 268 432 0
-385 468 -511 0
-355 -423 514 0
109 392 -471 0
-74 175 444 0
178 428 435 0
-217 -415 -424 0
-250 402 -458 0
67 239 277 0
-200 -364 -434 0
-191 -477 -503 0
108 -114 382 0
-162 -163 -428 0
-67 294 -525 0
209 -276 -510 0
161 338 477 0
-172 189 -376 0
232 365 416 0
352 395 432 0
-219 245 516 0
144 -160 -348 0
405 -424 487 0
186 436 -467 0
-287 333 480 0
-85 128 -290 0
135 -245 273 0
154 -179 -298 0
70 230 440 0
-105 -165 236 0
135 192 391 0
147 -388 -437 0
-197 -290 389 0
104 -379 -472 0
-254 260 368 0
-121 202 319 0
-357 -365 389 0
65 402 431 0
181 465 -499 0
105 160 506 0
256 -289 388 0
113 -472 491 0
277 292 305 0
-252 318 -509 0
-114 151 277 0
322 -472 502 0
451 507 508 0
-211 -425 428 0
192 226 306 0
-181 -228 -251 0
-248 403 -428 0
-89 -96 434 0
193 385 -416 0
-126 -232 -437 0
212 -509 516 0
-77 -262 -434 0
-86 263 -312 0
-67 -162 -429 0
125 194 288 0
92 -133 -517 0
-79 -312 482 0
-120 -357 -453 0
-247 404 497 0
267 -469 490 0
62 -366 389 0
-203 361 -421 0
127 -177 472 0
-66 385 451 0
292 -297 -460 0
106 -270 -371 0
-116 -210 215 0
-318 469 490 0
-67 129 -445 0
244 -362 526 0
106 373 -511 0
257 -318 -427 0
304 -400 422 0
-411 422 459 0
-432 -433 -468 0
-175 229 400 0
-223 -420 447 0
-286 368 397 0
59 140 159 0
-236 342 362 0
-145 -252 -255 0
57 108 -371 0
-121 269 387 0
238 -427 435 0
161 -176 478 0
160 267 304 0
81 398 -456 0
178 363 399 0
-349 481 506 0
93 162 -355 0
-416 445 474 0
78 119 246 0
144 -179 360 0
140 264 -348 0
-95 -195 -385 0
-228 -369 417 0
83 -124 -405 0
70 -294 -517 0
152 445 478 0
118 -132 200 0
346 -424 -513 0
-141 -317 402 0
-215 -504 -524 0
-218 -339 366 0
-177 473 -513 0
-291 -325 404 0
163 -259 -451 0
214 -396 -439 0
-333 458 509 0
-114 141 315 0
-360 -454 -500 0
-191 -258 499 0
-93 -136 471 0
-146 259 370 0
188 198 -289 0
99 -362 488 0
-165 -175 454 0
-70 209 327 0
-218 475 -520 0
-105 -335 468 0
-312 -482 515 0
-106 387 395 0
-95 -298 -369 0
-124 236 -404 0
-291 352 524 0
-235 278 345 0
-201 424 -509 0
-257 339 -484 0
200 -300 396 0
126 233 -389 0
199 402 -472 0
173 -212 378 0
143 224 291 0
95 285 390 0
128 -175 -322 0
193 331 -512 0
236 -401 411 0
-62 -186 418 0
258 343 -434 0
363 -467 499 0
68 122 -277 0
247 326 -496 0
-84 181 -374 0
61 161 -224 0
262 387 -415 0
316 425 -508 0
84 124 417 0
-168 208 -406 0
-84 -120 192 0
211 -422 -456 0
-115 -212 -522 0
133 -152 380 0
-125 321 -365 0
196 291 310 0
-87 -93 508 0
317 -357 -374 0
-95 253 476 0
-74 -147 -228 0
378 -396 -403 0
-60 389 494 0
137 310 471 0
-230 -372 511 0
-165 -230 322 0
64 191 -459 0
-111 335 421 0
-292 -319 -452 0
-96 -142 151 0
-252 468 509 0
-185 -205 -326 0
-149 -262 -307 0
-149 448 504 0
104 321 439 0
134 -247 454 0
-72 -370 521 0
269 464 -488 0
143 429 445 0
365 -379 451 0
124 -137 229 0
86 401 -525 0
-130 -250 -402 0
153 -328 398 0
-189 335 470 0
320 -446 -511 0
-158 252 -405 0
292 323 -436 0
-64 244 278 0
84 -142 389 0
-327 -398 425 0
-249 402 -467 0
85 223 340 0
-111 -184 -281 0
-121 -157 -450 0
-81 346 -449 0
145 -430 444 0
-100 183 -250 0
67 -170 -331 0
-336 407 -476 0
-102 198 -390 0
110 -268 -290 0
-162 -286 -381 0
-317 -425 -438 0
162 249 -357 0
141 484 515 0
366 -375 466 0
-268 -320 -381 0
177 -278 -346 0
-86 -262 308 0
390 -477 494 0
111 149 493 0
114 184 -249 0
-295 480 -518 0
-66 95 -298 0
-189 -348 -465 0
-168 -282 -393 0
257 -431 527 0
126 -467 -476 0
153 -245 255 0
-283 -381 -502 0
113 -267 284 0
-65 -193 425 0
-154 328 517 0
111 275 -343 0
-72 130 -200 0
-56 -447 471 0
206 -350 -420 0
-306 -308 -336 0
83 182 -435 0
-494 -499 528 0
124 291 -377 0
465 519 -522 0
137 -152 321 0
410 469 516 0
-115 -489 -527 0
-84 94 508 0
-60 -306 -421 0
115 -168 -428 0
384 419 483 0
-165 376 -494 0
-222 252 -454 0
-102 221 -294 0
-72 167 -203 0
-90 269 423 0
417 -437 510 0
100 127 436 0
168 238 -349 0
-269 291 526 0
110 -273 444 0
-175 -232 372 0
216 335 404 0
-192 -329 480 0
-195 -276 489 0
173 -271 -353 0
-64 127 -290 0
-196 210 237 0
124 -143 -235 0
-278 455 -497 0
-265 463 518 0
170 -172 -264 0
-58 430 -515 0
256 -284 291 0
-185 232 -486 0
-313 383 -425 0
-195 295 363 0
-62 -227 -239 0
225 248 306 0
189 355 495 0
114 -193 469 0
-259 -396 398 0
-129 158 404 0
-311 360 -462 0
230 373 462 0
-129 -309 -464 0
-65 -162 168 0
104 190 358 0
-209 509 -510 0
-208 -260 -317 0
173 -185 356 0
323 358 361 0
-71 -112 151 0
141 242 -292 0
-129 -176 -434 0
-341 -487 522 0
105 -170 354 0
197 -365 -465 0
184 400 -453 0
-122 -246 -472 0
78 293 -425 0
-71 -144 -497 0
182 -374 -392 0
130 -330 349 0
-121 400 -509 0
58 197 -305 0
276 -332 443 0
77 118 348 0
-281 -389 -452 0
71 321 520 0
428 -450 452 0
-199 -381 406 0
-306 472 526 0
106 452 -470 0
170 279 -368 0
-58 -72 258 0
-209 -310 368 0
68 75 -474 0
83 -267 -371 0
332 -478 513 0
61 258 -409 0
-262 -355 -504 0
-152 -338 -507 0
-372 -512 519 0
-65 -114 -318 0
349 498 -511 0
206 398 -493 0
77 -84 504 0
-211 -405 445 0
72 478 -514 0
-60 -221 -524 0
-173 -227 371 0
-69 118 -515 0
304 -312 -515 0
-139 -224 -473 0
83 91 366 0
103 -247 -445 0
-218 459 492 0
187 320 333 0
105 -338 440 0
-188 -274 -489 0
-287 443 511 0
352 -362 -405 0
-219 235 -325 0
-57 78 140 0
-141 429 451 0
73 209 237 0
-64 159 283 0
-169 -326 -519 0
94 -198 397 0
73 380 -418 0
101 -234 268 0
-130 -133 453 0
137 -258 270 0
-140 -381 -485 0
75 78 -523 0
121 123 420 0
-209 -461 -488 0
236 -300 -528 0
253 -371 -466 0
-334 450 487 0
-130 315 -500 0
-112 -148 -334 0
148 -357 420 0
157 -395 417 0
142 -317 342 0
-138 188 -426 0
-191 -411 426 0
79 -198 -209 0
-237 276 277 0
-80 -220 313 0
164 280 383 0
-323 443 -485 0
-263 -372 -447 0
-86 263 -273 0
-158 238 458 0
111 -172 375 0
236 393 520 0
-120 274 -475 0
122 259 343 0
370 418 -479 0
-338 416 -502 0
79 222 -291 0
284 -326 452 0
-68 -424 523 0
280 -456 510 0
-77 346 514 0
-186 239 -442 0
84 -177 -420 0
83 -138 -458 0
251 -435 -440 0
-97 -217 500 0
-105 -166 285 0
-248 -275 -413 0
180 -234 453 0
271 -477 -505 0
199 -244 -489 0
-161 306 415 0
-239 -255 528 0
109 -483 -509 0
61 203 -382 0
379 -402 -502 0
191 -260 -289 0
146 363 386 0
-59 -200 347 0
106 181 -450 0
75 -246 459 0
-275 430 439 0
-180 -396 497 0
230 -370 -371 0
-318 -484 489 0
-292 -386 479 0
-409 -431 -490 0
158 -279 313 0
-361 399 420 0
357 -418 526 0
-113 288 412 0
80 -131 -514 0
196 404 510 0
89 217 -411 0
74 314 482 0
305 440 509 0
164 220 -501 0
-266 409 500 0
236 -431 446 0
-65 -322 -409 0
280 -380 460 0
-196 -215 394 0
131 -244 -274 0
-68 117 216 0
-279 381 -527 0
-152 -448 -522 0
-80 105 -361 0
-151 159 -434 0
73 208 230 0
-161 195 -205 0
-320 365 448 0
-100 -303 522 0
-184 284 -331 0
199 -343 -426 0
-247 257 289 0
217 257 485 0
144 377 -382 0
58 -72 -219 0
85 -306 342 0
145 -266 -444 0
137 -293 433 0
-147 366 519 0
58 200 206 0
86 -170 317 0
365 383 500 0
-87 155 517 0
131 268 -362 0
66 -252 260 0
-300 -343 496 0
141 -328 -521 0
97 -286 309 0
-309 -374 -458 0
-76 -371 427 0
85 -453 -475 0
180 -368 402 0
71 -84 -425 0
153 -191 363 0
250 -269 -462 0
-159 361 450 0
-186 406 477 0
127 -216 -439 0
-95 354 509 0
242 328 477 0
-121 -280 500 0
169 -319 -372 0
357 -361 -365 0
358 -483 -516 0
230 -272 -452 0
276 320 -360 0
-120 245 -360 0
-86 -132 -228 0
-120 315 487 0
-160 -288 -440 0
-138 144 -434 0
-251 431 -441 0
-101 391 467 0
-151 247 -347 0
-274 -328 400 0
-123 149 -207 0
101 190 -299 0
-433 444 -472 0
-182 205 -492 0
-186 -451 514 0
-110 228 -239 0
-256 363 -407 0
-179 375 445 0
-155 -199 302 0
248 404 411 0
-224 270 468 0
77 490 -515 0
69 185 298 0
-149 -222 -410 0
168 -354 370 0
107 -262 -427 0
-63 -224 -292 0
252 -317 358 0
-167 -231 376 0
98 -205 233 0
79 230 498 0
-242 404 457 0
-191 -282 528 0
107 -228 -484 0
205 -344 -439 0
182 429 486 0
129 -313 515 0
142 146 161 0
-98 130 -190 0
-258 290 329 0
-209 -316 -374 0
66 170 308 0
93 337 464 0
-56 -294 -469 0
-121 360 394 0
291 342 486 0
-256 374 -377 0
-242 345 405 0
-144 272 413 0
-66 -98 259 0
-109 213 -254 0
117 418 -505 0
-299 -377 430 0
-105 -113 296 0
78 275 -346 0
-138 -318 -470 0
-114 -160 349 0
-303 341 -403 0
-129 -258 -506 0
89 330 -522 0
-128 172 -275 0
88 294 328 0
-72 -295 -459 0
423 498 -515 0
-93 -424 490 0
-118 -176 200 0
-74 -252 359 0
107 -287 -357 0
-125 -133 346 0
202 398 -528 0
-186 451 -517 0
329 373 -489 0
-103 151 508 0
313 414 425 0
-109 154 -223 0
-305 -373 387 0
-100 451 526 0
262 301 434 0
-97 133 212 0
148 -282 -403 0
-252 339 -487 0
-118 -148 370 0
-180 -234 -287 0
131 252 -351 0
427 -465 -493 0
-124 -168 389 0
-86 396 -484 0
-101 -399 -505 0
120 305 315 0
-109 -388 -443 0
-62 -130 -163 0
79 91 -499 0
119 -402 -443 0
-69 203 513 0
273 409 494 0
-91 328 460 0
286 357 -402 0
-253 -285 425 0
77 -149 -405 0
377 -504 -507 0
265 -460 479 0
118 168 -333 0
-216 306 400 0
-135 156 527 0
-403 428 -480 0
-234 -273 -500 0
218 394 462 0
-133 -290 -394 0
121 271 -443 0
162 266 -318 0
102 474 526 0
66 113 431 0
-265 -339 526 0
169 -223 324 0
-76 315 460 0
62 332 -346 0
-78 -413 -442 0
318 -422 -523 0
-280 -493 509 0
258 443 488 0
334 -450 496 0
142 -307 -472 0
82 116 -498 0
-194 -208 -395 0
189 -276 -310 0
148 -232 440 0
-326 -415 -483 0
72 -247 -426 0
272 319 482 0
-56 378 483 0
63 -264 288 0
-175 179 400 0
393 -415 442 0
138 -383 507 0
108 -190 451 0
-74 -476 -516 0
90 -199 -467 0
-178 -205 -375 0
-177 331 522 0
122 399 -445 0
-229 -396 -446 0
194 284 -335 0
-90 -139 146 0
82 -195 336 0
-121 294 -302 0
-77 89 184 0
-270 316 393 0
-86 -174 -419 0
-236 295 500 0
117 -320 -336 0
-189 212 414 0
129 -207 228 0
63 238 -345 0
-302 369 -459 0
122 -133 471 0
218 -245 402 0
-354 -375 -467 0
94 173 -437 0
90 -299 -453 0
-267 456 -505 0
159 325 379 0
296 -432 -499 0
-60 -340 353 0
-150 -203 -385 0
160 -198 -272 0
252 -329 -502 0
197 -212 -220 0
93 183 -231 0
83 -438 -489 0
-91 191 -498 0
297 -319 485 0
230 -260 456 0
280 326 502 0
171 -185 274 0
267 423 -486 0
-184 -325 -433 0
118 -128 -381 0
-81 -392 487 0
99 -109 -144 0
95 -224 487 0
-318 -406 -463 0
-98 -149 456 0
-87 90 -180 0
61 158 -320 0
252 332 508 0
-122 486 494 0
-121 -143 -284 0
-191 -204 -455 0
-143 -190 376 0
121 -367 479 0
-144 -151 -396 0
-62 -163 -201 0
-60 -153 456 0
60 -341 382 0
-232 -354 364 0
-239 277 408 0
97 364 474 0
56 -256 -388 0
221 -225 -404 0
-202 244 453 0
165 274 324 0
139 -480 -481 0
109 338 450 0
-235 298 -503 0
-159 -205 -404 0
-299 459 -499 0
131 311 518 0
-184 -209 408 0
95 -412 -500 0
-98 383 -476 0
-155 -400 501 0
132 475 485 0
340 377 405 0
89 354 399 0
-187 461 -495 0
135 408 -469 0
420 431 -486 0
-277 -309 451 0
204 207 -362 0
-68 434 -483 0
206 316 -502 0
-132 -138 244 0
-67 -82 -510 0
323 331 472 0
-80 358 500 0
-154 -380 460 0
110 -119 446 0
227 483 -497 0
-186 -483 504 0
105 -129 -456 0
80 -167 175 0
-58 -289 -335 0
141 209 -434 0
-163 171 -330 0
155 -177 511 0
-240 295 -490 0
83 259 341 0
206 -351 -493 0
-141 225 -279 0
101 -292 -509 0
271 399 404 0
-101 -282 454 0
-414 -475 505 0
292 309 -343 0
-81 244 -450 0
307 326 407 0
-147 214 -449 0
-96 -453 508 0
-228 -274 -353 0
152 298 -470 0
366 -438 -484 0
-169 197 -354 0
349 -376 497 0
113 -170 -213 0
251 377 406 0
170 -190 201 0
-192 199 -257 0
285 362 446 0
179 422 514 0
70 -298 -308 0
-209 -224 -307 0
134 259 -473 0
-140 155 458 0
-293 298 446 0
157 -195 260 0
-101 124 188 0
-388 -413 -426 0
99 -199 -434 0
-278 -306 341 0
360 445 -523 0
-99 -483 -510 0
57 234 287 0
-332 347 -507 0
-91 -190 -266 0
326 -399 525 0
182 -430 524 0
95 -292 313 0
101 423 430 0
187 -297 -449 0
-194 290 491 0
-64 -227 319 0
-193 -352 -369 0
127 278 509 0
-176 -419 467 0
-145 250 -456 0
-99 -197 245 0
401 -419 420 0
-282 485 506 0
335 -363 442 0
-132 -144 370 0
269 -288 -453 0
97 147 -309 0
83 -112 143 0
-126 135 -236 0
-97 126 -259 0
68 -285 -382 0
134 228 -464 0
-301 345 488 0
248 -329 353 0
-123 461 -489 0
-118 -386 480 0
236 240 441 0
260 -351 -446 0
-259 263 472 0
127 -237 349 0
-306 381 440 0
172 427 494 0
226 295 -316 0
60 65 -101 0
-312 376 381 0
121 -271 -446 0
401 413 -460 0
-140 289 -489 0
-345 366 469 0
99 183 394 0
-69 154 169 0
122 235 309 0
82 -179 526 0
72 105 -316 0
279 425 495 0
228 310 414 0
-221 -287 511 0
-368 -384 -473 0
-92 181 216 0
159 520 -526 0
-397 -465 467 0
-65 -131 238 0
-171 255 -348 0
-82 -245 -277 0
200 -387 430 0
-117 126 201 0
-151 177 -448 0
-218 233 495 0
111 229 -467 0
71 420 -483 0
-358 -360 -418 0
-293 318 -512 0
-84 267 -523 0
-60 -100 -342 0
-348 -414 -429 0
-176 319 405 0
-208 469 -471 0
-130 -301 -438 0
170 262 524 0
-305 390 402 0
386 394 -435 0
126 204 -395 0
92 -106 145 0
222 317 -451 0
365 402 466 0
173 224 -279 0
147 -444 488 0
-154 184 -257 0
-163 305 -484 0
141 225 259 0
112 215 -426 0
-81 -129 388 0
-125 -429 467 0
-202 312 -409 0
79 -119 507 0
-85 -169 181 0
-109 -467 478 0
139 -375 470 0
-165 408 467 0
66 -244 -460 0
73 98 -109 0
315 333 -462 0
-173 -452 459 0
179 347 512 0
-91 -102 401 0
71 150 320 0
219 291 -466 0
106 176 336 0
-211 229 -401 0
406 416 477 0
-211 304 -500 0
-152 434 -520 0
-121 211 -401 0
175 209 -527 0
291 294 -442 0
144 236 527 0
255 -371 -472 0
-83 211 -464 0
128 157 243 0
-268 -356 468 0
-102 349 -378 0
-111 301 -319 0
-74 -115 -442 0
-101 -132 426 0
200 -365 -369 0
191 -412 440 0
-142 146 -234 0
334 -359 504 0
339 351 364 0
-406 447 -477 0
175 -178 -492 0
186 -214 241 0
107 -191 332 0
-252 295 407 0
-109 176 -204 0
-72 382 396 0
242 -246 347 0
340 467 524 0
189 -309 -361 0
423 -475 504 0
-114 -406 -509 0
174 251 517 0
268 371 -390 0
64 -127 171 0
-75 146 396 0
-159 -243 323 0
71 514 -520 0
230 -239 -326 0
-275 -391 -528 0
164 181 -352 0
-57 197 -216 0
307 -359 -501 0
-104 -253 339 0
173 185 -395 0
425 498 -509 0
-230 -311 -466 0
275 -372 -474 0
-162 -233 412 0
190 -194 476 0
-130 340 463 0
240 -257 502 0
174 322 -514 0
78 -198 224 0
-142 263 -400 0
161 334 -511 0
205 -234 259 0
-334 349 490 0
-193 445 -449 0
-302 449 -522 0
-140 -179 -291 0
-236 322 381 0
-244 -305 317 0
-88 357 418 0
146 -188 -463 0
-224 291 519 0
58 -65 -432 0
-124 -405 503 0
-60 -317 -457 0
-241 -394 -478 0
-67 247 -330 0
132 144 468 0
244 321 378 0
-108 -326 -381 0
-345 347 466 0
139 -411 514 0
-207 249 -378 0
127 -187 -296 0
83 90 -200 0
200 246 -514 0
-81 99 494 0
97 -216 -482 0
-121 -377 415 0
75 178 -258 0
-191 -330 388 0
155 302 383 0
102 -148 448 0
-172 221 -426 0
-87 -98 150 0
-191 295 -357 0
-87 242 339 0
171 284 -415 0
112 352 486 0
-214 313 377 0
-285 381 -405 0
