c Phase 3 generated performance instance
c family=capacity2_violation
c scale=6
c variant=tune
c noise_percent=100
c expected=UNSATISFIABLE
p cnf 1040 3848
-1 -2 0
-1 -3 0
-1 -4 0
-1 -5 0
-1 -6 0
-2 -3 0
-2 -4 0
-2 -5 0
-2 -6 0
-3 -4 0
-3 -5 0
-3 -6 0
-4 -5 0
-4 -6 0
-5 -6 0
1 2 3 4 5 6 0
-7 -8 0
-7 -9 0
-7 -10 0
-7 -11 0
-7 -12 0
-8 -9 0
-8 -10 0
-8 -11 0
-8 -12 0
-9 -10 0
-9 -11 0
-9 -12 0
-10 -11 0
-10 -12 0
-11 -12 0
7 8 9 10 11 12 0
-13 -14 0
-13 -15 0
-13 -16 0
-13 -17 0
-13 -18 0
-14 -15 0
-14 -16 0
-14 -17 0
-14 -18 0
-15 -16 0
-15 -17 0
-15 -18 0
-16 -17 0
-16 -18 0
-17 -18 0
13 14 15 16 17 18 0
-19 -20 0
-19 -21 0
-19 -22 0
-19 -23 0
-19 -24 0
-20 -21 0
-20 -22 0
-20 -23 0
-20 -24 0
-21 -22 0
-21 -23 0
-21 -24 0
-22 -23 0
-22 -24 0
-23 -24 0
19 20 21 22 23 24 0
-25 -26 0
-25 -27 0
-25 -28 0
-25 -29 0
-25 -30 0
-26 -27 0
-26 -28 0
-26 -29 0
-26 -30 0
-27 -28 0
-27 -29 0
-27 -30 0
-28 -29 0
-28 -30 0
-29 -30 0
25 26 27 28 29 30 0
-31 -32 0
-31 -33 0
-31 -34 0
-31 -35 0
-31 -36 0
-32 -33 0
-32 -34 0
-32 -35 0
-32 -36 0
-33 -34 0
-33 -35 0
-33 -36 0
-34 -35 0
-34 -36 0
-35 -36 0
31 32 33 34 35 36 0
-37 -38 0
-37 -39 0
-37 -40 0
-37 -41 0
-37 -42 0
-38 -39 0
-38 -40 0
-38 -41 0
-38 -42 0
-39 -40 0
-39 -41 0
-39 -42 0
-40 -41 0
-40 -42 0
-41 -42 0
37 38 39 40 41 42 0
-43 -44 0
-43 -45 0
-43 -46 0
-43 -47 0
-43 -48 0
-44 -45 0
-44 -46 0
-44 -47 0
-44 -48 0
-45 -46 0
-45 -47 0
-45 -48 0
-46 -47 0
-46 -48 0
-47 -48 0
43 44 45 46 47 48 0
-49 -50 0
-49 -51 0
-49 -52 0
-49 -53 0
-49 -54 0
-50 -51 0
-50 -52 0
-50 -53 0
-50 -54 0
-51 -52 0
-51 -53 0
-51 -54 0
-52 -53 0
-52 -54 0
-53 -54 0
49 50 51 52 53 54 0
-55 -56 0
-55 -57 0
-55 -58 0
-55 -59 0
-55 -60 0
-56 -57 0
-56 -58 0
-56 -59 0
-56 -60 0
-57 -58 0
-57 -59 0
-57 -60 0
-58 -59 0
-58 -60 0
-59 -60 0
55 56 57 58 59 60 0
-61 -62 0
-61 -63 0
-61 -64 0
-61 -65 0
-61 -66 0
-62 -63 0
-62 -64 0
-62 -65 0
-62 -66 0
-63 -64 0
-63 -65 0
-63 -66 0
-64 -65 0
-64 -66 0
-65 -66 0
61 62 63 64 65 66 0
-67 -68 0
-67 -69 0
-67 -70 0
-67 -71 0
-67 -72 0
-68 -69 0
-68 -70 0
-68 -71 0
-68 -72 0
-69 -70 0
-69 -71 0
-69 -72 0
-70 -71 0
-70 -72 0
-71 -72 0
67 68 69 70 71 72 0
-73 -74 0
-73 -75 0
-73 -76 0
-73 -77 0
-73 -78 0
-74 -75 0
-74 -76 0
-74 -77 0
-74 -78 0
-75 -76 0
-75 -77 0
-75 -78 0
-76 -77 0
-76 -78 0
-77 -78 0
73 74 75 76 77 78 0
-1 -7 -13 0
-1 -7 -19 0
-1 -7 -25 0
-1 -7 -31 0
-1 -7 -37 0
-1 -7 -43 0
-1 -7 -49 0
-1 -7 -55 0
-1 -7 -61 0
-1 -7 -67 0
-1 -7 -73 0
-1 -13 -19 0
-1 -13 -25 0
-1 -13 -31 0
-1 -13 -37 0
-1 -13 -43 0
-1 -13 -49 0
-1 -13 -55 0
-1 -13 -61 0
-1 -13 -67 0
-1 -13 -73 0
-1 -19 -25 0
-1 -19 -31 0
-1 -19 -37 0
-1 -19 -43 0
-1 -19 -49 0
-1 -19 -55 0
-1 -19 -61 0
-1 -19 -67 0
-1 -19 -73 0
-1 -25 -31 0
-1 -25 -37 0
-1 -25 -43 0
-1 -25 -49 0
-1 -25 -55 0
-1 -25 -61 0
-1 -25 -67 0
-1 -25 -73 0
-1 -31 -37 0
-1 -31 -43 0
-1 -31 -49 0
-1 -31 -55 0
-1 -31 -61 0
-1 -31 -67 0
-1 -31 -73 0
-1 -37 -43 0
-1 -37 -49 0
-1 -37 -55 0
-1 -37 -61 0
-1 -37 -67 0
-1 -37 -73 0
-1 -43 -49 0
-1 -43 -55 0
-1 -43 -61 0
-1 -43 -67 0
-1 -43 -73 0
-1 -49 -55 0
-1 -49 -61 0
-1 -49 -67 0
-1 -49 -73 0
-1 -55 -61 0
-1 -55 -67 0
-1 -55 -73 0
-1 -61 -67 0
-1 -61 -73 0
-1 -67 -73 0
-7 -13 -19 0
-7 -13 -25 0
-7 -13 -31 0
-7 -13 -37 0
-7 -13 -43 0
-7 -13 -49 0
-7 -13 -55 0
-7 -13 -61 0
-7 -13 -67 0
-7 -13 -73 0
-7 -19 -25 0
-7 -19 -31 0
-7 -19 -37 0
-7 -19 -43 0
-7 -19 -49 0
-7 -19 -55 0
-7 -19 -61 0
-7 -19 -67 0
-7 -19 -73 0
-7 -25 -31 0
-7 -25 -37 0
-7 -25 -43 0
-7 -25 -49 0
-7 -25 -55 0
-7 -25 -61 0
-7 -25 -67 0
-7 -25 -73 0
-7 -31 -37 0
-7 -31 -43 0
-7 -31 -49 0
-7 -31 -55 0
-7 -31 -61 0
-7 -31 -67 0
-7 -31 -73 0
-7 -37 -43 0
-7 -37 -49 0
-7 -37 -55 0
-7 -37 -61 0
-7 -37 -67 0
-7 -37 -73 0
-7 -43 -49 0
-7 -43 -55 0
-7 -43 -61 0
-7 -43 -67 0
-7 -43 -73 0
-7 -49 -55 0
-7 -49 -61 0
-7 -49 -67 0
-7 -49 -73 0
-7 -55 -61 0
-7 -55 -67 0
-7 -55 -73 0
-7 -61 -67 0
-7 -61 -73 0
-7 -67 -73 0
-13 -19 -25 0
-13 -19 -31 0
-13 -19 -37 0
-13 -19 -43 0
-13 -19 -49 0
-13 -19 -55 0
-13 -19 -61 0
-13 -19 -67 0
-13 -19 -73 0
-13 -25 -31 0
-13 -25 -37 0
-13 -25 -43 0
-13 -25 -49 0
-13 -25 -55 0
-13 -25 -61 0
-13 -25 -67 0
-13 -25 -73 0
-13 -31 -37 0
-13 -31 -43 0
-13 -31 -49 0
-13 -31 -55 0
-13 -31 -61 0
-13 -31 -67 0
-13 -31 -73 0
-13 -37 -43 0
-13 -37 -49 0
-13 -37 -55 0
-13 -37 -61 0
-13 -37 -67 0
-13 -37 -73 0
-13 -43 -49 0
-13 -43 -55 0
-13 -43 -61 0
-13 -43 -67 0
-13 -43 -73 0
-13 -49 -55 0
-13 -49 -61 0
-13 -49 -67 0
-13 -49 -73 0
-13 -55 -61 0
-13 -55 -67 0
-13 -55 -73 0
-13 -61 -67 0
-13 -61 -73 0
-13 -67 -73 0
-19 -25 -31 0
-19 -25 -37 0
-19 -25 -43 0
-19 -25 -49 0
-19 -25 -55 0
-19 -25 -61 0
-19 -25 -67 0
-19 -25 -73 0
-19 -31 -37 0
-19 -31 -43 0
-19 -31 -49 0
-19 -31 -55 0
-19 -31 -61 0
-19 -31 -67 0
-19 -31 -73 0
-19 -37 -43 0
-19 -37 -49 0
-19 -37 -55 0
-19 -37 -61 0
-19 -37 -67 0
-19 -37 -73 0
-19 -43 -49 0
-19 -43 -55 0
-19 -43 -61 0
-19 -43 -67 0
-19 -43 -73 0
-19 -49 -55 0
-19 -49 -61 0
-19 -49 -67 0
-19 -49 -73 0
-19 -55 -61 0
-19 -55 -67 0
-19 -55 -73 0
-19 -61 -67 0
-19 -61 -73 0
-19 -67 -73 0
-25 -31 -37 0
-25 -31 -43 0
-25 -31 -49 0
-25 -31 -55 0
-25 -31 -61 0
-25 -31 -67 0
-25 -31 -73 0
-25 -37 -43 0
-25 -37 -49 0
-25 -37 -55 0
-25 -37 -61 0
-25 -37 -67 0
-25 -37 -73 0
-25 -43 -49 0
-25 -43 -55 0
-25 -43 -61 0
-25 -43 -67 0
-25 -43 -73 0
-25 -49 -55 0
-25 -49 -61 0
-25 -49 -67 0
-25 -49 -73 0
-25 -55 -61 0
-25 -55 -67 0
-25 -55 -73 0
-25 -61 -67 0
-25 -61 -73 0
-25 -67 -73 0
-31 -37 -43 0
-31 -37 -49 0
-31 -37 -55 0
-31 -37 -61 0
-31 -37 -67 0
-31 -37 -73 0
-31 -43 -49 0
-31 -43 -55 0
-31 -43 -61 0
-31 -43 -67 0
-31 -43 -73 0
-31 -49 -55 0
-31 -49 -61 0
-31 -49 -67 0
-31 -49 -73 0
-31 -55 -61 0
-31 -55 -67 0
-31 -55 -73 0
-31 -61 -67 0
-31 -61 -73 0
-31 -67 -73 0
-37 -43 -49 0
-37 -43 -55 0
-37 -43 -61 0
-37 -43 -67 0
-37 -43 -73 0
-37 -49 -55 0
-37 -49 -61 0
-37 -49 -67 0
-37 -49 -73 0
-37 -55 -61 0
-37 -55 -67 0
-37 -55 -73 0
-37 -61 -67 0
-37 -61 -73 0
-37 -67 -73 0
-43 -49 -55 0
-43 -49 -61 0
-43 -49 -67 0
-43 -49 -73 0
-43 -55 -61 0
-43 -55 -67 0
-43 -55 -73 0
-43 -61 -67 0
-43 -61 -73 0
-43 -67 -73 0
-49 -55 -61 0
-49 -55 -67 0
-49 -55 -73 0
-49 -61 -67 0
-49 -61 -73 0
-49 -67 -73 0
-55 -61 -67 0
-55 -61 -73 0
-55 -67 -73 0
-61 -67 -73 0
-2 -8 -14 0
-2 -8 -20 0
-2 -8 -26 0
-2 -8 -32 0
-2 -8 -38 0
-2 -8 -44 0
-2 -8 -50 0
-2 -8 -56 0
-2 -8 -62 0
-2 -8 -68 0
-2 -8 -74 0
-2 -14 -20 0
-2 -14 -26 0
-2 -14 -32 0
-2 -14 -38 0
-2 -14 -44 0
-2 -14 -50 0
-2 -14 -56 0
-2 -14 -62 0
-2 -14 -68 0
-2 -14 -74 0
-2 -20 -26 0
-2 -20 -32 0
-2 -20 -38 0
-2 -20 -44 0
-2 -20 -50 0
-2 -20 -56 0
-2 -20 -62 0
-2 -20 -68 0
-2 -20 -74 0
-2 -26 -32 0
-2 -26 -38 0
-2 -26 -44 0
-2 -26 -50 0
-2 -26 -56 0
-2 -26 -62 0
-2 -26 -68 0
-2 -26 -74 0
-2 -32 -38 0
-2 -32 -44 0
-2 -32 -50 0
-2 -32 -56 0
-2 -32 -62 0
-2 -32 -68 0
-2 -32 -74 0
-2 -38 -44 0
-2 -38 -50 0
-2 -38 -56 0
-2 -38 -62 0
-2 -38 -68 0
-2 -38 -74 0
-2 -44 -50 0
-2 -44 -56 0
-2 -44 -62 0
-2 -44 -68 0
-2 -44 -74 0
-2 -50 -56 0
-2 -50 -62 0
-2 -50 -68 0
-2 -50 -74 0
-2 -56 -62 0
-2 -56 -68 0
-2 -56 -74 0
-2 -62 -68 0
-2 -62 -74 0
-2 -68 -74 0
-8 -14 -20 0
-8 -14 -26 0
-8 -14 -32 0
-8 -14 -38 0
-8 -14 -44 0
-8 -14 -50 0
-8 -14 -56 0
-8 -14 -62 0
-8 -14 -68 0
-8 -14 -74 0
-8 -20 -26 0
-8 -20 -32 0
-8 -20 -38 0
-8 -20 -44 0
-8 -20 -50 0
-8 -20 -56 0
-8 -20 -62 0
-8 -20 -68 0
-8 -20 -74 0
-8 -26 -32 0
-8 -26 -38 0
-8 -26 -44 0
-8 -26 -50 0
-8 -26 -56 0
-8 -26 -62 0
-8 -26 -68 0
-8 -26 -74 0
-8 -32 -38 0
-8 -32 -44 0
-8 -32 -50 0
-8 -32 -56 0
-8 -32 -62 0
-8 -32 -68 0
-8 -32 -74 0
-8 -38 -44 0
-8 -38 -50 0
-8 -38 -56 0
-8 -38 -62 0
-8 -38 -68 0
-8 -38 -74 0
-8 -44 -50 0
-8 -44 -56 0
-8 -44 -62 0
-8 -44 -68 0
-8 -44 -74 0
-8 -50 -56 0
-8 -50 -62 0
-8 -50 -68 0
-8 -50 -74 0
-8 -56 -62 0
-8 -56 -68 0
-8 -56 -74 0
-8 -62 -68 0
-8 -62 -74 0
-8 -68 -74 0
-14 -20 -26 0
-14 -20 -32 0
-14 -20 -38 0
-14 -20 -44 0
-14 -20 -50 0
-14 -20 -56 0
-14 -20 -62 0
-14 -20 -68 0
-14 -20 -74 0
-14 -26 -32 0
-14 -26 -38 0
-14 -26 -44 0
-14 -26 -50 0
-14 -26 -56 0
-14 -26 -62 0
-14 -26 -68 0
-14 -26 -74 0
-14 -32 -38 0
-14 -32 -44 0
-14 -32 -50 0
-14 -32 -56 0
-14 -32 -62 0
-14 -32 -68 0
-14 -32 -74 0
-14 -38 -44 0
-14 -38 -50 0
-14 -38 -56 0
-14 -38 -62 0
-14 -38 -68 0
-14 -38 -74 0
-14 -44 -50 0
-14 -44 -56 0
-14 -44 -62 0
-14 -44 -68 0
-14 -44 -74 0
-14 -50 -56 0
-14 -50 -62 0
-14 -50 -68 0
-14 -50 -74 0
-14 -56 -62 0
-14 -56 -68 0
-14 -56 -74 0
-14 -62 -68 0
-14 -62 -74 0
-14 -68 -74 0
-20 -26 -32 0
-20 -26 -38 0
-20 -26 -44 0
-20 -26 -50 0
-20 -26 -56 0
-20 -26 -62 0
-20 -26 -68 0
-20 -26 -74 0
-20 -32 -38 0
-20 -32 -44 0
-20 -32 -50 0
-20 -32 -56 0
-20 -32 -62 0
-20 -32 -68 0
-20 -32 -74 0
-20 -38 -44 0
-20 -38 -50 0
-20 -38 -56 0
-20 -38 -62 0
-20 -38 -68 0
-20 -38 -74 0
-20 -44 -50 0
-20 -44 -56 0
-20 -44 -62 0
-20 -44 -68 0
-20 -44 -74 0
-20 -50 -56 0
-20 -50 -62 0
-20 -50 -68 0
-20 -50 -74 0
-20 -56 -62 0
-20 -56 -68 0
-20 -56 -74 0
-20 -62 -68 0
-20 -62 -74 0
-20 -68 -74 0
-26 -32 -38 0
-26 -32 -44 0
-26 -32 -50 0
-26 -32 -56 0
-26 -32 -62 0
-26 -32 -68 0
-26 -32 -74 0
-26 -38 -44 0
-26 -38 -50 0
-26 -38 -56 0
-26 -38 -62 0
-26 -38 -68 0
-26 -38 -74 0
-26 -44 -50 0
-26 -44 -56 0
-26 -44 -62 0
-26 -44 -68 0
-26 -44 -74 0
-26 -50 -56 0
-26 -50 -62 0
-26 -50 -68 0
-26 -50 -74 0
-26 -56 -62 0
-26 -56 -68 0
-26 -56 -74 0
-26 -62 -68 0
-26 -62 -74 0
-26 -68 -74 0
-32 -38 -44 0
-32 -38 -50 0
-32 -38 -56 0
-32 -38 -62 0
-32 -38 -68 0
-32 -38 -74 0
-32 -44 -50 0
-32 -44 -56 0
-32 -44 -62 0
-32 -44 -68 0
-32 -44 -74 0
-32 -50 -56 0
-32 -50 -62 0
-32 -50 -68 0
-32 -50 -74 0
-32 -56 -62 0
-32 -56 -68 0
-32 -56 -74 0
-32 -62 -68 0
-32 -62 -74 0
-32 -68 -74 0
-38 -44 -50 0
-38 -44 -56 0
-38 -44 -62 0
-38 -44 -68 0
-38 -44 -74 0
-38 -50 -56 0
-38 -50 -62 0
-38 -50 -68 0
-38 -50 -74 0
-38 -56 -62 0
-38 -56 -68 0
-38 -56 -74 0
-38 -62 -68 0
-38 -62 -74 0
-38 -68 -74 0
-44 -50 -56 0
-44 -50 -62 0
-44 -50 -68 0
-44 -50 -74 0
-44 -56 -62 0
-44 -56 -68 0
-44 -56 -74 0
-44 -62 -68 0
-44 -62 -74 0
-44 -68 -74 0
-50 -56 -62 0
-50 -56 -68 0
-50 -56 -74 0
-50 -62 -68 0
-50 -62 -74 0
-50 -68 -74 0
-56 -62 -68 0
-56 -62 -74 0
-56 -68 -74 0
-62 -68 -74 0
-3 -9 -15 0
-3 -9 -21 0
-3 -9 -27 0
-3 -9 -33 0
-3 -9 -39 0
-3 -9 -45 0
-3 -9 -51 0
-3 -9 -57 0
-3 -9 -63 0
-3 -9 -69 0
-3 -9 -75 0
-3 -15 -21 0
-3 -15 -27 0
-3 -15 -33 0
-3 -15 -39 0
-3 -15 -45 0
-3 -15 -51 0
-3 -15 -57 0
-3 -15 -63 0
-3 -15 -69 0
-3 -15 -75 0
-3 -21 -27 0
-3 -21 -33 0
-3 -21 -39 0
-3 -21 -45 0
-3 -21 -51 0
-3 -21 -57 0
-3 -21 -63 0
-3 -21 -69 0
-3 -21 -75 0
-3 -27 -33 0
-3 -27 -39 0
-3 -27 -45 0
-3 -27 -51 0
-3 -27 -57 0
-3 -27 -63 0
-3 -27 -69 0
-3 -27 -75 0
-3 -33 -39 0
-3 -33 -45 0
-3 -33 -51 0
-3 -33 -57 0
-3 -33 -63 0
-3 -33 -69 0
-3 -33 -75 0
-3 -39 -45 0
-3 -39 -51 0
-3 -39 -57 0
-3 -39 -63 0
-3 -39 -69 0
-3 -39 -75 0
-3 -45 -51 0
-3 -45 -57 0
-3 -45 -63 0
-3 -45 -69 0
-3 -45 -75 0
-3 -51 -57 0
-3 -51 -63 0
-3 -51 -69 0
-3 -51 -75 0
-3 -57 -63 0
-3 -57 -69 0
-3 -57 -75 0
-3 -63 -69 0
-3 -63 -75 0
-3 -69 -75 0
-9 -15 -21 0
-9 -15 -27 0
-9 -15 -33 0
-9 -15 -39 0
-9 -15 -45 0
-9 -15 -51 0
-9 -15 -57 0
-9 -15 -63 0
-9 -15 -69 0
-9 -15 -75 0
-9 -21 -27 0
-9 -21 -33 0
-9 -21 -39 0
-9 -21 -45 0
-9 -21 -51 0
-9 -21 -57 0
-9 -21 -63 0
-9 -21 -69 0
-9 -21 -75 0
-9 -27 -33 0
-9 -27 -39 0
-9 -27 -45 0
-9 -27 -51 0
-9 -27 -57 0
-9 -27 -63 0
-9 -27 -69 0
-9 -27 -75 0
-9 -33 -39 0
-9 -33 -45 0
-9 -33 -51 0
-9 -33 -57 0
-9 -33 -63 0
-9 -33 -69 0
-9 -33 -75 0
-9 -39 -45 0
-9 -39 -51 0
-9 -39 -57 0
-9 -39 -63 0
-9 -39 -69 0
-9 -39 -75 0
-9 -45 -51 0
-9 -45 -57 0
-9 -45 -63 0
-9 -45 -69 0
-9 -45 -75 0
-9 -51 -57 0
-9 -51 -63 0
-9 -51 -69 0
-9 -51 -75 0
-9 -57 -63 0
-9 -57 -69 0
-9 -57 -75 0
-9 -63 -69 0
-9 -63 -75 0
-9 -69 -75 0
-15 -21 -27 0
-15 -21 -33 0
-15 -21 -39 0
-15 -21 -45 0
-15 -21 -51 0
-15 -21 -57 0
-15 -21 -63 0
-15 -21 -69 0
-15 -21 -75 0
-15 -27 -33 0
-15 -27 -39 0
-15 -27 -45 0
-15 -27 -51 0
-15 -27 -57 0
-15 -27 -63 0
-15 -27 -69 0
-15 -27 -75 0
-15 -33 -39 0
-15 -33 -45 0
-15 -33 -51 0
-15 -33 -57 0
-15 -33 -63 0
-15 -33 -69 0
-15 -33 -75 0
-15 -39 -45 0
-15 -39 -51 0
-15 -39 -57 0
-15 -39 -63 0
-15 -39 -69 0
-15 -39 -75 0
-15 -45 -51 0
-15 -45 -57 0
-15 -45 -63 0
-15 -45 -69 0
-15 -45 -75 0
-15 -51 -57 0
-15 -51 -63 0
-15 -51 -69 0
-15 -51 -75 0
-15 -57 -63 0
-15 -57 -69 0
-15 -57 -75 0
-15 -63 -69 0
-15 -63 -75 0
-15 -69 -75 0
-21 -27 -33 0
-21 -27 -39 0
-21 -27 -45 0
-21 -27 -51 0
-21 -27 -57 0
-21 -27 -63 0
-21 -27 -69 0
-21 -27 -75 0
-21 -33 -39 0
-21 -33 -45 0
-21 -33 -51 0
-21 -33 -57 0
-21 -33 -63 0
-21 -33 -69 0
-21 -33 -75 0
-21 -39 -45 0
-21 -39 -51 0
-21 -39 -57 0
-21 -39 -63 0
-21 -39 -69 0
-21 -39 -75 0
-21 -45 -51 0
-21 -45 -57 0
-21 -45 -63 0
-21 -45 -69 0
-21 -45 -75 0
-21 -51 -57 0
-21 -51 -63 0
-21 -51 -69 0
-21 -51 -75 0
-21 -57 -63 0
-21 -57 -69 0
-21 -57 -75 0
-21 -63 -69 0
-21 -63 -75 0
-21 -69 -75 0
-27 -33 -39 0
-27 -33 -45 0
-27 -33 -51 0
-27 -33 -57 0
-27 -33 -63 0
-27 -33 -69 0
-27 -33 -75 0
-27 -39 -45 0
-27 -39 -51 0
-27 -39 -57 0
-27 -39 -63 0
-27 -39 -69 0
-27 -39 -75 0
-27 -45 -51 0
-27 -45 -57 0
-27 -45 -63 0
-27 -45 -69 0
-27 -45 -75 0
-27 -51 -57 0
-27 -51 -63 0
-27 -51 -69 0
-27 -51 -75 0
-27 -57 -63 0
-27 -57 -69 0
-27 -57 -75 0
-27 -63 -69 0
-27 -63 -75 0
-27 -69 -75 0
-33 -39 -45 0
-33 -39 -51 0
-33 -39 -57 0
-33 -39 -63 0
-33 -39 -69 0
-33 -39 -75 0
-33 -45 -51 0
-33 -45 -57 0
-33 -45 -63 0
-33 -45 -69 0
-33 -45 -75 0
-33 -51 -57 0
-33 -51 -63 0
-33 -51 -69 0
-33 -51 -75 0
-33 -57 -63 0
-33 -57 -69 0
-33 -57 -75 0
-33 -63 -69 0
-33 -63 -75 0
-33 -69 -75 0
-39 -45 -51 0
-39 -45 -57 0
-39 -45 -63 0
-39 -45 -69 0
-39 -45 -75 0
-39 -51 -57 0
-39 -51 -63 0
-39 -51 -69 0
-39 -51 -75 0
-39 -57 -63 0
-39 -57 -69 0
-39 -57 -75 0
-39 -63 -69 0
-39 -63 -75 0
-39 -69 -75 0
-45 -51 -57 0
-45 -51 -63 0
-45 -51 -69 0
-45 -51 -75 0
-45 -57 -63 0
-45 -57 -69 0
-45 -57 -75 0
-45 -63 -69 0
-45 -63 -75 0
-45 -69 -75 0
-51 -57 -63 0
-51 -57 -69 0
-51 -57 -75 0
-51 -63 -69 0
-51 -63 -75 0
-51 -69 -75 0
-57 -63 -69 0
-57 -63 -75 0
-57 -69 -75 0
-63 -69 -75 0
-4 -10 -16 0
-4 -10 -22 0
-4 -10 -28 0
-4 -10 -34 0
-4 -10 -40 0
-4 -10 -46 0
-4 -10 -52 0
-4 -10 -58 0
-4 -10 -64 0
-4 -10 -70 0
-4 -10 -76 0
-4 -16 -22 0
-4 -16 -28 0
-4 -16 -34 0
-4 -16 -40 0
-4 -16 -46 0
-4 -16 -52 0
-4 -16 -58 0
-4 -16 -64 0
-4 -16 -70 0
-4 -16 -76 0
-4 -22 -28 0
-4 -22 -34 0
-4 -22 -40 0
-4 -22 -46 0
-4 -22 -52 0
-4 -22 -58 0
-4 -22 -64 0
-4 -22 -70 0
-4 -22 -76 0
-4 -28 -34 0
-4 -28 -40 0
-4 -28 -46 0
-4 -28 -52 0
-4 -28 -58 0
-4 -28 -64 0
-4 -28 -70 0
-4 -28 -76 0
-4 -34 -40 0
-4 -34 -46 0
-4 -34 -52 0
-4 -34 -58 0
-4 -34 -64 0
-4 -34 -70 0
-4 -34 -76 0
-4 -40 -46 0
-4 -40 -52 0
-4 -40 -58 0
-4 -40 -64 0
-4 -40 -70 0
-4 -40 -76 0
-4 -46 -52 0
-4 -46 -58 0
-4 -46 -64 0
-4 -46 -70 0
-4 -46 -76 0
-4 -52 -58 0
-4 -52 -64 0
-4 -52 -70 0
-4 -52 -76 0
-4 -58 -64 0
-4 -58 -70 0
-4 -58 -76 0
-4 -64 -70 0
-4 -64 -76 0
-4 -70 -76 0
-10 -16 -22 0
-10 -16 -28 0
-10 -16 -34 0
-10 -16 -40 0
-10 -16 -46 0
-10 -16 -52 0
-10 -16 -58 0
-10 -16 -64 0
-10 -16 -70 0
-10 -16 -76 0
-10 -22 -28 0
-10 -22 -34 0
-10 -22 -40 0
-10 -22 -46 0
-10 -22 -52 0
-10 -22 -58 0
-10 -22 -64 0
-10 -22 -70 0
-10 -22 -76 0
-10 -28 -34 0
-10 -28 -40 0
-10 -28 -46 0
-10 -28 -52 0
-10 -28 -58 0
-10 -28 -64 0
-10 -28 -70 0
-10 -28 -76 0
-10 -34 -40 0
-10 -34 -46 0
-10 -34 -52 0
-10 -34 -58 0
-10 -34 -64 0
-10 -34 -70 0
-10 -34 -76 0
-10 -40 -46 0
-10 -40 -52 0
-10 -40 -58 0
-10 -40 -64 0
-10 -40 -70 0
-10 -40 -76 0
-10 -46 -52 0
-10 -46 -58 0
-10 -46 -64 0
-10 -46 -70 0
-10 -46 -76 0
-10 -52 -58 0
-10 -52 -64 0
-10 -52 -70 0
-10 -52 -76 0
-10 -58 -64 0
-10 -58 -70 0
-10 -58 -76 0
-10 -64 -70 0
-10 -64 -76 0
-10 -70 -76 0
-16 -22 -28 0
-16 -22 -34 0
-16 -22 -40 0
-16 -22 -46 0
-16 -22 -52 0
-16 -22 -58 0
-16 -22 -64 0
-16 -22 -70 0
-16 -22 -76 0
-16 -28 -34 0
-16 -28 -40 0
-16 -28 -46 0
-16 -28 -52 0
-16 -28 -58 0
-16 -28 -64 0
-16 -28 -70 0
-16 -28 -76 0
-16 -34 -40 0
-16 -34 -46 0
-16 -34 -52 0
-16 -34 -58 0
-16 -34 -64 0
-16 -34 -70 0
-16 -34 -76 0
-16 -40 -46 0
-16 -40 -52 0
-16 -40 -58 0
-16 -40 -64 0
-16 -40 -70 0
-16 -40 -76 0
-16 -46 -52 0
-16 -46 -58 0
-16 -46 -64 0
-16 -46 -70 0
-16 -46 -76 0
-16 -52 -58 0
-16 -52 -64 0
-16 -52 -70 0
-16 -52 -76 0
-16 -58 -64 0
-16 -58 -70 0
-16 -58 -76 0
-16 -64 -70 0
-16 -64 -76 0
-16 -70 -76 0
-22 -28 -34 0
-22 -28 -40 0
-22 -28 -46 0
-22 -28 -52 0
-22 -28 -58 0
-22 -28 -64 0
-22 -28 -70 0
-22 -28 -76 0
-22 -34 -40 0
-22 -34 -46 0
-22 -34 -52 0
-22 -34 -58 0
-22 -34 -64 0
-22 -34 -70 0
-22 -34 -76 0
-22 -40 -46 0
-22 -40 -52 0
-22 -40 -58 0
-22 -40 -64 0
-22 -40 -70 0
-22 -40 -76 0
-22 -46 -52 0
-22 -46 -58 0
-22 -46 -64 0
-22 -46 -70 0
-22 -46 -76 0
-22 -52 -58 0
-22 -52 -64 0
-22 -52 -70 0
-22 -52 -76 0
-22 -58 -64 0
-22 -58 -70 0
-22 -58 -76 0
-22 -64 -70 0
-22 -64 -76 0
-22 -70 -76 0
-28 -34 -40 0
-28 -34 -46 0
-28 -34 -52 0
-28 -34 -58 0
-28 -34 -64 0
-28 -34 -70 0
-28 -34 -76 0
-28 -40 -46 0
-28 -40 -52 0
-28 -40 -58 0
-28 -40 -64 0
-28 -40 -70 0
-28 -40 -76 0
-28 -46 -52 0
-28 -46 -58 0
-28 -46 -64 0
-28 -46 -70 0
-28 -46 -76 0
-28 -52 -58 0
-28 -52 -64 0
-28 -52 -70 0
-28 -52 -76 0
-28 -58 -64 0
-28 -58 -70 0
-28 -58 -76 0
-28 -64 -70 0
-28 -64 -76 0
-28 -70 -76 0
-34 -40 -46 0
-34 -40 -52 0
-34 -40 -58 0
-34 -40 -64 0
-34 -40 -70 0
-34 -40 -76 0
-34 -46 -52 0
-34 -46 -58 0
-34 -46 -64 0
-34 -46 -70 0
-34 -46 -76 0
-34 -52 -58 0
-34 -52 -64 0
-34 -52 -70 0
-34 -52 -76 0
-34 -58 -64 0
-34 -58 -70 0
-34 -58 -76 0
-34 -64 -70 0
-34 -64 -76 0
-34 -70 -76 0
-40 -46 -52 0
-40 -46 -58 0
-40 -46 -64 0
-40 -46 -70 0
-40 -46 -76 0
-40 -52 -58 0
-40 -52 -64 0
-40 -52 -70 0
-40 -52 -76 0
-40 -58 -64 0
-40 -58 -70 0
-40 -58 -76 0
-40 -64 -70 0
-40 -64 -76 0
-40 -70 -76 0
-46 -52 -58 0
-46 -52 -64 0
-46 -52 -70 0
-46 -52 -76 0
-46 -58 -64 0
-46 -58 -70 0
-46 -58 -76 0
-46 -64 -70 0
-46 -64 -76 0
-46 -70 -76 0
-52 -58 -64 0
-52 -58 -70 0
-52 -58 -76 0
-52 -64 -70 0
-52 -64 -76 0
-52 -70 -76 0
-58 -64 -70 0
-58 -64 -76 0
-58 -70 -76 0
-64 -70 -76 0
-5 -11 -17 0
-5 -11 -23 0
-5 -11 -29 0
-5 -11 -35 0
-5 -11 -41 0
-5 -11 -47 0
-5 -11 -53 0
-5 -11 -59 0
-5 -11 -65 0
-5 -11 -71 0
-5 -11 -77 0
-5 -17 -23 0
-5 -17 -29 0
-5 -17 -35 0
-5 -17 -41 0
-5 -17 -47 0
-5 -17 -53 0
-5 -17 -59 0
-5 -17 -65 0
-5 -17 -71 0
-5 -17 -77 0
-5 -23 -29 0
-5 -23 -35 0
-5 -23 -41 0
-5 -23 -47 0
-5 -23 -53 0
-5 -23 -59 0
-5 -23 -65 0
-5 -23 -71 0
-5 -23 -77 0
-5 -29 -35 0
-5 -29 -41 0
-5 -29 -47 0
-5 -29 -53 0
-5 -29 -59 0
-5 -29 -65 0
-5 -29 -71 0
-5 -29 -77 0
-5 -35 -41 0
-5 -35 -47 0
-5 -35 -53 0
-5 -35 -59 0
-5 -35 -65 0
-5 -35 -71 0
-5 -35 -77 0
-5 -41 -47 0
-5 -41 -53 0
-5 -41 -59 0
-5 -41 -65 0
-5 -41 -71 0
-5 -41 -77 0
-5 -47 -53 0
-5 -47 -59 0
-5 -47 -65 0
-5 -47 -71 0
-5 -47 -77 0
-5 -53 -59 0
-5 -53 -65 0
-5 -53 -71 0
-5 -53 -77 0
-5 -59 -65 0
-5 -59 -71 0
-5 -59 -77 0
-5 -65 -71 0
-5 -65 -77 0
-5 -71 -77 0
-11 -17 -23 0
-11 -17 -29 0
-11 -17 -35 0
-11 -17 -41 0
-11 -17 -47 0
-11 -17 -53 0
-11 -17 -59 0
-11 -17 -65 0
-11 -17 -71 0
-11 -17 -77 0
-11 -23 -29 0
-11 -23 -35 0
-11 -23 -41 0
-11 -23 -47 0
-11 -23 -53 0
-11 -23 -59 0
-11 -23 -65 0
-11 -23 -71 0
-11 -23 -77 0
-11 -29 -35 0
-11 -29 -41 0
-11 -29 -47 0
-11 -29 -53 0
-11 -29 -59 0
-11 -29 -65 0
-11 -29 -71 0
-11 -29 -77 0
-11 -35 -41 0
-11 -35 -47 0
-11 -35 -53 0
-11 -35 -59 0
-11 -35 -65 0
-11 -35 -71 0
-11 -35 -77 0
-11 -41 -47 0
-11 -41 -53 0
-11 -41 -59 0
-11 -41 -65 0
-11 -41 -71 0
-11 -41 -77 0
-11 -47 -53 0
-11 -47 -59 0
-11 -47 -65 0
-11 -47 -71 0
-11 -47 -77 0
-11 -53 -59 0
-11 -53 -65 0
-11 -53 -71 0
-11 -53 -77 0
-11 -59 -65 0
-11 -59 -71 0
-11 -59 -77 0
-11 -65 -71 0
-11 -65 -77 0
-11 -71 -77 0
-17 -23 -29 0
-17 -23 -35 0
-17 -23 -41 0
-17 -23 -47 0
-17 -23 -53 0
-17 -23 -59 0
-17 -23 -65 0
-17 -23 -71 0
-17 -23 -77 0
-17 -29 -35 0
-17 -29 -41 0
-17 -29 -47 0
-17 -29 -53 0
-17 -29 -59 0
-17 -29 -65 0
-17 -29 -71 0
-17 -29 -77 0
-17 -35 -41 0
-17 -35 -47 0
-17 -35 -53 0
-17 -35 -59 0
-17 -35 -65 0
-17 -35 -71 0
-17 -35 -77 0
-17 -41 -47 0
-17 -41 -53 0
-17 -41 -59 0
-17 -41 -65 0
-17 -41 -71 0
-17 -41 -77 0
-17 -47 -53 0
-17 -47 -59 0
-17 -47 -65 0
-17 -47 -71 0
-17 -47 -77 0
-17 -53 -59 0
-17 -53 -65 0
-17 -53 -71 0
-17 -53 -77 0
-17 -59 -65 0
-17 -59 -71 0
-17 -59 -77 0
-17 -65 -71 0
-17 -65 -77 0
-17 -71 -77 0
-23 -29 -35 0
-23 -29 -41 0
-23 -29 -47 0
-23 -29 -53 0
-23 -29 -59 0
-23 -29 -65 0
-23 -29 -71 0
-23 -29 -77 0
-23 -35 -41 0
-23 -35 -47 0
-23 -35 -53 0
-23 -35 -59 0
-23 -35 -65 0
-23 -35 -71 0
-23 -35 -77 0
-23 -41 -47 0
-23 -41 -53 0
-23 -41 -59 0
-23 -41 -65 0
-23 -41 -71 0
-23 -41 -77 0
-23 -47 -53 0
-23 -47 -59 0
-23 -47 -65 0
-23 -47 -71 0
-23 -47 -77 0
-23 -53 -59 0
-23 -53 -65 0
-23 -53 -71 0
-23 -53 -77 0
-23 -59 -65 0
-23 -59 -71 0
-23 -59 -77 0
-23 -65 -71 0
-23 -65 -77 0
-23 -71 -77 0
-29 -35 -41 0
-29 -35 -47 0
-29 -35 -53 0
-29 -35 -59 0
-29 -35 -65 0
-29 -35 -71 0
-29 -35 -77 0
-29 -41 -47 0
-29 -41 -53 0
-29 -41 -59 0
-29 -41 -65 0
-29 -41 -71 0
-29 -41 -77 0
-29 -47 -53 0
-29 -47 -59 0
-29 -47 -65 0
-29 -47 -71 0
-29 -47 -77 0
-29 -53 -59 0
-29 -53 -65 0
-29 -53 -71 0
-29 -53 -77 0
-29 -59 -65 0
-29 -59 -71 0
-29 -59 -77 0
-29 -65 -71 0
-29 -65 -77 0
-29 -71 -77 0
-35 -41 -47 0
-35 -41 -53 0
-35 -41 -59 0
-35 -41 -65 0
-35 -41 -71 0
-35 -41 -77 0
-35 -47 -53 0
-35 -47 -59 0
-35 -47 -65 0
-35 -47 -71 0
-35 -47 -77 0
-35 -53 -59 0
-35 -53 -65 0
-35 -53 -71 0
-35 -53 -77 0
-35 -59 -65 0
-35 -59 -71 0
-35 -59 -77 0
-35 -65 -71 0
-35 -65 -77 0
-35 -71 -77 0
-41 -47 -53 0
-41 -47 -59 0
-41 -47 -65 0
-41 -47 -71 0
-41 -47 -77 0
-41 -53 -59 0
-41 -53 -65 0
-41 -53 -71 0
-41 -53 -77 0
-41 -59 -65 0
-41 -59 -71 0
-41 -59 -77 0
-41 -65 -71 0
-41 -65 -77 0
-41 -71 -77 0
-47 -53 -59 0
-47 -53 -65 0
-47 -53 -71 0
-47 -53 -77 0
-47 -59 -65 0
-47 -59 -71 0
-47 -59 -77 0
-47 -65 -71 0
-47 -65 -77 0
-47 -71 -77 0
-53 -59 -65 0
-53 -59 -71 0
-53 -59 -77 0
-53 -65 -71 0
-53 -65 -77 0
-53 -71 -77 0
-59 -65 -71 0
-59 -65 -77 0
-59 -71 -77 0
-65 -71 -77 0
-6 -12 -18 0
-6 -12 -24 0
-6 -12 -30 0
-6 -12 -36 0
-6 -12 -42 0
-6 -12 -48 0
-6 -12 -54 0
-6 -12 -60 0
-6 -12 -66 0
-6 -12 -72 0
-6 -12 -78 0
-6 -18 -24 0
-6 -18 -30 0
-6 -18 -36 0
-6 -18 -42 0
-6 -18 -48 0
-6 -18 -54 0
-6 -18 -60 0
-6 -18 -66 0
-6 -18 -72 0
-6 -18 -78 0
-6 -24 -30 0
-6 -24 -36 0
-6 -24 -42 0
-6 -24 -48 0
-6 -24 -54 0
-6 -24 -60 0
-6 -24 -66 0
-6 -24 -72 0
-6 -24 -78 0
-6 -30 -36 0
-6 -30 -42 0
-6 -30 -48 0
-6 -30 -54 0
-6 -30 -60 0
-6 -30 -66 0
-6 -30 -72 0
-6 -30 -78 0
-6 -36 -42 0
-6 -36 -48 0
-6 -36 -54 0
-6 -36 -60 0
-6 -36 -66 0
-6 -36 -72 0
-6 -36 -78 0
-6 -42 -48 0
-6 -42 -54 0
-6 -42 -60 0
-6 -42 -66 0
-6 -42 -72 0
-6 -42 -78 0
-6 -48 -54 0
-6 -48 -60 0
-6 -48 -66 0
-6 -48 -72 0
-6 -48 -78 0
-6 -54 -60 0
-6 -54 -66 0
-6 -54 -72 0
-6 -54 -78 0
-6 -60 -66 0
-6 -60 -72 0
-6 -60 -78 0
-6 -66 -72 0
-6 -66 -78 0
-6 -72 -78 0
-12 -18 -24 0
-12 -18 -30 0
-12 -18 -36 0
-12 -18 -42 0
-12 -18 -48 0
-12 -18 -54 0
-12 -18 -60 0
-12 -18 -66 0
-12 -18 -72 0
-12 -18 -78 0
-12 -24 -30 0
-12 -24 -36 0
-12 -24 -42 0
-12 -24 -48 0
-12 -24 -54 0
-12 -24 -60 0
-12 -24 -66 0
-12 -24 -72 0
-12 -24 -78 0
-12 -30 -36 0
-12 -30 -42 0
-12 -30 -48 0
-12 -30 -54 0
-12 -30 -60 0
-12 -30 -66 0
-12 -30 -72 0
-12 -30 -78 0
-12 -36 -42 0
-12 -36 -48 0
-12 -36 -54 0
-12 -36 -60 0
-12 -36 -66 0
-12 -36 -72 0
-12 -36 -78 0
-12 -42 -48 0
-12 -42 -54 0
-12 -42 -60 0
-12 -42 -66 0
-12 -42 -72 0
-12 -42 -78 0
-12 -48 -54 0
-12 -48 -60 0
-12 -48 -66 0
-12 -48 -72 0
-12 -48 -78 0
-12 -54 -60 0
-12 -54 -66 0
-12 -54 -72 0
-12 -54 -78 0
-12 -60 -66 0
-12 -60 -72 0
-12 -60 -78 0
-12 -66 -72 0
-12 -66 -78 0
-12 -72 -78 0
-18 -24 -30 0
-18 -24 -36 0
-18 -24 -42 0
-18 -24 -48 0
-18 -24 -54 0
-18 -24 -60 0
-18 -24 -66 0
-18 -24 -72 0
-18 -24 -78 0
-18 -30 -36 0
-18 -30 -42 0
-18 -30 -48 0
-18 -30 -54 0
-18 -30 -60 0
-18 -30 -66 0
-18 -30 -72 0
-18 -30 -78 0
-18 -36 -42 0
-18 -36 -48 0
-18 -36 -54 0
-18 -36 -60 0
-18 -36 -66 0
-18 -36 -72 0
-18 -36 -78 0
-18 -42 -48 0
-18 -42 -54 0
-18 -42 -60 0
-18 -42 -66 0
-18 -42 -72 0
-18 -42 -78 0
-18 -48 -54 0
-18 -48 -60 0
-18 -48 -66 0
-18 -48 -72 0
-18 -48 -78 0
-18 -54 -60 0
-18 -54 -66 0
-18 -54 -72 0
-18 -54 -78 0
-18 -60 -66 0
-18 -60 -72 0
-18 -60 -78 0
-18 -66 -72 0
-18 -66 -78 0
-18 -72 -78 0
-24 -30 -36 0
-24 -30 -42 0
-24 -30 -48 0
-24 -30 -54 0
-24 -30 -60 0
-24 -30 -66 0
-24 -30 -72 0
-24 -30 -78 0
-24 -36 -42 0
-24 -36 -48 0
-24 -36 -54 0
-24 -36 -60 0
-24 -36 -66 0
-24 -36 -72 0
-24 -36 -78 0
-24 -42 -48 0
-24 -42 -54 0
-24 -42 -60 0
-24 -42 -66 0
-24 -42 -72 0
-24 -42 -78 0
-24 -48 -54 0
-24 -48 -60 0
-24 -48 -66 0
-24 -48 -72 0
-24 -48 -78 0
-24 -54 -60 0
-24 -54 -66 0
-24 -54 -72 0
-24 -54 -78 0
-24 -60 -66 0
-24 -60 -72 0
-24 -60 -78 0
-24 -66 -72 0
-24 -66 -78 0
-24 -72 -78 0
-30 -36 -42 0
-30 -36 -48 0
-30 -36 -54 0
-30 -36 -60 0
-30 -36 -66 0
-30 -36 -72 0
-30 -36 -78 0
-30 -42 -48 0
-30 -42 -54 0
-30 -42 -60 0
-30 -42 -66 0
-30 -42 -72 0
-30 -42 -78 0
-30 -48 -54 0
-30 -48 -60 0
-30 -48 -66 0
-30 -48 -72 0
-30 -48 -78 0
-30 -54 -60 0
-30 -54 -66 0
-30 -54 -72 0
-30 -54 -78 0
-30 -60 -66 0
-30 -60 -72 0
-30 -60 -78 0
-30 -66 -72 0
-30 -66 -78 0
-30 -72 -78 0
-36 -42 -48 0
-36 -42 -54 0
-36 -42 -60 0
-36 -42 -66 0
-36 -42 -72 0
-36 -42 -78 0
-36 -48 -54 0
-36 -48 -60 0
-36 -48 -66 0
-36 -48 -72 0
-36 -48 -78 0
-36 -54 -60 0
-36 -54 -66 0
-36 -54 -72 0
-36 -54 -78 0
-36 -60 -66 0
-36 -60 -72 0
-36 -60 -78 0
-36 -66 -72 0
-36 -66 -78 0
-36 -72 -78 0
-42 -48 -54 0
-42 -48 -60 0
-42 -48 -66 0
-42 -48 -72 0
-42 -48 -78 0
-42 -54 -60 0
-42 -54 -66 0
-42 -54 -72 0
-42 -54 -78 0
-42 -60 -66 0
-42 -60 -72 0
-42 -60 -78 0
-42 -66 -72 0
-42 -66 -78 0
-42 -72 -78 0
-48 -54 -60 0
-48 -54 -66 0
-48 -54 -72 0
-48 -54 -78 0
-48 -60 -66 0
-48 -60 -72 0
-48 -60 -78 0
-48 -66 -72 0
-48 -66 -78 0
-48 -72 -78 0
-54 -60 -66 0
-54 -60 -72 0
-54 -60 -78 0
-54 -66 -72 0
-54 -66 -78 0
-54 -72 -78 0
-60 -66 -72 0
-60 -66 -78 0
-60 -72 -78 0
-66 -72 -78 0
-449 816 -989 0
-317 765 966 0
151 -384 867 0
88 500 910 0
-172 -482 733 0
100 472 -478 0
-286 -492 -578 0
521 929 -985 0
114 -799 -873 0
688 -693 828 0
-388 425 428 0
211 -673 743 0
266 -639 966 0
723 -755 972 0
137 -671 917 0
109 -223 -381 0
524 738 -843 0
717 738 -797 0
159 501 -730 0
622 712 1018 0
-360 460 912 0
-353 -423 -877 0
-253 -497 885 0
-97 571 770 0
154 403 -618 0
182 -521 787 0
100 801 -826 0
685 771 -987 0
454 -456 -561 0
205 429 624 0
209 247 -923 0
-363 958 961 0
-870 -875 955 0
-85 -94 -243 0
-191 667 846 0
-858 -883 -993 0
680 -957 969 0
480 548 -737 0
-669 -882 -946 0
-679 729 839 0
222 -249 995 0
-166 -595 -615 0
-592 617 723 0
181 424 -507 0
-254 -697 751 0
-396 494 -501 0
90 -150 -536 0
204 -230 -324 0
-151 469 -1033 0
-198 739 1008 0
93 -168 481 0
-274 517 652 0
-190 629 736 0
243 739 -741 0
151 621 940 0
352 -412 1009 0
-272 -672 -788 0
-449 -505 522 0
85 167 544 0
-538 -671 -993 0
-189 -450 -1032 0
-223 630 -771 0
-91 -667 -719 0
-185 439 -899 0
-96 132 -218 0
151 -266 -432 0
531 693 -1017 0
864 941 -997 0
-296 -544 -1006 0
-518 601 -836 0
-129 -824 -953 0
-580 608 -805 0
-102 502 741 0
414 -797 1038 0
190 521 569 0
142 -479 -1031 0
-309 766 -872 0
456 -804 897 0
-514 525 -925 0
-295 406 -605 0
-576 -812 -970 0
565 -587 823 0
672 772 -1011 0
122 -578 788 0
408 -466 -602 0
249 627 871 0
-686 696 -698 0
-144 393 -698 0
806 -952 -1034 0
348 407 673 0
490 -767 993 0
-410 -554 -768 0
-450 -785 858 0
-126 -205 -538 0
-243 -598 -859 0
382 -600 675 0
578 -611 812 0
-444 -562 911 0
-91 -104 -543 0
-418 554 628 0
-564 -616 -997 0
184 -573 852 0
266 -817 966 0
347 -476 796 0
310 -409 -462 0
-351 -401 -939 0
-131 -709 -906 0
204 -759 787 0
-501 641 -668 0
-309 -434 -634 0
-608 832 943 0
-456 515 -600 0
-402 -483 1038 0
-274 -744 943 0
-268 443 838 0
607 835 -903 0
-451 469 -494 0
368 391 1015 0
123 -342 -623 0
-503 815 -835 0
410 -482 -738 0
-212 555 996 0
-365 -400 -403 0
-676 956 -997 0
260 -576 1024 0
94 -534 697 0
-120 288 -881 0
-357 -521 725 0
-367 844 -1015 0
-296 -620 -767 0
-186 -324 550 0
-684 -736 900 0
98 906 944 0
177 722 -724 0
567 -746 -827 0
-140 162 -613 0
-327 371 -982 0
375 680 -1018 0
235 -699 -789 0
-432 -741 783 0
107 243 894 0
334 -354 -396 0
-109 -411 994 0
174 621 1004 0
-414 -991 1017 0
198 -264 871 0
-196 -377 -713 0
-548 630 -856 0
-323 -739 1007 0
-136 151 -912 0
199 -385 693 0
-387 605 627 0
648 -823 990 0
581 803 999 0
472 -613 862 0
187 -877 -881 0
164 275 1032 0
-83 674 898 0
228 339 -804 0
755 859 971 0
286 -443 527 0
132 -470 -936 0
-280 -389 480 0
315 -369 821 0
-227 355 -613 0
248 -336 -462 0
120 -800 967 0
180 355 -1036 0
-209 -423 -619 0
-123 257 553 0
-447 -576 727 0
264 510 -931 0
103 -170 589 0
297 -356 -433 0
186 290 513 0
-388 615 924 0
522 -765 -808 0
166 510 711 0
-145 377 -394 0
-207 -370 -389 0
-225 628 -635 0
319 818 -868 0
-265 396 -1032 0
-541 604 901 0
-303 391 610 0
87 -152 -384 0
-376 777 806 0
607 -632 -945 0
254 499 839 0
545 -785 877 0
232 -306 686 0
-263 -614 -910 0
511 696 -777 0
377 -536 -913 0
115 -667 752 0
142 802 829 0
179 455 618 0
-404 -460 678 0
-447 612 619 0
-201 -789 -869 0
375 419 -696 0
-332 -349 404 0
-422 -446 -751 0
-231 537 855 0
579 -584 794 0
-121 -312 -639 0
182 -235 -879 0
89 384 -679 0
-678 1017 1024 0
-209 -515 670 0
180 441 691 0
-107 -749 -883 0
-388 -583 894 0
299 -373 -693 0
268 -857 -874 0
116 389 -856 0
298 -519 -685 0
195 439 -826 0
176 -441 -601 0
487 564 -815 0
-195 -757 1004 0
-486 -493 959 0
454 -879 -896 0
-377 -614 -744 0
659 924 977 0
308 -693 849 0
215 631 -777 0
-144 -344 -445 0
-683 870 -966 0
-546 680 693 0
-573 -623 872 0
112 253 979 0
723 742 950 0
-599 -834 -884 0
-452 601 931 0
302 620 -951 0
96 -320 -824 0
240 -464 -592 0
356 694 747 0
203 580 862 0
-260 -311 -1002 0
-200 257 775 0
-164 -672 713 0
-100 474 909 0
-522 524 929 0
-122 -818 828 0
321 350 -1023 0
-152 366 -657 0
545 -595 -988 0
-80 701 723 0
220 -375 -973 0
856 1009 -1021 0
-192 -500 -659 0
-156 345 -461 0
156 -808 -987 0
-468 493 -1000 0
-152 -173 406 0
275 350 -364 0
135 -173 -600 0
-227 962 999 0
-293 716 -987 0
808 -860 906 0
-279 567 747 0
295 -433 733 0
620 657 713 0
321 524 -755 0
202 -466 -951 0
-171 181 741 0
111 384 456 0
88 -267 -839 0
119 -354 -684 0
374 433 -997 0
248 774 -980 0
-300 -343 878 0
237 533 916 0
277 -463 552 0
206 -826 -876 0
414 633 685 0
-84 -308 -649 0
450 897 960 0
549 788 -910 0
162 683 -811 0
384 825 -834 0
101 627 -808 0
328 665 -694 0
124 -194 208 0
624 -758 -823 0
-201 250 1029 0
-373 -385 947 0
511 -965 -1010 0
398 -731 906 0
-127 -350 -775 0
-552 -679 684 0
247 -542 761 0
-173 -512 -959 0
384 -509 -837 0
299 -867 -973 0
109 307 473 0
222 -658 740 0
-657 822 -851 0
309 416 651 0
-79 161 -427 0
983 1015 1035 0
-268 338 -486 0
-609 -851 -1028 0
311 543 -658 0
275 562 -700 0
-89 142 376 0
-261 374 -1004 0
-440 610 643 0
355 421 -730 0
-257 564 -819 0
-420 -519 784 0
-254 402 -847 0
224 -441 -644 0
-348 465 -497 0
-207 -302 -702 0
292 -492 770 0
-196 710 885 0
432 -646 942 0
212 378 746 0
259 398 441 0
518 708 710 0
126 673 912 0
-456 -460 -709 0
-599 737 764 0
-367 586 -1018 0
-181 286 908 0
332 500 -505 0
-328 -377 -899 0
244 -483 -773 0
447 638 884 0
244 502 879 0
111 548 1036 0
-539 605 860 0
-330 -627 739 0
184 268 -500 0
259 306 -485 0
579 -736 -796 0
368 749 -908 0
-259 -947 -959 0
-183 -296 652 0
179 -210 653 0
-265 -347 -618 0
193 -726 -783 0
-301 660 832 0
481 661 738 0
-109 111 -787 0
-302 -304 -918 0
85 -282 -810 0
228 715 -894 0
-221 -232 -652 0
-541 684 -947 0
-183 417 -926 0
-223 853 879 0
-442 -503 643 0
-129 -467 888 0
-861 1027 -1040 0
428 471 -511 0
168 -291 -974 0
186 521 563 0
247 -772 902 0
128 574 806 0
-111 -641 -702 0
177 -655 -991 0
370 496 -522 0
686 -694 1008 0
-541 601 679 0
-536 -604 949 0
-207 268 386 0
-576 -688 744 0
-93 167 -690 0
-636 655 892 0
697 885 -1001 0
331 641 824 0
-211 609 615 0
472 870 -1027 0
-88 -89 873 0
-233 750 -803 0
-204 474 815 0
-449 529 -949 0
-217 446 -1038 0
-101 -151 -508 0
524 -588 833 0
-170 -348 -875 0
706 -711 -865 0
361 495 624 0
116 -202 -832 0
293 -472 906 0
-232 614 -799 0
179 614 910 0
494 -509 -662 0
426 656 -1016 0
355 -389 882 0
429 -456 -795 0
-370 -434 730 0
-260 409 -911 0
197 -531 954 0
147 748 -817 0
-87 682 -701 0
-104 137 -419 0
-342 642 -783 0
-393 847 -898 0
522 807 -975 0
615 628 -677 0
-99 -524 -812 0
-85 -274 751 0
508 -810 -1000 0
519 -601 1023 0
-170 -342 576 0
141 870 -982 0
-510 607 703 0
-198 -215 -287 0
255 332 -572 0
198 776 -985 0
-365 408 844 0
-335 551 -640 0
348 372 640 0
-121 269 -470 0
260 294 -864 0
116 362 1027 0
373 686 717 0
-948 1027 -1036 0
-484 929 -1000 0
123 -147 250 0
565 -796 -975 0
158 461 -699 0
-521 -629 862 0
-104 -199 210 0
-177 632 904 0
284 -397 543 0
-459 575 817 0
-235 417 -660 0
353 -834 890 0
100 -979 1040 0
-429 891 893 0
272 541 -941 0
126 -625 -846 0
-416 989 -994 0
-440 -653 898 0
468 -864 992 0
-86 408 1004 0
-494 -633 -744 0
-402 1000 -1026 0
135 491 540 0
268 -523 1021 0
318 910 -913 0
442 493 -796 0
87 -144 741 0
218 728 -1015 0
346 -521 -742 0
-120 774 -778 0
-112 -204 -269 0
173 198 -663 0
307 758 -781 0
-81 -547 -856 0
135 -206 879 0
-424 486 -973 0
-278 -1025 -1027 0
418 480 900 0
770 -885 -950 0
-140 386 547 0
146 -385 -862 0
-724 908 1007 0
474 598 -841 0
-241 -424 -963 0
255 291 -564 0
-301 -621 -969 0
204 383 -871 0
599 -607 1023 0
343 -623 -970 0
260 -598 777 0
-300 -621 1005 0
-132 -436 1018 0
-138 731 -776 0
-121 -571 935 0
169 -884 1012 0
353 -433 -465 0
-586 619 773 0
175 -241 -409 0
538 -919 1037 0
-294 -752 797 0
276 513 582 0
182 -233 -430 0
-568 777 973 0
-87 -128 -719 0
288 319 -521 0
-350 503 596 0
-391 432 1001 0
685 718 930 0
598 814 966 0
341 -489 685 0
371 614 -687 0
-433 480 -891 0
282 -651 791 0
478 965 999 0
-235 248 -524 0
761 -829 -1017 0
-391 -476 651 0
155 -365 775 0
-567 -594 902 0
225 643 804 0
-438 -609 819 0
-503 -550 631 0
254 274 -398 0
180 -343 -867 0
981 1013 -1032 0
-176 -905 922 0
-398 798 -950 0
-759 932 981 0
-213 706 -840 0
204 -438 841 0
-88 -120 821 0
134 -316 740 0
313 435 825 0
111 184 -256 0
-141 488 -681 0
-163 -313 -758 0
-288 719 -746 0
501 713 -1012 0
498 787 1022 0
288 -533 -658 0
517 694 731 0
-192 -720 -815 0
479 480 492 0
175 -188 908 0
-125 261 -267 0
-369 -483 718 0
-489 653 -952 0
447 -642 -1024 0
-160 -611 -1039 0
578 710 842 0
-112 -153 457 0
112 -407 733 0
-435 -479 -566 0
-223 -282 -408 0
-152 -598 -991 0
-213 440 535 0
470 -607 -659 0
438 469 708 0
646 939 -1019 0
-548 -676 -1006 0
539 621 751 0
170 -747 -828 0
-179 -414 -530 0
-466 -912 1004 0
161 917 925 0
-107 232 969 0
203 371 -763 0
327 -389 417 0
177 346 773 0
-247 -839 1011 0
131 205 -694 0
336 683 -983 0
-398 875 -997 0
204 -600 934 0
79 490 -554 0
-788 -839 -969 0
409 626 1017 0
-362 599 685 0
-544 -861 998 0
241 -399 -720 0
-259 1025 -1038 0
812 -879 1032 0
-527 -707 980 0
203 642 -764 0
113 118 860 0
-231 -310 -787 0
280 -658 865 0
-87 162 753 0
-338 646 727 0
294 -453 -657 0
-178 -708 867 0
153 843 -993 0
473 -699 948 0
417 -636 1016 0
-165 253 -421 0
-685 -697 -860 0
130 339 -600 0
201 435 544 0
713 -877 -980 0
292 -714 -898 0
130 -733 -912 0
-345 874 943 0
106 -182 -200 0
114 1000 -1029 0
-455 -546 -759 0
-152 -688 -971 0
260 -445 -508 0
-266 419 536 0
361 -561 -999 0
-412 -821 -1028 0
784 805 -968 0
-123 287 -590 0
435 -516 729 0
-329 -601 666 0
621 -676 799 0
169 -402 472 0
-243 585 -991 0
122 -680 -889 0
732 929 1000 0
-756 -982 1031 0
-246 -480 -669 0
217 415 1009 0
-233 -375 -393 0
-186 194 -353 0
443 874 -997 0
165 -833 895 0
158 450 -661 0
276 -602 -868 0
-622 -750 930 0
126 730 -936 0
-596 -944 966 0
-687 -765 957 0
290 594 -906 0
394 641 782 0
-294 -735 963 0
379 454 768 0
648 800 -1006 0
-162 -221 725 0
-432 -533 1009 0
-403 -750 926 0
-437 -704 1017 0
-582 -783 -832 0
-79 835 -969 0
434 -500 619 0
-83 -304 492 0
90 432 605 0
488 -612 784 0
-273 -391 700 0
-109 182 -406 0
79 -225 1025 0
-316 -807 922 0
-548 668 880 0
-174 698 876 0
342 545 612 0
191 204 764 0
-543 544 838 0
400 475 980 0
-317 828 -910 0
341 461 867 0
-483 -499 -794 0
440 472 721 0
162 -753 -846 0
271 483 -791 0
253 352 703 0
204 348 -905 0
-398 -399 777 0
277 532 -976 0
-285 440 683 0
-465 -725 -895 0
-212 -754 -915 0
-434 -602 945 0
86 -647 -964 0
-376 481 -485 0
-152 155 -449 0
-553 651 -825 0
-107 -358 -570 0
319 -335 -1018 0
101 219 -356 0
-121 -732 -989 0
285 340 -1027 0
-156 708 -1032 0
-231 -373 483 0
-493 -509 -993 0
132 -301 451 0
-335 -414 -673 0
-359 603 -800 0
-145 -451 -971 0
361 535 787 0
248 -527 -721 0
94 483 694 0
421 663 -732 0
-259 550 -793 0
436 820 -851 0
279 -835 -1024 0
-201 266 -711 0
187 -221 857 0
399 -468 -507 0
-469 -730 -753 0
259 391 -946 0
434 601 -656 0
-329 705 -992 0
-558 721 -859 0
324 -736 -932 0
504 844 968 0
-153 -614 856 0
236 -507 797 0
-369 -672 826 0
-355 772 827 0
-409 512 -708 0
369 -483 980 0
-501 747 877 0
87 -542 573 0
-350 -402 557 0
-176 403 -841 0
-307 -568 -850 0
390 -895 -992 0
-760 -796 909 0
193 479 756 0
-262 -767 -849 0
543 -639 -650 0
265 -379 549 0
-417 816 -912 0
931 -968 989 0
-214 755 927 0
-323 -364 941 0
716 -768 977 0
-404 625 793 0
188 382 -758 0
-91 163 -752 0
-266 585 -643 0
547 936 -1013 0
351 774 784 0
299 -654 704 0
488 -675 -905 0
-105 -222 -442 0
-457 -688 1014 0
326 456 -770 0
-247 -682 1034 0
297 -625 688 0
-846 -922 933 0
-189 -683 -1011 0
-253 -474 -766 0
-93 -415 626 0
93 -424 974 0
-741 -843 907 0
-157 -372 787 0
82 247 -502 0
-107 -349 -631 0
-126 -606 967 0
92 -573 -715 0
-269 442 967 0
98 204 -251 0
325 -763 799 0
-311 -521 -774 0
-464 644 -832 0
488 522 591 0
149 577 751 0
-359 375 408 0
154 -522 -740 0
-597 663 847 0
-305 716 1004 0
-325 -497 -533 0
182 -204 703 0
-258 453 729 0
-269 -759 799 0
324 592 673 0
-132 709 1030 0
720 -985 -1008 0
94 -231 389 0
-366 -377 968 0
-331 767 -1020 0
339 -363 -894 0
-291 585 717 0
-449 545 -897 0
227 -362 582 0
-226 -617 -931 0
296 -523 -577 0
541 -597 728 0
-391 523 720 0
-638 680 -792 0
-507 626 -911 0
-599 -926 981 0
-363 572 -647 0
-204 645 921 0
584 716 -837 0
621 -933 1004 0
-139 738 946 0
176 328 -537 0
-240 804 846 0
644 844 -916 0
322 -654 987 0
289 -301 -678 0
-515 853 1040 0
187 -623 -934 0
226 507 541 0
133 330 -637 0
204 -675 724 0
-145 -995 1024 0
-415 481 891 0
-206 394 556 0
79 832 954 0
-126 233 -1023 0
-747 894 -932 0
160 -593 -844 0
240 329 736 0
348 761 1032 0
592 -849 -1013 0
-166 -487 718 0
-718 830 -880 0
549 613 821 0
-335 -350 803 0
-190 750 -992 0
103 -313 688 0
-505 -703 -704 0
92 437 -800 0
336 -428 773 0
90 187 761 0
80 422 816 0
-417 607 827 0
238 -300 -405 0
-200 217 -875 0
-815 921 1039 0
211 533 688 0
-417 -474 -736 0
480 855 -872 0
105 -404 -484 0
-141 263 629 0
-112 -212 -652 0
-257 630 707 0
601 777 -891 0
-514 -619 992 0
-279 282 -495 0
-245 562 706 0
475 509 -712 0
395 432 621 0
348 -842 1007 0
260 -308 389 0
-598 635 916 0
-110 200 505 0
136 -344 -605 0
348 413 441 0
-183 -798 -863 0
-135 -544 -886 0
-359 688 -874 0
704 728 1017 0
-90 -240 718 0
190 -458 794 0
345 811 -1036 0
83 -242 877 0
-222 -756 -877 0
638 954 1032 0
488 -490 569 0
-271 -757 918 0
437 545 825 0
328 450 -951 0
-149 -153 456 0
-180 -540 -635 0
315 -541 701 0
-184 -422 764 0
150 282 -338 0
-491 551 932 0
311 -547 938 0
202 -743 1024 0
-328 584 905 0
-481 556 -922 0
-97 429 -702 0
-392 1014 -1023 0
-215 224 -978 0
119 563 -595 0
507 -845 -986 0
-185 495 -589 0
-279 -361 -721 0
734 881 -1027 0
330 434 1022 0
-499 -927 953 0
267 677 875 0
389 427 834 0
-259 -606 965 0
473 678 839 0
279 -486 1022 0
-134 189 -781 0
-283 -585 1033 0
-200 205 -810 0
-158 533 -707 0
849 -960 -1025 0
434 549 809 0
-160 709 715 0
-170 -414 954 0
371 392 471 0
-606 641 1010 0
184 412 615 0
424 -653 -856 0
237 332 -517 0
-208 614 902 0
-320 500 -607 0
-417 709 985 0
560 -843 -846 0
238 761 915 0
653 702 -786 0
256 700 -847 0
-568 -687 879 0
-630 805 952 0
159 -247 537 0
-240 -401 954 0
-382 -428 437 0
-270 532 888 0
-549 866 903 0
229 -866 935 0
-472 -990 1024 0
174 -927 -1021 0
-113 378 -756 0
-121 610 -844 0
176 262 -964 0
419 -432 959 0
91 -590 1019 0
148 310 367 0
-592 -626 -666 0
-344 -404 -640 0
210 -776 989 0
248 -304 390 0
426 433 -982 0
587 -691 1016 0
261 -317 898 0
-268 -486 602 0
-578 627 -692 0
109 231 987 0
330 767 775 0
228 555 688 0
201 -699 721 0
123 170 -348 0
-371 -946 960 0
212 234 403 0
214 446 697 0
-613 -827 978 0
234 -315 -855 0
438 721 -775 0
-267 306 474 0
613 821 -955 0
114 -338 -645 0
-249 501 -754 0
240 -252 -343 0
568 899 906 0
-212 -416 932 0
174 -802 -927 0
454 902 -958 0
187 474 -930 0
-462 -509 579 0
-315 609 -772 0
157 259 428 0
-612 -805 971 0
271 469 -802 0
436 547 -610 0
-225 -358 674 0
568 710 -797 0
93 125 962 0
112 -626 -649 0
-204 -632 -1034 0
602 -784 915 0
-144 -740 1039 0
-568 612 671 0
425 -512 855 0
370 -526 822 0
-210 -769 973 0
211 842 936 0
-412 434 513 0
-692 758 1007 0
626 657 752 0
490 -527 546 0
269 633 715 0
-229 496 654 0
-589 780 795 0
-505 677 -750 0
252 -365 -420 0
271 685 715 0
-154 -279 -925 0
301 955 980 0
215 351 -997 0
316 -592 -737 0
-194 365 -823 0
201 -425 -646 0
-297 760 -909 0
332 -877 -924 0
106 512 -799 0
-465 -818 -1037 0
-723 829 938 0
614 852 -877 0
264 -655 857 0
-678 912 -929 0
630 853 -1033 0
-409 538 599 0
-551 -823 -1024 0
549 969 1017 0
-620 -631 686 0
-121 -238 -545 0
300 -515 574 0
478 821 980 0
-491 -947 970 0
-93 -288 905 0
293 -517 -783 0
226 -630 886 0
130 330 896 0
-133 -691 -959 0
-386 -441 561 0
-371 -558 -754 0
288 705 737 0
-110 365 -627 0
-297 -646 -991 0
109 427 813 0
113 560 918 0
85 -527 608 0
102 -717 -775 0
-423 729 883 0
-355 -384 489 0
652 675 -1024 0
-87 213 -769 0
205 -293 559 0
387 -498 -817 0
437 667 -973 0
398 456 472 0
467 771 935 0
101 228 589 0
-738 -822 977 0
-320 620 -957 0
-93 630 997 0
200 272 -683 0
-293 -598 859 0
-406 532 1009 0
-136 561 898 0
528 -670 808 0
446 -451 -834 0
-527 -803 -855 0
-295 -352 661 0
-99 -800 994 0
-188 -389 -625 0
-473 -547 -630 0
293 601 810 0
-85 -394 -996 0
-365 850 -867 0
-272 637 671 0
-276 -638 956 0
-137 197 -421 0
613 -735 968 0
119 231 -772 0
152 308 -422 0
197 -198 523 0
667 -752 -998 0
439 -506 974 0
-112 782 935 0
213 558 -730 0
-403 518 -627 0
-276 -349 -460 0
489 522 846 0
165 -487 677 0
-199 292 -949 0
166 -568 -696 0
-265 -436 513 0
399 -749 -918 0
378 -788 -883 0
82 -736 -899 0
510 840 937 0
168 275 -451 0
278 675 -738 0
190 767 995 0
-542 665 -842 0
381 -500 -550 0
-122 567 -618 0
330 429 -508 0
-163 407 1023 0
-424 -616 -980 0
-553 748 775 0
-207 438 459 0
-338 750 -957 0
524 -676 910 0
-653 -673 -946 0
-285 -754 -841 0
-249 330 469 0
-252 515 -838 0
90 121 -990 0
-541 582 -862 0
-111 -288 -1020 0
-142 -803 855 0
98 -810 846 0
-112 311 562 0
228 -988 999 0
-644 -779 -936 0
-662 793 826 0
163 771 830 0
-568 -911 -1015 0
-182 616 -1004 0
-261 411 -744 0
-441 -882 -1024 0
-219 271 -1026 0
200 -344 571 0
-713 -818 -872 0
-318 418 -988 0
-456 886 -964 0
329 -945 -1008 0
1017 1029 -1034 0
-231 301 -763 0
213 -612 -676 0
153 674 -676 0
714 916 -950 0
-332 491 765 0
696 -985 -998 0
-348 -362 692 0
-656 818 999 0
-258 773 -788 0
271 -294 -452 0
-321 662 730 0
325 -539 -863 0
-684 687 -1008 0
-456 499 -741 0
-316 551 556 0
615 -634 1037 0
123 -179 -220 0
-218 708 -811 0
128 -261 408 0
-172 173 -1008 0
319 592 853 0
-136 222 661 0
-286 -673 764 0
302 538 842 0
-129 -716 905 0
98 598 827 0
653 775 938 0
167 694 -855 0
-452 -770 -849 0
-197 206 952 0
243 -627 929 0
-290 477 745 0
-159 507 -714 0
370 776 -900 0
388 -647 -682 0
-370 -727 921 0
-249 -582 -843 0
-412 737 980 0
117 411 -721 0
-181 -429 778 0
172 264 876 0
-426 864 964 0
-228 -257 -948 0
326 -609 -705 0
-251 -390 737 0
120 588 960 0
-622 -961 963 0
-508 -711 -929 0
-192 755 -828 0
188 -349 562 0
-231 -587 922 0
460 -575 -598 0
-159 -669 -832 0
736 -823 885 0
211 -823 -910 0
671 -711 -721 0
-435 484 -885 0
-89 1011 -1028 0
638 -738 -1017 0
-386 -388 805 0
134 211 -944 0
336 754 -784 0
-252 -715 812 0
111 593 735 0
485 -590 -859 0
-283 321 764 0
113 817 -977 0
-262 672 963 0
-598 -753 852 0
-422 568 839 0
795 -986 996 0
-244 643 671 0
178 807 -819 0
754 -828 -904 0
126 -804 -968 0
-456 -975 -989 0
-645 -703 -707 0
848 -930 -1017 0
-93 -255 497 0
101 877 1027 0
217 -284 -836 0
-619 -744 -898 0
-288 587 -678 0
-681 779 -784 0
-295 -345 -478 0
106 399 -905 0
711 -740 803 0
212 498 -799 0
-187 453 -487 0
186 -454 855 0
-329 342 475 0
-620 -888 1010 0
-516 580 -659 0
79 327 -476 0
-207 -835 -858 0
-83 439 -634 0
273 467 -957 0
-457 -574 849 0
-586 -764 932 0
409 -561 881 0
244 964 985 0
493 -621 -965 0
296 -518 894 0
125 198 -1025 0
-320 -712 -934 0
-183 239 -776 0
-167 -412 564 0
180 564 -694 0
351 465 -940 0
288 -422 835 0
-596 -878 -1037 0
-334 775 1017 0
292 -511 834 0
239 266 304 0
577 -790 892 0
247 -458 -926 0
-696 722 1007 0
98 604 -924 0
378 -442 779 0
-86 273 359 0
-299 405 -556 0
177 -569 -1037 0
347 363 885 0
-834 870 939 0
276 378 -819 0
261 -364 611 0
-371 691 718 0
173 355 403 0
-177 -417 911 0
180 574 824 0
235 607 -794 0
-110 327 873 0
-607 -644 781 0
-83 -263 914 0
-357 -779 -784 0
-442 -517 680 0
-368 739 -997 0
705 -729 914 0
-226 -452 -892 0
348 -784 -947 0
263 620 741 0
-130 -699 -738 0
-361 549 758 0
-359 639 -696 0
320 -578 1016 0
438 856 946 0
91 165 546 0
-118 504 -1017 0
227 -805 1002 0
366 -557 -620 0
-492 532 829 0
-137 -252 474 0
-285 717 -829 0
-211 -426 450 0
138 875 -1034 0
223 238 -619 0
192 -425 831 0
275 511 700 0
88 -765 766 0
825 918 -957 0
-553 771 807 0
-120 530 683 0
-619 842 -888 0
199 -850 932 0
-195 -239 467 0
436 786 -862 0
-159 921 -991 0
-148 341 751 0
-322 -547 628 0
666 737 -908 0
-272 -523 927 0
264 -867 -994 0
141 -520 -521 0
-340 906 -1029 0
-275 -384 403 0
-110 261 -802 0
330 -870 -904 0
-274 -736 963 0
-580 730 -852 0
201 -427 -1018 0
-117 263 805 0
361 871 1022 0
98 -558 -758 0
-307 648 766 0
155 405 -421 0
296 -435 -489 0
304 -351 -666 0
84 912 953 0
-106 -656 908 0
-154 -328 874 0
737 -791 943 0
196 -312 -476 0
-478 -578 -714 0
203 211 -237 0
-397 -592 -694 0
225 645 -726 0
266 -478 694 0
198 624 -785 0
-216 443 760 0
284 580 832 0
415 449 455 0
151 -226 -782 0
-254 -408 685 0
240 -580 -744 0
126 -755 822 0
-239 392 -507 0
133 677 -974 0
-164 704 -984 0
-284 -491 -936 0
-236 -495 -980 0
-142 408 582 0
157 469 527 0
545 -654 899 0
262 358 -638 0
-122 291 394 0
-207 -348 926 0
154 637 873 0
198 402 971 0
-273 572 -989 0
657 -690 758 0
217 465 -932 0
-722 821 -992 0
363 -641 823 0
208 245 -720 0
-214 379 -441 0
354 696 -914 0
-292 313 836 0
288 -815 -945 0
183 -309 -1014 0
180 581 -882 0
85 135 480 0
186 -893 -913 0
523 616 918 0
-137 -362 -673 0
392 814 1003 0
512 -585 638 0
135 -267 -800 0
584 679 -856 0
-269 -755 -988 0
893 900 948 0
-420 796 -852 0
191 653 -684 0
225 898 1037 0
199 -383 -604 0
-322 388 -468 0
-296 -578 -817 0
364 -737 996 0
429 -728 -896 0
-357 701 -784 0
-315 622 747 0
222 512 1028 0
249 -563 674 0
-192 369 415 0
508 553 -662 0
-578 623 -747 0
207 -405 -991 0
-286 340 825 0
312 -946 999 0
341 591 840 0
-112 -732 -763 0
-186 -851 1031 0
-255 -391 972 0
247 595 645 0
370 -854 963 0
392 -535 -669 0
183 431 646 0
-88 501 -650 0
434 -596 -828 0
-537 641 -998 0
368 -425 -771 0
-410 -732 -961 0
-356 651 -986 0
376 484 -1006 0
335 -429 -862 0
174 326 369 0
831 844 -934 0
334 -750 -788 0
-375 -812 -887 0
-147 -269 899 0
431 977 -1017 0
358 -536 -809 0
-120 308 957 0
-333 -686 963 0
-204 559 -636 0
214 276 800 0
-127 -290 316 0
-515 -650 -831 0
-405 -860 931 0
-150 778 878 0
-151 -409 -754 0
-417 704 967 0
-224 -383 676 0
480 -661 -780 0
-198 -221 -369 0
480 621 914 0
217 -427 541 0
130 -153 -414 0
-117 564 -765 0
626 702 -965 0
-490 -628 906 0
-155 340 -776 0
404 996 1007 0
-347 479 -514 0
-362 -839 -848 0
-169 -468 -588 0
-751 966 1028 0
263 531 545 0
90 -263 -541 0
344 -432 752 0
-516 -690 1013 0
-803 837 -884 0
-623 -706 809 0
-666 683 -930 0
295 609 -906 0
295 -625 -668 0
-151 576 -660 0
-321 324 1034 0
344 -664 -957 0
114 -287 783 0
187 -611 -774 0
-195 -404 603 0
121 615 736 0
-532 -695 -894 0
294 -579 609 0
-455 460 -953 0
264 463 1016 0
-381 -452 -610 0
-668 760 -775 0
-267 -400 -720 0
128 321 787 0
-199 -799 -858 0
213 -489 -564 0
-426 642 880 0
161 -582 -640 0
-229 682 -1040 0
-113 444 -800 0
-231 269 681 0
-379 -706 911 0
-288 -337 -1002 0
-383 842 -880 0
-696 914 -1005 0
-361 -376 857 0
683 834 -898 0
-334 -479 -1024 0
352 -379 945 0
739 873 927 0
844 882 971 0
-404 -478 -591 0
-673 842 -918 0
-332 -410 -841 0
580 -752 856 0
-246 809 -973 0
707 732 981 0
-439 -464 -807 0
376 -721 -760 0
243 556 -674 0
-499 -814 935 0
85 -552 1033 0
-223 333 -993 0
-183 858 1021 0
-395 -460 557 0
268 -832 1002 0
-301 -431 787 0
419 -576 899 0
374 -832 1039 0
732 -733 -1024 0
-591 638 940 0
-435 -735 788 0
84 355 -559 0
-303 -541 798 0
-721 760 901 0
-158 -303 624 0
405 700 880 0
289 893 -907 0
228 359 -724 0
-113 -401 -984 0
512 553 727 0
405 452 -562 0
-211 -656 932 0
327 355 897 0
236 -400 609 0
136 431 822 0
-225 -481 -794 0
593 756 -883 0
151 662 -877 0
124 553 -628 0
236 319 -745 0
-96 662 713 0
427 -894 -924 0
-154 354 -513 0
-91 -93 -410 0
313 850 982 0
380 524 701 0
-613 -695 1031 0
147 722 990 0
131 -181 -942 0
361 -742 885 0
497 662 -758 0
-412 -699 -1008 0
-194 -442 -450 0
153 455 -733 0
-556 751 1025 0
226 -311 -787 0
-98 -521 -531 0
318 832 1022 0
510 -922 1011 0
-82 -346 683 0
313 468 692 0
-308 724 854 0
-170 350 -364 0
-645 695 -864 0
-167 924 -991 0
-601 770 899 0
-124 181 -770 0
-308 -568 678 0
106 -552 -751 0
180 -808 887 0
-177 414 -606 0
155 -171 857 0
-271 -313 937 0
414 511 641 0
-610 -614 752 0
-307 -642 944 0
160 -163 423 0
504 -952 -996 0
-607 -708 -997 0
285 630 981 0
-118 346 607 0
414 -668 832 0
909 1022 -1027 0
192 762 765 0
82 530 773 0
-382 -690 788 0
-250 -483 -1005 0
236 -465 567 0
-370 440 481 0
262 -724 971 0
273 -401 726 0
192 -456 628 0
241 -1013 1037 0
188 523 -871 0
598 692 918 0
192 764 781 0
113 -441 711 0
-826 906 -1033 0
-96 -106 -695 0
357 875 -1017 0
139 -151 984 0
183 914 -915 0
-190 -415 -555 0
-400 444 -802 0
-318 573 627 0
-387 693 908 0
391 861 -1029 0
-729 853 1014 0
-169 -914 -1011 0
-424 -524 -567 0
248 -873 -1007 0
466 729 -864 0
484 630 763 0
153 491 -981 0
-136 -150 -821 0
182 -768 -959 0
513 -670 -671 0
184 -417 572 0
394 492 -749 0
-187 -653 -685 0
281 294 296 0
276 526 -814 0
434 -496 -1005 0
97 -443 -479 0
-223 835 909 0
140 938 -950 0
-293 -824 916 0
-469 -647 660 0
-167 443 832 0
79 358 453 0
156 -701 -756 0
-812 929 -1015 0
-430 -636 -658 0
-134 751 -799 0
278 597 949 0
-126 -321 869 0
-281 -681 1025 0
-506 546 981 0
-100 -741 -834 0
128 -824 -941 0
181 757 914 0
-232 289 582 0
289 -318 687 0
-337 -752 950 0
-576 934 1003 0
-189 353 502 0
249 504 -999 0
-558 562 700 0
462 -754 -828 0
-202 229 -450 0
79 -359 -959 0
-446 -630 -930 0
-464 482 522 0
-301 -359 -921 0
-118 852 -980 0
-142 -372 -647 0
-177 -367 688 0
-873 898 -920 0
-161 365 1026 0
-233 341 525 0
-300 351 -591 0
499 798 937 0
453 -503 -650 0
-351 451 -1008 0
339 400 563 0
-389 -409 -825 0
184 -756 -1036 0
-136 234 -846 0
-101 130 -474 0
439 574 -687 0
-358 -584 632 0
-173 194 -263 0
294 -556 -598 0
-388 489 882 0
253 -486 901 0
144 259 261 0
-204 -525 653 0
-93 -941 -963 0
148 311 -770 0
426 623 -657 0
560 762 -905 0
216 -411 -904 0
187 -553 -912 0
83 -403 417 0
-839 847 -1019 0
83 -268 -702 0
-177 574 1015 0
-170 -284 -613 0
-620 837 -888 0
-713 -769 814 0
190 441 -901 0
-614 727 929 0
135 -309 453 0
-415 668 -866 0
-293 -307 1033 0
-428 596 855 0
-150 -381 -922 0
556 627 -777 0
-464 -600 -661 0
-353 -468 562 0
-615 616 -1034 0
398 414 -763 0
-486 982 1021 0
188 -517 -597 0
-285 477 664 0
162 551 -985 0
581 906 -956 0
-695 925 931 0
-318 557 590 0
316 -640 -649 0
143 -314 866 0
-242 551 -968 0
-232 -550 704 0
-369 604 -867 0
544 -712 827 0
-193 690 703 0
247 527 928 0
310 -456 -673 0
264 360 484 0
-600 1031 1037 0
-283 -704 -966 0
196 -579 614 0
220 440 -706 0
131 163 -438 0
-613 688 840 0
123 478 -489 0
99 -662 -794 0
-455 -559 719 0
149 197 529 0
232 -951 -1039 0
268 -883 -931 0
-251 -788 -1029 0
-171 -492 -705 0
-210 231 -434 0
154 -352 647 0
130 668 708 0
355 -833 875 0
98 427 -871 0
516 -643 -780 0
-189 -604 -651 0
-88 -513 -733 0
-240 -534 952 0
-417 847 878 0
-224 -636 794 0
-277 521 -645 0
-151 810 998 0
222 351 -950 0
-424 685 1007 0
350 683 -862 0
203 842 -923 0
607 765 -1016 0
107 -461 -753 0
-480 556 591 0
178 -745 -894 0
339 427 -455 0
-249 -642 934 0
813 832 991 0
-312 527 -583 0
149 -212 1014 0
756 -946 1038 0
189 587 -974 0
168 389 853 0
-193 -449 -530 0
193 -302 683 0
117 878 -914 0
-139 -170 813 0
-369 -504 -812 0
-197 233 526 0
117 -162 -227 0
-235 -373 -849 0
453 541 799 0
189 -744 -889 0
-640 831 -1025 0
-109 321 -616 0
-193 -207 765 0
-97 -355 663 0
-116 350 -655 0
230 -312 531 0
302 580 878 0
558 1017 1040 0
-158 -297 -732 0
88 380 741 0
-666 -676 -970 0
388 -437 -714 0
341 666 -685 0
376 756 -912 0
-98 -244 -603 0
310 915 -1031 0
-116 -329 -658 0
106 -251 263 0
468 571 943 0
157 -387 -752 0
-131 -468 733 0
-282 361 581 0
208 -252 527 0
119 142 1008 0
79 -105 513 0
-614 -625 -962 0
484 -646 -1022 0
449 -611 -991 0
133 194 478 0
116 -146 267 0
-94 783 -875 0
-140 -523 1012 0
-401 -539 744 0
-555 -684 -982 0
362 578 -602 0
125 406 -970 0
-412 -418 -966 0
-404 -514 -707 0
-607 638 797 0
-123 221 769 0
-184 708 -934 0
115 425 -586 0
-91 985 -987 0
-92 113 -330 0
106 -835 1013 0
-321 -346 530 0
-572 -633 -752 0
-261 522 978 0
-315 -751 -801 0
733 -899 1029 0
-195 -263 -990 0
-149 -644 -942 0
-79 -605 633 0
613 -734 1014 0
202 578 -622 0
189 -210 521 0
477 -608 -803 0
277 441 -779 0
172 382 637 0
-771 -855 990 0
404 620 732 0
-277 317 -459 0
499 -589 -611 0
-688 -716 -948 0
-204 495 793 0
-101 -412 -436 0
86 -90 497 0
-296 -347 -597 0
-243 -574 -866 0
-338 -369 643 0
-195 995 -1039 0
-176 374 -760 0
101 -343 -630 0
406 -793 799 0
583 -610 1021 0
-440 720 -763 0
-278 508 -1036 0
563 -624 654 0
-89 -359 -878 0
-384 -515 854 0
262 -408 564 0
-168 625 866 0
-226 -507 -693 0
178 490 870 0
574 -863 -1038 0
-687 717 -847 0
280 -414 697 0
-114 147 260 0
540 555 722 0
-81 -576 -665 0
-83 667 980 0
165 -457 1009 0
-605 620 696 0
-937 -957 -1008 0
482 -601 825 0
-544 -605 856 0
-277 -351 650 0
550 -640 969 0
-264 -475 -965 0
-173 914 965 0
160 428 843 0
-474 677 795 0
665 759 766 0
698 -852 1038 0
304 520 892 0
-117 -135 409 0
-82 -144 -714 0
131 356 -646 0
-158 398 -445 0
194 212 426 0
-199 494 -995 0
446 843 871 0
143 -291 472 0
-595 -614 878 0
488 923 -959 0
221 -427 617 0
-293 349 453 0
-612 734 894 0
-428 707 883 0
-414 -580 594 0
83 -378 -491 0
110 271 -577 0
489 -956 985 0
449 558 -653 0
-371 -537 -734 0
186 -462 -886 0
157 -199 -259 0
-770 -781 -803 0
79 289 -878 0
-218 717 -733 0
503 707 916 0
-126 625 -1006 0
-264 381 887 0
-153 -316 1008 0
536 783 904 0
260 -447 -822 0
202 372 619 0
-82 170 435 0
235 692 -1016 0
-284 440 555 0
-489 -723 951 0
262 443 -569 0
-418 424 -1040 0
-436 -599 -756 0
-546 610 776 0
-255 -407 -915 0
153 167 -965 0
-224 -479 824 0
-425 -956 -1034 0
-352 -537 -885 0
129 -423 -861 0
-381 860 -1026 0
136 -740 -916 0
-270 -658 -892 0
-86 234 485 0
-590 755 779 0
-435 863 962 0
600 -665 -718 0
175 -462 481 0
-358 763 -1036 0
-208 416 -883 0
158 281 943 0
414 472 575 0
449 751 -848 0
-295 572 -990 0
-362 -580 880 0
-251 366 -1027 0
215 540 1013 0
-188 -536 -728 0
-558 -582 -649 0
745 -747 990 0
-631 912 1033 0
-176 -541 873 0
-501 721 -969 0
-208 -225 -968 0
370 -683 986 0
101 218 580 0
-431 -437 743 0
-255 -301 926 0
-183 -599 -993 0
773 -852 -919 0
-258 -414 560 0
103 432 -950 0
-130 842 -896 0
302 438 -666 0
271 -306 1017 0
168 206 -727 0
402 -403 -444 0
393 -633 957 0
-80 -342 -553 0
-327 -508 -679 0
-189 824 -825 0
-368 402 1032 0
107 -195 923 0
-327 -473 792 0
425 -617 724 0
-207 -630 -812 0
-135 -784 -819 0
-149 -214 -227 0
102 277 -536 0
-182 -297 -312 0
443 536 1012 0
202 -289 -1002 0
-183 -581 -988 0
193 -540 -570 0
596 -677 759 0
-293 541 -777 0
-300 -446 554 0
154 868 -1001 0
-335 624 782 0
-368 -583 -603 0
141 -389 758 0
-143 -328 464 0
641 760 904 0
-696 748 -801 0
305 364 -602 0
405 -666 -1003 0
-326 -350 -485 0
-351 402 1040 0
313 -632 -887 0
336 551 -749 0
-287 288 319 0
566 880 -884 0
-716 907 -942 0
-458 674 -695 0
