c Phase 3 generated performance instance
c family=capacity2_violation
c scale=7
c variant=tune
c noise_percent=100
c expected=UNSATISFIABLE
p cnf 1863 7030
-1 -2 0
-1 -3 0
-1 -4 0
-1 -5 0
-1 -6 0
-1 -7 0
-2 -3 0
-2 -4 0
-2 -5 0
-2 -6 0
-2 -7 0
-3 -4 0
-3 -5 0
-3 -6 0
-3 -7 0
-4 -5 0
-4 -6 0
-4 -7 0
-5 -6 0
-5 -7 0
-6 -7 0
1 2 3 4 5 6 7 0
-8 -9 0
-8 -10 0
-8 -11 0
-8 -12 0
-8 -13 0
-8 -14 0
-9 -10 0
-9 -11 0
-9 -12 0
-9 -13 0
-9 -14 0
-10 -11 0
-10 -12 0
-10 -13 0
-10 -14 0
-11 -12 0
-11 -13 0
-11 -14 0
-12 -13 0
-12 -14 0
-13 -14 0
8 9 10 11 12 13 14 0
-15 -16 0
-15 -17 0
-15 -18 0
-15 -19 0
-15 -20 0
-15 -21 0
-16 -17 0
-16 -18 0
-16 -19 0
-16 -20 0
-16 -21 0
-17 -18 0
-17 -19 0
-17 -20 0
-17 -21 0
-18 -19 0
-18 -20 0
-18 -21 0
-19 -20 0
-19 -21 0
-20 -21 0
15 16 17 18 19 20 21 0
-22 -23 0
-22 -24 0
-22 -25 0
-22 -26 0
-22 -27 0
-22 -28 0
-23 -24 0
-23 -25 0
-23 -26 0
-23 -27 0
-23 -28 0
-24 -25 0
-24 -26 0
-24 -27 0
-24 -28 0
-25 -26 0
-25 -27 0
-25 -28 0
-26 -27 0
-26 -28 0
-27 -28 0
22 23 24 25 26 27 28 0
-29 -30 0
-29 -31 0
-29 -32 0
-29 -33 0
-29 -34 0
-29 -35 0
-30 -31 0
-30 -32 0
-30 -33 0
-30 -34 0
-30 -35 0
-31 -32 0
-31 -33 0
-31 -34 0
-31 -35 0
-32 -33 0
-32 -34 0
-32 -35 0
-33 -34 0
-33 -35 0
-34 -35 0
29 30 31 32 33 34 35 0
-36 -37 0
-36 -38 0
-36 -39 0
-36 -40 0
-36 -41 0
-36 -42 0
-37 -38 0
-37 -39 0
-37 -40 0
-37 -41 0
-37 -42 0
-38 -39 0
-38 -40 0
-38 -41 0
-38 -42 0
-39 -40 0
-39 -41 0
-39 -42 0
-40 -41 0
-40 -42 0
-41 -42 0
36 37 38 39 40 41 42 0
-43 -44 0
-43 -45 0
-43 -46 0
-43 -47 0
-43 -48 0
-43 -49 0
-44 -45 0
-44 -46 0
-44 -47 0
-44 -48 0
-44 -49 0
-45 -46 0
-45 -47 0
-45 -48 0
-45 -49 0
-46 -47 0
-46 -48 0
-46 -49 0
-47 -48 0
-47 -49 0
-48 -49 0
43 44 45 46 47 48 49 0
-50 -51 0
-50 -52 0
-50 -53 0
-50 -54 0
-50 -55 0
-50 -56 0
-51 -52 0
-51 -53 0
-51 -54 0
-51 -55 0
-51 -56 0
-52 -53 0
-52 -54 0
-52 -55 0
-52 -56 0
-53 -54 0
-53 -55 0
-53 -56 0
-54 -55 0
-54 -56 0
-55 -56 0
50 51 52 53 54 55 56 0
-57 -58 0
-57 -59 0
-57 -60 0
-57 -61 0
-57 -62 0
-57 -63 0
-58 -59 0
-58 -60 0
-58 -61 0
-58 -62 0
-58 -63 0
-59 -60 0
-59 -61 0
-59 -62 0
-59 -63 0
-60 -61 0
-60 -62 0
-60 -63 0
-61 -62 0
-61 -63 0
-62 -63 0
57 58 59 60 61 62 63 0
-64 -65 0
-64 -66 0
-64 -67 0
-64 -68 0
-64 -69 0
-64 -70 0
-65 -66 0
-65 -67 0
-65 -68 0
-65 -69 0
-65 -70 0
-66 -67 0
-66 -68 0
-66 -69 0
-66 -70 0
-67 -68 0
-67 -69 0
-67 -70 0
-68 -69 0
-68 -70 0
-69 -70 0
64 65 66 67 68 69 70 0
-71 -72 0
-71 -73 0
-71 -74 0
-71 -75 0
-71 -76 0
-71 -77 0
-72 -73 0
-72 -74 0
-72 -75 0
-72 -76 0
-72 -77 0
-73 -74 0
-73 -75 0
-73 -76 0
-73 -77 0
-74 -75 0
-74 -76 0
-74 -77 0
-75 -76 0
-75 -77 0
-76 -77 0
71 72 73 74 75 76 77 0
-78 -79 0
-78 -80 0
-78 -81 0
-78 -82 0
-78 -83 0
-78 -84 0
-79 -80 0
-79 -81 0
-79 -82 0
-79 -83 0
-79 -84 0
-80 -81 0
-80 -82 0
-80 -83 0
-80 -84 0
-81 -82 0
-81 -83 0
-81 -84 0
-82 -83 0
-82 -84 0
-83 -84 0
78 79 80 81 82 83 84 0
-85 -86 0
-85 -87 0
-85 -88 0
-85 -89 0
-85 -90 0
-85 -91 0
-86 -87 0
-86 -88 0
-86 -89 0
-86 -90 0
-86 -91 0
-87 -88 0
-87 -89 0
-87 -90 0
-87 -91 0
-88 -89 0
-88 -90 0
-88 -91 0
-89 -90 0
-89 -91 0
-90 -91 0
85 86 87 88 89 90 91 0
-92 -93 0
-92 -94 0
-92 -95 0
-92 -96 0
-92 -97 0
-92 -98 0
-93 -94 0
-93 -95 0
-93 -96 0
-93 -97 0
-93 -98 0
-94 -95 0
-94 -96 0
-94 -97 0
-94 -98 0
-95 -96 0
-95 -97 0
-95 -98 0
-96 -97 0
-96 -98 0
-97 -98 0
92 93 94 95 96 97 98 0
-99 -100 0
-99 -101 0
-99 -102 0
-99 -103 0
-99 -104 0
-99 -105 0
-100 -101 0
-100 -102 0
-100 -103 0
-100 -104 0
-100 -105 0
-101 -102 0
-101 -103 0
-101 -104 0
-101 -105 0
-102 -103 0
-102 -104 0
-102 -105 0
-103 -104 0
-103 -105 0
-104 -105 0
99 100 101 102 103 104 105 0
-1 -8 -15 0
-1 -8 -22 0
-1 -8 -29 0
-1 -8 -36 0
-1 -8 -43 0
-1 -8 -50 0
-1 -8 -57 0
-1 -8 -64 0
-1 -8 -71 0
-1 -8 -78 0
-1 -8 -85 0
-1 -8 -92 0
-1 -8 -99 0
-1 -15 -22 0
-1 -15 -29 0
-1 -15 -36 0
-1 -15 -43 0
-1 -15 -50 0
-1 -15 -57 0
-1 -15 -64 0
-1 -15 -71 0
-1 -15 -78 0
-1 -15 -85 0
-1 -15 -92 0
-1 -15 -99 0
-1 -22 -29 0
-1 -22 -36 0
-1 -22 -43 0
-1 -22 -50 0
-1 -22 -57 0
-1 -22 -64 0
-1 -22 -71 0
-1 -22 -78 0
-1 -22 -85 0
-1 -22 -92 0
-1 -22 -99 0
-1 -29 -36 0
-1 -29 -43 0
-1 -29 -50 0
-1 -29 -57 0
-1 -29 -64 0
-1 -29 -71 0
-1 -29 -78 0
-1 -29 -85 0
-1 -29 -92 0
-1 -29 -99 0
-1 -36 -43 0
-1 -36 -50 0
-1 -36 -57 0
-1 -36 -64 0
-1 -36 -71 0
-1 -36 -78 0
-1 -36 -85 0
-1 -36 -92 0
-1 -36 -99 0
-1 -43 -50 0
-1 -43 -57 0
-1 -43 -64 0
-1 -43 -71 0
-1 -43 -78 0
-1 -43 -85 0
-1 -43 -92 0
-1 -43 -99 0
-1 -50 -57 0
-1 -50 -64 0
-1 -50 -71 0
-1 -50 -78 0
-1 -50 -85 0
-1 -50 -92 0
-1 -50 -99 0
-1 -57 -64 0
-1 -57 -71 0
-1 -57 -78 0
-1 -57 -85 0
-1 -57 -92 0
-1 -57 -99 0
-1 -64 -71 0
-1 -64 -78 0
-1 -64 -85 0
-1 -64 -92 0
-1 -64 -99 0
-1 -71 -78 0
-1 -71 -85 0
-1 -71 -92 0
-1 -71 -99 0
-1 -78 -85 0
-1 -78 -92 0
-1 -78 -99 0
-1 -85 -92 0
-1 -85 -99 0
-1 -92 -99 0
-8 -15 -22 0
-8 -15 -29 0
-8 -15 -36 0
-8 -15 -43 0
-8 -15 -50 0
-8 -15 -57 0
-8 -15 -64 0
-8 -15 -71 0
-8 -15 -78 0
-8 -15 -85 0
-8 -15 -92 0
-8 -15 -99 0
-8 -22 -29 0
-8 -22 -36 0
-8 -22 -43 0
-8 -22 -50 0
-8 -22 -57 0
-8 -22 -64 0
-8 -22 -71 0
-8 -22 -78 0
-8 -22 -85 0
-8 -22 -92 0
-8 -22 -99 0
-8 -29 -36 0
-8 -29 -43 0
-8 -29 -50 0
-8 -29 -57 0
-8 -29 -64 0
-8 -29 -71 0
-8 -29 -78 0
-8 -29 -85 0
-8 -29 -92 0
-8 -29 -99 0
-8 -36 -43 0
-8 -36 -50 0
-8 -36 -57 0
-8 -36 -64 0
-8 -36 -71 0
-8 -36 -78 0
-8 -36 -85 0
-8 -36 -92 0
-8 -36 -99 0
-8 -43 -50 0
-8 -43 -57 0
-8 -43 -64 0
-8 -43 -71 0
-8 -43 -78 0
-8 -43 -85 0
-8 -43 -92 0
-8 -43 -99 0
-8 -50 -57 0
-8 -50 -64 0
-8 -50 -71 0
-8 -50 -78 0
-8 -50 -85 0
-8 -50 -92 0
-8 -50 -99 0
-8 -57 -64 0
-8 -57 -71 0
-8 -57 -78 0
-8 -57 -85 0
-8 -57 -92 0
-8 -57 -99 0
-8 -64 -71 0
-8 -64 -78 0
-8 -64 -85 0
-8 -64 -92 0
-8 -64 -99 0
-8 -71 -78 0
-8 -71 -85 0
-8 -71 -92 0
-8 -71 -99 0
-8 -78 -85 0
-8 -78 -92 0
-8 -78 -99 0
-8 -85 -92 0
-8 -85 -99 0
-8 -92 -99 0
-15 -22 -29 0
-15 -22 -36 0
-15 -22 -43 0
-15 -22 -50 0
-15 -22 -57 0
-15 -22 -64 0
-15 -22 -71 0
-15 -22 -78 0
-15 -22 -85 0
-15 -22 -92 0
-15 -22 -99 0
-15 -29 -36 0
-15 -29 -43 0
-15 -29 -50 0
-15 -29 -57 0
-15 -29 -64 0
-15 -29 -71 0
-15 -29 -78 0
-15 -29 -85 0
-15 -29 -92 0
-15 -29 -99 0
-15 -36 -43 0
-15 -36 -50 0
-15 -36 -57 0
-15 -36 -64 0
-15 -36 -71 0
-15 -36 -78 0
-15 -36 -85 0
-15 -36 -92 0
-15 -36 -99 0
-15 -43 -50 0
-15 -43 -57 0
-15 -43 -64 0
-15 -43 -71 0
-15 -43 -78 0
-15 -43 -85 0
-15 -43 -92 0
-15 -43 -99 0
-15 -50 -57 0
-15 -50 -64 0
-15 -50 -71 0
-15 -50 -78 0
-15 -50 -85 0
-15 -50 -92 0
-15 -50 -99 0
-15 -57 -64 0
-15 -57 -71 0
-15 -57 -78 0
-15 -57 -85 0
-15 -57 -92 0
-15 -57 -99 0
-15 -64 -71 0
-15 -64 -78 0
-15 -64 -85 0
-15 -64 -92 0
-15 -64 -99 0
-15 -71 -78 0
-15 -71 -85 0
-15 -71 -92 0
-15 -71 -99 0
-15 -78 -85 0
-15 -78 -92 0
-15 -78 -99 0
-15 -85 -92 0
-15 -85 -99 0
-15 -92 -99 0
-22 -29 -36 0
-22 -29 -43 0
-22 -29 -50 0
-22 -29 -57 0
-22 -29 -64 0
-22 -29 -71 0
-22 -29 -78 0
-22 -29 -85 0
-22 -29 -92 0
-22 -29 -99 0
-22 -36 -43 0
-22 -36 -50 0
-22 -36 -57 0
-22 -36 -64 0
-22 -36 -71 0
-22 -36 -78 0
-22 -36 -85 0
-22 -36 -92 0
-22 -36 -99 0
-22 -43 -50 0
-22 -43 -57 0
-22 -43 -64 0
-22 -43 -71 0
-22 -43 -78 0
-22 -43 -85 0
-22 -43 -92 0
-22 -43 -99 0
-22 -50 -57 0
-22 -50 -64 0
-22 -50 -71 0
-22 -50 -78 0
-22 -50 -85 0
-22 -50 -92 0
-22 -50 -99 0
-22 -57 -64 0
-22 -57 -71 0
-22 -57 -78 0
-22 -57 -85 0
-22 -57 -92 0
-22 -57 -99 0
-22 -64 -71 0
-22 -64 -78 0
-22 -64 -85 0
-22 -64 -92 0
-22 -64 -99 0
-22 -71 -78 0
-22 -71 -85 0
-22 -71 -92 0
-22 -71 -99 0
-22 -78 -85 0
-22 -78 -92 0
-22 -78 -99 0
-22 -85 -92 0
-22 -85 -99 0
-22 -92 -99 0
-29 -36 -43 0
-29 -36 -50 0
-29 -36 -57 0
-29 -36 -64 0
-29 -36 -71 0
-29 -36 -78 0
-29 -36 -85 0
-29 -36 -92 0
-29 -36 -99 0
-29 -43 -50 0
-29 -43 -57 0
-29 -43 -64 0
-29 -43 -71 0
-29 -43 -78 0
-29 -43 -85 0
-29 -43 -92 0
-29 -43 -99 0
-29 -50 -57 0
-29 -50 -64 0
-29 -50 -71 0
-29 -50 -78 0
-29 -50 -85 0
-29 -50 -92 0
-29 -50 -99 0
-29 -57 -64 0
-29 -57 -71 0
-29 -57 -78 0
-29 -57 -85 0
-29 -57 -92 0
-29 -57 -99 0
-29 -64 -71 0
-29 -64 -78 0
-29 -64 -85 0
-29 -64 -92 0
-29 -64 -99 0
-29 -71 -78 0
-29 -71 -85 0
-29 -71 -92 0
-29 -71 -99 0
-29 -78 -85 0
-29 -78 -92 0
-29 -78 -99 0
-29 -85 -92 0
-29 -85 -99 0
-29 -92 -99 0
-36 -43 -50 0
-36 -43 -57 0
-36 -43 -64 0
-36 -43 -71 0
-36 -43 -78 0
-36 -43 -85 0
-36 -43 -92 0
-36 -43 -99 0
-36 -50 -57 0
-36 -50 -64 0
-36 -50 -71 0
-36 -50 -78 0
-36 -50 -85 0
-36 -50 -92 0
-36 -50 -99 0
-36 -57 -64 0
-36 -57 -71 0
-36 -57 -78 0
-36 -57 -85 0
-36 -57 -92 0
-36 -57 -99 0
-36 -64 -71 0
-36 -64 -78 0
-36 -64 -85 0
-36 -64 -92 0
-36 -64 -99 0
-36 -71 -78 0
-36 -71 -85 0
-36 -71 -92 0
-36 -71 -99 0
-36 -78 -85 0
-36 -78 -92 0
-36 -78 -99 0
-36 -85 -92 0
-36 -85 -99 0
-36 -92 -99 0
-43 -50 -57 0
-43 -50 -64 0
-43 -50 -71 0
-43 -50 -78 0
-43 -50 -85 0
-43 -50 -92 0
-43 -50 -99 0
-43 -57 -64 0
-43 -57 -71 0
-43 -57 -78 0
-43 -57 -85 0
-43 -57 -92 0
-43 -57 -99 0
-43 -64 -71 0
-43 -64 -78 0
-43 -64 -85 0
-43 -64 -92 0
-43 -64 -99 0
-43 -71 -78 0
-43 -71 -85 0
-43 -71 -92 0
-43 -71 -99 0
-43 -78 -85 0
-43 -78 -92 0
-43 -78 -99 0
-43 -85 -92 0
-43 -85 -99 0
-43 -92 -99 0
-50 -57 -64 0
-50 -57 -71 0
-50 -57 -78 0
-50 -57 -85 0
-50 -57 -92 0
-50 -57 -99 0
-50 -64 -71 0
-50 -64 -78 0
-50 -64 -85 0
-50 -64 -92 0
-50 -64 -99 0
-50 -71 -78 0
-50 -71 -85 0
-50 -71 -92 0
-50 -71 -99 0
-50 -78 -85 0
-50 -78 -92 0
-50 -78 -99 0
-50 -85 -92 0
-50 -85 -99 0
-50 -92 -99 0
-57 -64 -71 0
-57 -64 -78 0
-57 -64 -85 0
-57 -64 -92 0
-57 -64 -99 0
-57 -71 -78 0
-57 -71 -85 0
-57 -71 -92 0
-57 -71 -99 0
-57 -78 -85 0
-57 -78 -92 0
-57 -78 -99 0
-57 -85 -92 0
-57 -85 -99 0
-57 -92 -99 0
-64 -71 -78 0
-64 -71 -85 0
-64 -71 -92 0
-64 -71 -99 0
-64 -78 -85 0
-64 -78 -92 0
-64 -78 -99 0
-64 -85 -92 0
-64 -85 -99 0
-64 -92 -99 0
-71 -78 -85 0
-71 -78 -92 0
-71 -78 -99 0
-71 -85 -92 0
-71 -85 -99 0
-71 -92 -99 0
-78 -85 -92 0
-78 -85 -99 0
-78 -92 -99 0
-85 -92 -99 0
-2 -9 -16 0
-2 -9 -23 0
-2 -9 -30 0
-2 -9 -37 0
-2 -9 -44 0
-2 -9 -51 0
-2 -9 -58 0
-2 -9 -65 0
-2 -9 -72 0
-2 -9 -79 0
-2 -9 -86 0
-2 -9 -93 0
-2 -9 -100 0
-2 -16 -23 0
-2 -16 -30 0
-2 -16 -37 0
-2 -16 -44 0
-2 -16 -51 0
-2 -16 -58 0
-2 -16 -65 0
-2 -16 -72 0
-2 -16 -79 0
-2 -16 -86 0
-2 -16 -93 0
-2 -16 -100 0
-2 -23 -30 0
-2 -23 -37 0
-2 -23 -44 0
-2 -23 -51 0
-2 -23 -58 0
-2 -23 -65 0
-2 -23 -72 0
-2 -23 -79 0
-2 -23 -86 0
-2 -23 -93 0
-2 -23 -100 0
-2 -30 -37 0
-2 -30 -44 0
-2 -30 -51 0
-2 -30 -58 0
-2 -30 -65 0
-2 -30 -72 0
-2 -30 -79 0
-2 -30 -86 0
-2 -30 -93 0
-2 -30 -100 0
-2 -37 -44 0
-2 -37 -51 0
-2 -37 -58 0
-2 -37 -65 0
-2 -37 -72 0
-2 -37 -79 0
-2 -37 -86 0
-2 -37 -93 0
-2 -37 -100 0
-2 -44 -51 0
-2 -44 -58 0
-2 -44 -65 0
-2 -44 -72 0
-2 -44 -79 0
-2 -44 -86 0
-2 -44 -93 0
-2 -44 -100 0
-2 -51 -58 0
-2 -51 -65 0
-2 -51 -72 0
-2 -51 -79 0
-2 -51 -86 0
-2 -51 -93 0
-2 -51 -100 0
-2 -58 -65 0
-2 -58 -72 0
-2 -58 -79 0
-2 -58 -86 0
-2 -58 -93 0
-2 -58 -100 0
-2 -65 -72 0
-2 -65 -79 0
-2 -65 -86 0
-2 -65 -93 0
-2 -65 -100 0
-2 -72 -79 0
-2 -72 -86 0
-2 -72 -93 0
-2 -72 -100 0
-2 -79 -86 0
-2 -79 -93 0
-2 -79 -100 0
-2 -86 -93 0
-2 -86 -100 0
-2 -93 -100 0
-9 -16 -23 0
-9 -16 -30 0
-9 -16 -37 0
-9 -16 -44 0
-9 -16 -51 0
-9 -16 -58 0
-9 -16 -65 0
-9 -16 -72 0
-9 -16 -79 0
-9 -16 -86 0
-9 -16 -93 0
-9 -16 -100 0
-9 -23 -30 0
-9 -23 -37 0
-9 -23 -44 0
-9 -23 -51 0
-9 -23 -58 0
-9 -23 -65 0
-9 -23 -72 0
-9 -23 -79 0
-9 -23 -86 0
-9 -23 -93 0
-9 -23 -100 0
-9 -30 -37 0
-9 -30 -44 0
-9 -30 -51 0
-9 -30 -58 0
-9 -30 -65 0
-9 -30 -72 0
-9 -30 -79 0
-9 -30 -86 0
-9 -30 -93 0
-9 -30 -100 0
-9 -37 -44 0
-9 -37 -51 0
-9 -37 -58 0
-9 -37 -65 0
-9 -37 -72 0
-9 -37 -79 0
-9 -37 -86 0
-9 -37 -93 0
-9 -37 -100 0
-9 -44 -51 0
-9 -44 -58 0
-9 -44 -65 0
-9 -44 -72 0
-9 -44 -79 0
-9 -44 -86 0
-9 -44 -93 0
-9 -44 -100 0
-9 -51 -58 0
-9 -51 -65 0
-9 -51 -72 0
-9 -51 -79 0
-9 -51 -86 0
-9 -51 -93 0
-9 -51 -100 0
-9 -58 -65 0
-9 -58 -72 0
-9 -58 -79 0
-9 -58 -86 0
-9 -58 -93 0
-9 -58 -100 0
-9 -65 -72 0
-9 -65 -79 0
-9 -65 -86 0
-9 -65 -93 0
-9 -65 -100 0
-9 -72 -79 0
-9 -72 -86 0
-9 -72 -93 0
-9 -72 -100 0
-9 -79 -86 0
-9 -79 -93 0
-9 -79 -100 0
-9 -86 -93 0
-9 -86 -100 0
-9 -93 -100 0
-16 -23 -30 0
-16 -23 -37 0
-16 -23 -44 0
-16 -23 -51 0
-16 -23 -58 0
-16 -23 -65 0
-16 -23 -72 0
-16 -23 -79 0
-16 -23 -86 0
-16 -23 -93 0
-16 -23 -100 0
-16 -30 -37 0
-16 -30 -44 0
-16 -30 -51 0
-16 -30 -58 0
-16 -30 -65 0
-16 -30 -72 0
-16 -30 -79 0
-16 -30 -86 0
-16 -30 -93 0
-16 -30 -100 0
-16 -37 -44 0
-16 -37 -51 0
-16 -37 -58 0
-16 -37 -65 0
-16 -37 -72 0
-16 -37 -79 0
-16 -37 -86 0
-16 -37 -93 0
-16 -37 -100 0
-16 -44 -51 0
-16 -44 -58 0
-16 -44 -65 0
-16 -44 -72 0
-16 -44 -79 0
-16 -44 -86 0
-16 -44 -93 0
-16 -44 -100 0
-16 -51 -58 0
-16 -51 -65 0
-16 -51 -72 0
-16 -51 -79 0
-16 -51 -86 0
-16 -51 -93 0
-16 -51 -100 0
-16 -58 -65 0
-16 -58 -72 0
-16 -58 -79 0
-16 -58 -86 0
-16 -58 -93 0
-16 -58 -100 0
-16 -65 -72 0
-16 -65 -79 0
-16 -65 -86 0
-16 -65 -93 0
-16 -65 -100 0
-16 -72 -79 0
-16 -72 -86 0
-16 -72 -93 0
-16 -72 -100 0
-16 -79 -86 0
-16 -79 -93 0
-16 -79 -100 0
-16 -86 -93 0
-16 -86 -100 0
-16 -93 -100 0
-23 -30 -37 0
-23 -30 -44 0
-23 -30 -51 0
-23 -30 -58 0
-23 -30 -65 0
-23 -30 -72 0
-23 -30 -79 0
-23 -30 -86 0
-23 -30 -93 0
-23 -30 -100 0
-23 -37 -44 0
-23 -37 -51 0
-23 -37 -58 0
-23 -37 -65 0
-23 -37 -72 0
-23 -37 -79 0
-23 -37 -86 0
-23 -37 -93 0
-23 -37 -100 0
-23 -44 -51 0
-23 -44 -58 0
-23 -44 -65 0
-23 -44 -72 0
-23 -44 -79 0
-23 -44 -86 0
-23 -44 -93 0
-23 -44 -100 0
-23 -51 -58 0
-23 -51 -65 0
-23 -51 -72 0
-23 -51 -79 0
-23 -51 -86 0
-23 -51 -93 0
-23 -51 -100 0
-23 -58 -65 0
-23 -58 -72 0
-23 -58 -79 0
-23 -58 -86 0
-23 -58 -93 0
-23 -58 -100 0
-23 -65 -72 0
-23 -65 -79 0
-23 -65 -86 0
-23 -65 -93 0
-23 -65 -100 0
-23 -72 -79 0
-23 -72 -86 0
-23 -72 -93 0
-23 -72 -100 0
-23 -79 -86 0
-23 -79 -93 0
-23 -79 -100 0
-23 -86 -93 0
-23 -86 -100 0
-23 -93 -100 0
-30 -37 -44 0
-30 -37 -51 0
-30 -37 -58 0
-30 -37 -65 0
-30 -37 -72 0
-30 -37 -79 0
-30 -37 -86 0
-30 -37 -93 0
-30 -37 -100 0
-30 -44 -51 0
-30 -44 -58 0
-30 -44 -65 0
-30 -44 -72 0
-30 -44 -79 0
-30 -44 -86 0
-30 -44 -93 0
-30 -44 -100 0
-30 -51 -58 0
-30 -51 -65 0
-30 -51 -72 0
-30 -51 -79 0
-30 -51 -86 0
-30 -51 -93 0
-30 -51 -100 0
-30 -58 -65 0
-30 -58 -72 0
-30 -58 -79 0
-30 -58 -86 0
-30 -58 -93 0
-30 -58 -100 0
-30 -65 -72 0
-30 -65 -79 0
-30 -65 -86 0
-30 -65 -93 0
-30 -65 -100 0
-30 -72 -79 0
-30 -72 -86 0
-30 -72 -93 0
-30 -72 -100 0
-30 -79 -86 0
-30 -79 -93 0
-30 -79 -100 0
-30 -86 -93 0
-30 -86 -100 0
-30 -93 -100 0
-37 -44 -51 0
-37 -44 -58 0
-37 -44 -65 0
-37 -44 -72 0
-37 -44 -79 0
-37 -44 -86 0
-37 -44 -93 0
-37 -44 -100 0
-37 -51 -58 0
-37 -51 -65 0
-37 -51 -72 0
-37 -51 -79 0
-37 -51 -86 0
-37 -51 -93 0
-37 -51 -100 0
-37 -58 -65 0
-37 -58 -72 0
-37 -58 -79 0
-37 -58 -86 0
-37 -58 -93 0
-37 -58 -100 0
-37 -65 -72 0
-37 -65 -79 0
-37 -65 -86 0
-37 -65 -93 0
-37 -65 -100 0
-37 -72 -79 0
-37 -72 -86 0
-37 -72 -93 0
-37 -72 -100 0
-37 -79 -86 0
-37 -79 -93 0
-37 -79 -100 0
-37 -86 -93 0
-37 -86 -100 0
-37 -93 -100 0
-44 -51 -58 0
-44 -51 -65 0
-44 -51 -72 0
-44 -51 -79 0
-44 -51 -86 0
-44 -51 -93 0
-44 -51 -100 0
-44 -58 -65 0
-44 -58 -72 0
-44 -58 -79 0
-44 -58 -86 0
-44 -58 -93 0
-44 -58 -100 0
-44 -65 -72 0
-44 -65 -79 0
-44 -65 -86 0
-44 -65 -93 0
-44 -65 -100 0
-44 -72 -79 0
-44 -72 -86 0
-44 -72 -93 0
-44 -72 -100 0
-44 -79 -86 0
-44 -79 -93 0
-44 -79 -100 0
-44 -86 -93 0
-44 -86 -100 0
-44 -93 -100 0
-51 -58 -65 0
-51 -58 -72 0
-51 -58 -79 0
-51 -58 -86 0
-51 -58 -93 0
-51 -58 -100 0
-51 -65 -72 0
-51 -65 -79 0
-51 -65 -86 0
-51 -65 -93 0
-51 -65 -100 0
-51 -72 -79 0
-51 -72 -86 0
-51 -72 -93 0
-51 -72 -100 0
-51 -79 -86 0
-51 -79 -93 0
-51 -79 -100 0
-51 -86 -93 0
-51 -86 -100 0
-51 -93 -100 0
-58 -65 -72 0
-58 -65 -79 0
-58 -65 -86 0
-58 -65 -93 0
-58 -65 -100 0
-58 -72 -79 0
-58 -72 -86 0
-58 -72 -93 0
-58 -72 -100 0
-58 -79 -86 0
-58 -79 -93 0
-58 -79 -100 0
-58 -86 -93 0
-58 -86 -100 0
-58 -93 -100 0
-65 -72 -79 0
-65 -72 -86 0
-65 -72 -93 0
-65 -72 -100 0
-65 -79 -86 0
-65 -79 -93 0
-65 -79 -100 0
-65 -86 -93 0
-65 -86 -100 0
-65 -93 -100 0
-72 -79 -86 0
-72 -79 -93 0
-72 -79 -100 0
-72 -86 -93 0
-72 -86 -100 0
-72 -93 -100 0
-79 -86 -93 0
-79 -86 -100 0
-79 -93 -100 0
-86 -93 -100 0
-3 -10 -17 0
-3 -10 -24 0
-3 -10 -31 0
-3 -10 -38 0
-3 -10 -45 0
-3 -10 -52 0
-3 -10 -59 0
-3 -10 -66 0
-3 -10 -73 0
-3 -10 -80 0
-3 -10 -87 0
-3 -10 -94 0
-3 -10 -101 0
-3 -17 -24 0
-3 -17 -31 0
-3 -17 -38 0
-3 -17 -45 0
-3 -17 -52 0
-3 -17 -59 0
-3 -17 -66 0
-3 -17 -73 0
-3 -17 -80 0
-3 -17 -87 0
-3 -17 -94 0
-3 -17 -101 0
-3 -24 -31 0
-3 -24 -38 0
-3 -24 -45 0
-3 -24 -52 0
-3 -24 -59 0
-3 -24 -66 0
-3 -24 -73 0
-3 -24 -80 0
-3 -24 -87 0
-3 -24 -94 0
-3 -24 -101 0
-3 -31 -38 0
-3 -31 -45 0
-3 -31 -52 0
-3 -31 -59 0
-3 -31 -66 0
-3 -31 -73 0
-3 -31 -80 0
-3 -31 -87 0
-3 -31 -94 0
-3 -31 -101 0
-3 -38 -45 0
-3 -38 -52 0
-3 -38 -59 0
-3 -38 -66 0
-3 -38 -73 0
-3 -38 -80 0
-3 -38 -87 0
-3 -38 -94 0
-3 -38 -101 0
-3 -45 -52 0
-3 -45 -59 0
-3 -45 -66 0
-3 -45 -73 0
-3 -45 -80 0
-3 -45 -87 0
-3 -45 -94 0
-3 -45 -101 0
-3 -52 -59 0
-3 -52 -66 0
-3 -52 -73 0
-3 -52 -80 0
-3 -52 -87 0
-3 -52 -94 0
-3 -52 -101 0
-3 -59 -66 0
-3 -59 -73 0
-3 -59 -80 0
-3 -59 -87 0
-3 -59 -94 0
-3 -59 -101 0
-3 -66 -73 0
-3 -66 -80 0
-3 -66 -87 0
-3 -66 -94 0
-3 -66 -101 0
-3 -73 -80 0
-3 -73 -87 0
-3 -73 -94 0
-3 -73 -101 0
-3 -80 -87 0
-3 -80 -94 0
-3 -80 -101 0
-3 -87 -94 0
-3 -87 -101 0
-3 -94 -101 0
-10 -17 -24 0
-10 -17 -31 0
-10 -17 -38 0
-10 -17 -45 0
-10 -17 -52 0
-10 -17 -59 0
-10 -17 -66 0
-10 -17 -73 0
-10 -17 -80 0
-10 -17 -87 0
-10 -17 -94 0
-10 -17 -101 0
-10 -24 -31 0
-10 -24 -38 0
-10 -24 -45 0
-10 -24 -52 0
-10 -24 -59 0
-10 -24 -66 0
-10 -24 -73 0
-10 -24 -80 0
-10 -24 -87 0
-10 -24 -94 0
-10 -24 -101 0
-10 -31 -38 0
-10 -31 -45 0
-10 -31 -52 0
-10 -31 -59 0
-10 -31 -66 0
-10 -31 -73 0
-10 -31 -80 0
-10 -31 -87 0
-10 -31 -94 0
-10 -31 -101 0
-10 -38 -45 0
-10 -38 -52 0
-10 -38 -59 0
-10 -38 -66 0
-10 -38 -73 0
-10 -38 -80 0
-10 -38 -87 0
-10 -38 -94 0
-10 -38 -101 0
-10 -45 -52 0
-10 -45 -59 0
-10 -45 -66 0
-10 -45 -73 0
-10 -45 -80 0
-10 -45 -87 0
-10 -45 -94 0
-10 -45 -101 0
-10 -52 -59 0
-10 -52 -66 0
-10 -52 -73 0
-10 -52 -80 0
-10 -52 -87 0
-10 -52 -94 0
-10 -52 -101 0
-10 -59 -66 0
-10 -59 -73 0
-10 -59 -80 0
-10 -59 -87 0
-10 -59 -94 0
-10 -59 -101 0
-10 -66 -73 0
-10 -66 -80 0
-10 -66 -87 0
-10 -66 -94 0
-10 -66 -101 0
-10 -73 -80 0
-10 -73 -87 0
-10 -73 -94 0
-10 -73 -101 0
-10 -80 -87 0
-10 -80 -94 0
-10 -80 -101 0
-10 -87 -94 0
-10 -87 -101 0
-10 -94 -101 0
-17 -24 -31 0
-17 -24 -38 0
-17 -24 -45 0
-17 -24 -52 0
-17 -24 -59 0
-17 -24 -66 0
-17 -24 -73 0
-17 -24 -80 0
-17 -24 -87 0
-17 -24 -94 0
-17 -24 -101 0
-17 -31 -38 0
-17 -31 -45 0
-17 -31 -52 0
-17 -31 -59 0
-17 -31 -66 0
-17 -31 -73 0
-17 -31 -80 0
-17 -31 -87 0
-17 -31 -94 0
-17 -31 -101 0
-17 -38 -45 0
-17 -38 -52 0
-17 -38 -59 0
-17 -38 -66 0
-17 -38 -73 0
-17 -38 -80 0
-17 -38 -87 0
-17 -38 -94 0
-17 -38 -101 0
-17 -45 -52 0
-17 -45 -59 0
-17 -45 -66 0
-17 -45 -73 0
-17 -45 -80 0
-17 -45 -87 0
-17 -45 -94 0
-17 -45 -101 0
-17 -52 -59 0
-17 -52 -66 0
-17 -52 -73 0
-17 -52 -80 0
-17 -52 -87 0
-17 -52 -94 0
-17 -52 -101 0
-17 -59 -66 0
-17 -59 -73 0
-17 -59 -80 0
-17 -59 -87 0
-17 -59 -94 0
-17 -59 -101 0
-17 -66 -73 0
-17 -66 -80 0
-17 -66 -87 0
-17 -66 -94 0
-17 -66 -101 0
-17 -73 -80 0
-17 -73 -87 0
-17 -73 -94 0
-17 -73 -101 0
-17 -80 -87 0
-17 -80 -94 0
-17 -80 -101 0
-17 -87 -94 0
-17 -87 -101 0
-17 -94 -101 0
-24 -31 -38 0
-24 -31 -45 0
-24 -31 -52 0
-24 -31 -59 0
-24 -31 -66 0
-24 -31 -73 0
-24 -31 -80 0
-24 -31 -87 0
-24 -31 -94 0
-24 -31 -101 0
-24 -38 -45 0
-24 -38 -52 0
-24 -38 -59 0
-24 -38 -66 0
-24 -38 -73 0
-24 -38 -80 0
-24 -38 -87 0
-24 -38 -94 0
-24 -38 -101 0
-24 -45 -52 0
-24 -45 -59 0
-24 -45 -66 0
-24 -45 -73 0
-24 -45 -80 0
-24 -45 -87 0
-24 -45 -94 0
-24 -45 -101 0
-24 -52 -59 0
-24 -52 -66 0
-24 -52 -73 0
-24 -52 -80 0
-24 -52 -87 0
-24 -52 -94 0
-24 -52 -101 0
-24 -59 -66 0
-24 -59 -73 0
-24 -59 -80 0
-24 -59 -87 0
-24 -59 -94 0
-24 -59 -101 0
-24 -66 -73 0
-24 -66 -80 0
-24 -66 -87 0
-24 -66 -94 0
-24 -66 -101 0
-24 -73 -80 0
-24 -73 -87 0
-24 -73 -94 0
-24 -73 -101 0
-24 -80 -87 0
-24 -80 -94 0
-24 -80 -101 0
-24 -87 -94 0
-24 -87 -101 0
-24 -94 -101 0
-31 -38 -45 0
-31 -38 -52 0
-31 -38 -59 0
-31 -38 -66 0
-31 -38 -73 0
-31 -38 -80 0
-31 -38 -87 0
-31 -38 -94 0
-31 -38 -101 0
-31 -45 -52 0
-31 -45 -59 0
-31 -45 -66 0
-31 -45 -73 0
-31 -45 -80 0
-31 -45 -87 0
-31 -45 -94 0
-31 -45 -101 0
-31 -52 -59 0
-31 -52 -66 0
-31 -52 -73 0
-31 -52 -80 0
-31 -52 -87 0
-31 -52 -94 0
-31 -52 -101 0
-31 -59 -66 0
-31 -59 -73 0
-31 -59 -80 0
-31 -59 -87 0
-31 -59 -94 0
-31 -59 -101 0
-31 -66 -73 0
-31 -66 -80 0
-31 -66 -87 0
-31 -66 -94 0
-31 -66 -101 0
-31 -73 -80 0
-31 -73 -87 0
-31 -73 -94 0
-31 -73 -101 0
-31 -80 -87 0
-31 -80 -94 0
-31 -80 -101 0
-31 -87 -94 0
-31 -87 -101 0
-31 -94 -101 0
-38 -45 -52 0
-38 -45 -59 0
-38 -45 -66 0
-38 -45 -73 0
-38 -45 -80 0
-38 -45 -87 0
-38 -45 -94 0
-38 -45 -101 0
-38 -52 -59 0
-38 -52 -66 0
-38 -52 -73 0
-38 -52 -80 0
-38 -52 -87 0
-38 -52 -94 0
-38 -52 -101 0
-38 -59 -66 0
-38 -59 -73 0
-38 -59 -80 0
-38 -59 -87 0
-38 -59 -94 0
-38 -59 -101 0
-38 -66 -73 0
-38 -66 -80 0
-38 -66 -87 0
-38 -66 -94 0
-38 -66 -101 0
-38 -73 -80 0
-38 -73 -87 0
-38 -73 -94 0
-38 -73 -101 0
-38 -80 -87 0
-38 -80 -94 0
-38 -80 -101 0
-38 -87 -94 0
-38 -87 -101 0
-38 -94 -101 0
-45 -52 -59 0
-45 -52 -66 0
-45 -52 -73 0
-45 -52 -80 0
-45 -52 -87 0
-45 -52 -94 0
-45 -52 -101 0
-45 -59 -66 0
-45 -59 -73 0
-45 -59 -80 0
-45 -59 -87 0
-45 -59 -94 0
-45 -59 -101 0
-45 -66 -73 0
-45 -66 -80 0
-45 -66 -87 0
-45 -66 -94 0
-45 -66 -101 0
-45 -73 -80 0
-45 -73 -87 0
-45 -73 -94 0
-45 -73 -101 0
-45 -80 -87 0
-45 -80 -94 0
-45 -80 -101 0
-45 -87 -94 0
-45 -87 -101 0
-45 -94 -101 0
-52 -59 -66 0
-52 -59 -73 0
-52 -59 -80 0
-52 -59 -87 0
-52 -59 -94 0
-52 -59 -101 0
-52 -66 -73 0
-52 -66 -80 0
-52 -66 -87 0
-52 -66 -94 0
-52 -66 -101 0
-52 -73 -80 0
-52 -73 -87 0
-52 -73 -94 0
-52 -73 -101 0
-52 -80 -87 0
-52 -80 -94 0
-52 -80 -101 0
-52 -87 -94 0
-52 -87 -101 0
-52 -94 -101 0
-59 -66 -73 0
-59 -66 -80 0
-59 -66 -87 0
-59 -66 -94 0
-59 -66 -101 0
-59 -73 -80 0
-59 -73 -87 0
-59 -73 -94 0
-59 -73 -101 0
-59 -80 -87 0
-59 -80 -94 0
-59 -80 -101 0
-59 -87 -94 0
-59 -87 -101 0
-59 -94 -101 0
-66 -73 -80 0
-66 -73 -87 0
-66 -73 -94 0
-66 -73 -101 0
-66 -80 -87 0
-66 -80 -94 0
-66 -80 -101 0
-66 -87 -94 0
-66 -87 -101 0
-66 -94 -101 0
-73 -80 -87 0
-73 -80 -94 0
-73 -80 -101 0
-73 -87 -94 0
-73 -87 -101 0
-73 -94 -101 0
-80 -87 -94 0
-80 -87 -101 0
-80 -94 -101 0
-87 -94 -101 0
-4 -11 -18 0
-4 -11 -25 0
-4 -11 -32 0
-4 -11 -39 0
-4 -11 -46 0
-4 -11 -53 0
-4 -11 -60 0
-4 -11 -67 0
-4 -11 -74 0
-4 -11 -81 0
-4 -11 -88 0
-4 -11 -95 0
-4 -11 -102 0
-4 -18 -25 0
-4 -18 -32 0
-4 -18 -39 0
-4 -18 -46 0
-4 -18 -53 0
-4 -18 -60 0
-4 -18 -67 0
-4 -18 -74 0
-4 -18 -81 0
-4 -18 -88 0
-4 -18 -95 0
-4 -18 -102 0
-4 -25 -32 0
-4 -25 -39 0
-4 -25 -46 0
-4 -25 -53 0
-4 -25 -60 0
-4 -25 -67 0
-4 -25 -74 0
-4 -25 -81 0
-4 -25 -88 0
-4 -25 -95 0
-4 -25 -102 0
-4 -32 -39 0
-4 -32 -46 0
-4 -32 -53 0
-4 -32 -60 0
-4 -32 -67 0
-4 -32 -74 0
-4 -32 -81 0
-4 -32 -88 0
-4 -32 -95 0
-4 -32 -102 0
-4 -39 -46 0
-4 -39 -53 0
-4 -39 -60 0
-4 -39 -67 0
-4 -39 -74 0
-4 -39 -81 0
-4 -39 -88 0
-4 -39 -95 0
-4 -39 -102 0
-4 -46 -53 0
-4 -46 -60 0
-4 -46 -67 0
-4 -46 -74 0
-4 -46 -81 0
-4 -46 -88 0
-4 -46 -95 0
-4 -46 -102 0
-4 -53 -60 0
-4 -53 -67 0
-4 -53 -74 0
-4 -53 -81 0
-4 -53 -88 0
-4 -53 -95 0
-4 -53 -102 0
-4 -60 -67 0
-4 -60 -74 0
-4 -60 -81 0
-4 -60 -88 0
-4 -60 -95 0
-4 -60 -102 0
-4 -67 -74 0
-4 -67 -81 0
-4 -67 -88 0
-4 -67 -95 0
-4 -67 -102 0
-4 -74 -81 0
-4 -74 -88 0
-4 -74 -95 0
-4 -74 -102 0
-4 -81 -88 0
-4 -81 -95 0
-4 -81 -102 0
-4 -88 -95 0
-4 -88 -102 0
-4 -95 -102 0
-11 -18 -25 0
-11 -18 -32 0
-11 -18 -39 0
-11 -18 -46 0
-11 -18 -53 0
-11 -18 -60 0
-11 -18 -67 0
-11 -18 -74 0
-11 -18 -81 0
-11 -18 -88 0
-11 -18 -95 0
-11 -18 -102 0
-11 -25 -32 0
-11 -25 -39 0
-11 -25 -46 0
-11 -25 -53 0
-11 -25 -60 0
-11 -25 -67 0
-11 -25 -74 0
-11 -25 -81 0
-11 -25 -88 0
-11 -25 -95 0
-11 -25 -102 0
-11 -32 -39 0
-11 -32 -46 0
-11 -32 -53 0
-11 -32 -60 0
-11 -32 -67 0
-11 -32 -74 0
-11 -32 -81 0
-11 -32 -88 0
-11 -32 -95 0
-11 -32 -102 0
-11 -39 -46 0
-11 -39 -53 0
-11 -39 -60 0
-11 -39 -67 0
-11 -39 -74 0
-11 -39 -81 0
-11 -39 -88 0
-11 -39 -95 0
-11 -39 -102 0
-11 -46 -53 0
-11 -46 -60 0
-11 -46 -67 0
-11 -46 -74 0
-11 -46 -81 0
-11 -46 -88 0
-11 -46 -95 0
-11 -46 -102 0
-11 -53 -60 0
-11 -53 -67 0
-11 -53 -74 0
-11 -53 -81 0
-11 -53 -88 0
-11 -53 -95 0
-11 -53 -102 0
-11 -60 -67 0
-11 -60 -74 0
-11 -60 -81 0
-11 -60 -88 0
-11 -60 -95 0
-11 -60 -102 0
-11 -67 -74 0
-11 -67 -81 0
-11 -67 -88 0
-11 -67 -95 0
-11 -67 -102 0
-11 -74 -81 0
-11 -74 -88 0
-11 -74 -95 0
-11 -74 -102 0
-11 -81 -88 0
-11 -81 -95 0
-11 -81 -102 0
-11 -88 -95 0
-11 -88 -102 0
-11 -95 -102 0
-18 -25 -32 0
-18 -25 -39 0
-18 -25 -46 0
-18 -25 -53 0
-18 -25 -60 0
-18 -25 -67 0
-18 -25 -74 0
-18 -25 -81 0
-18 -25 -88 0
-18 -25 -95 0
-18 -25 -102 0
-18 -32 -39 0
-18 -32 -46 0
-18 -32 -53 0
-18 -32 -60 0
-18 -32 -67 0
-18 -32 -74 0
-18 -32 -81 0
-18 -32 -88 0
-18 -32 -95 0
-18 -32 -102 0
-18 -39 -46 0
-18 -39 -53 0
-18 -39 -60 0
-18 -39 -67 0
-18 -39 -74 0
-18 -39 -81 0
-18 -39 -88 0
-18 -39 -95 0
-18 -39 -102 0
-18 -46 -53 0
-18 -46 -60 0
-18 -46 -67 0
-18 -46 -74 0
-18 -46 -81 0
-18 -46 -88 0
-18 -46 -95 0
-18 -46 -102 0
-18 -53 -60 0
-18 -53 -67 0
-18 -53 -74 0
-18 -53 -81 0
-18 -53 -88 0
-18 -53 -95 0
-18 -53 -102 0
-18 -60 -67 0
-18 -60 -74 0
-18 -60 -81 0
-18 -60 -88 0
-18 -60 -95 0
-18 -60 -102 0
-18 -67 -74 0
-18 -67 -81 0
-18 -67 -88 0
-18 -67 -95 0
-18 -67 -102 0
-18 -74 -81 0
-18 -74 -88 0
-18 -74 -95 0
-18 -74 -102 0
-18 -81 -88 0
-18 -81 -95 0
-18 -81 -102 0
-18 -88 -95 0
-18 -88 -102 0
-18 -95 -102 0
-25 -32 -39 0
-25 -32 -46 0
-25 -32 -53 0
-25 -32 -60 0
-25 -32 -67 0
-25 -32 -74 0
-25 -32 -81 0
-25 -32 -88 0
-25 -32 -95 0
-25 -32 -102 0
-25 -39 -46 0
-25 -39 -53 0
-25 -39 -60 0
-25 -39 -67 0
-25 -39 -74 0
-25 -39 -81 0
-25 -39 -88 0
-25 -39 -95 0
-25 -39 -102 0
-25 -46 -53 0
-25 -46 -60 0
-25 -46 -67 0
-25 -46 -74 0
-25 -46 -81 0
-25 -46 -88 0
-25 -46 -95 0
-25 -46 -102 0
-25 -53 -60 0
-25 -53 -67 0
-25 -53 -74 0
-25 -53 -81 0
-25 -53 -88 0
-25 -53 -95 0
-25 -53 -102 0
-25 -60 -67 0
-25 -60 -74 0
-25 -60 -81 0
-25 -60 -88 0
-25 -60 -95 0
-25 -60 -102 0
-25 -67 -74 0
-25 -67 -81 0
-25 -67 -88 0
-25 -67 -95 0
-25 -67 -102 0
-25 -74 -81 0
-25 -74 -88 0
-25 -74 -95 0
-25 -74 -102 0
-25 -81 -88 0
-25 -81 -95 0
-25 -81 -102 0
-25 -88 -95 0
-25 -88 -102 0
-25 -95 -102 0
-32 -39 -46 0
-32 -39 -53 0
-32 -39 -60 0
-32 -39 -67 0
-32 -39 -74 0
-32 -39 -81 0
-32 -39 -88 0
-32 -39 -95 0
-32 -39 -102 0
-32 -46 -53 0
-32 -46 -60 0
-32 -46 -67 0
-32 -46 -74 0
-32 -46 -81 0
-32 -46 -88 0
-32 -46 -95 0
-32 -46 -102 0
-32 -53 -60 0
-32 -53 -67 0
-32 -53 -74 0
-32 -53 -81 0
-32 -53 -88 0
-32 -53 -95 0
-32 -53 -102 0
-32 -60 -67 0
-32 -60 -74 0
-32 -60 -81 0
-32 -60 -88 0
-32 -60 -95 0
-32 -60 -102 0
-32 -67 -74 0
-32 -67 -81 0
-32 -67 -88 0
-32 -67 -95 0
-32 -67 -102 0
-32 -74 -81 0
-32 -74 -88 0
-32 -74 -95 0
-32 -74 -102 0
-32 -81 -88 0
-32 -81 -95 0
-32 -81 -102 0
-32 -88 -95 0
-32 -88 -102 0
-32 -95 -102 0
-39 -46 -53 0
-39 -46 -60 0
-39 -46 -67 0
-39 -46 -74 0
-39 -46 -81 0
-39 -46 -88 0
-39 -46 -95 0
-39 -46 -102 0
-39 -53 -60 0
-39 -53 -67 0
-39 -53 -74 0
-39 -53 -81 0
-39 -53 -88 0
-39 -53 -95 0
-39 -53 -102 0
-39 -60 -67 0
-39 -60 -74 0
-39 -60 -81 0
-39 -60 -88 0
-39 -60 -95 0
-39 -60 -102 0
-39 -67 -74 0
-39 -67 -81 0
-39 -67 -88 0
-39 -67 -95 0
-39 -67 -102 0
-39 -74 -81 0
-39 -74 -88 0
-39 -74 -95 0
-39 -74 -102 0
-39 -81 -88 0
-39 -81 -95 0
-39 -81 -102 0
-39 -88 -95 0
-39 -88 -102 0
-39 -95 -102 0
-46 -53 -60 0
-46 -53 -67 0
-46 -53 -74 0
-46 -53 -81 0
-46 -53 -88 0
-46 -53 -95 0
-46 -53 -102 0
-46 -60 -67 0
-46 -60 -74 0
-46 -60 -81 0
-46 -60 -88 0
-46 -60 -95 0
-46 -60 -102 0
-46 -67 -74 0
-46 -67 -81 0
-46 -67 -88 0
-46 -67 -95 0
-46 -67 -102 0
-46 -74 -81 0
-46 -74 -88 0
-46 -74 -95 0
-46 -74 -102 0
-46 -81 -88 0
-46 -81 -95 0
-46 -81 -102 0
-46 -88 -95 0
-46 -88 -102 0
-46 -95 -102 0
-53 -60 -67 0
-53 -60 -74 0
-53 -60 -81 0
-53 -60 -88 0
-53 -60 -95 0
-53 -60 -102 0
-53 -67 -74 0
-53 -67 -81 0
-53 -67 -88 0
-53 -67 -95 0
-53 -67 -102 0
-53 -74 -81 0
-53 -74 -88 0
-53 -74 -95 0
-53 -74 -102 0
-53 -81 -88 0
-53 -81 -95 0
-53 -81 -102 0
-53 -88 -95 0
-53 -88 -102 0
-53 -95 -102 0
-60 -67 -74 0
-60 -67 -81 0
-60 -67 -88 0
-60 -67 -95 0
-60 -67 -102 0
-60 -74 -81 0
-60 -74 -88 0
-60 -74 -95 0
-60 -74 -102 0
-60 -81 -88 0
-60 -81 -95 0
-60 -81 -102 0
-60 -88 -95 0
-60 -88 -102 0
-60 -95 -102 0
-67 -74 -81 0
-67 -74 -88 0
-67 -74 -95 0
-67 -74 -102 0
-67 -81 -88 0
-67 -81 -95 0
-67 -81 -102 0
-67 -88 -95 0
-67 -88 -102 0
-67 -95 -102 0
-74 -81 -88 0
-74 -81 -95 0
-74 -81 -102 0
-74 -88 -95 0
-74 -88 -102 0
-74 -95 -102 0
-81 -88 -95 0
-81 -88 -102 0
-81 -95 -102 0
-88 -95 -102 0
-5 -12 -19 0
-5 -12 -26 0
-5 -12 -33 0
-5 -12 -40 0
-5 -12 -47 0
-5 -12 -54 0
-5 -12 -61 0
-5 -12 -68 0
-5 -12 -75 0
-5 -12 -82 0
-5 -12 -89 0
-5 -12 -96 0
-5 -12 -103 0
-5 -19 -26 0
-5 -19 -33 0
-5 -19 -40 0
-5 -19 -47 0
-5 -19 -54 0
-5 -19 -61 0
-5 -19 -68 0
-5 -19 -75 0
-5 -19 -82 0
-5 -19 -89 0
-5 -19 -96 0
-5 -19 -103 0
-5 -26 -33 0
-5 -26 -40 0
-5 -26 -47 0
-5 -26 -54 0
-5 -26 -61 0
-5 -26 -68 0
-5 -26 -75 0
-5 -26 -82 0
-5 -26 -89 0
-5 -26 -96 0
-5 -26 -103 0
-5 -33 -40 0
-5 -33 -47 0
-5 -33 -54 0
-5 -33 -61 0
-5 -33 -68 0
-5 -33 -75 0
-5 -33 -82 0
-5 -33 -89 0
-5 -33 -96 0
-5 -33 -103 0
-5 -40 -47 0
-5 -40 -54 0
-5 -40 -61 0
-5 -40 -68 0
-5 -40 -75 0
-5 -40 -82 0
-5 -40 -89 0
-5 -40 -96 0
-5 -40 -103 0
-5 -47 -54 0
-5 -47 -61 0
-5 -47 -68 0
-5 -47 -75 0
-5 -47 -82 0
-5 -47 -89 0
-5 -47 -96 0
-5 -47 -103 0
-5 -54 -61 0
-5 -54 -68 0
-5 -54 -75 0
-5 -54 -82 0
-5 -54 -89 0
-5 -54 -96 0
-5 -54 -103 0
-5 -61 -68 0
-5 -61 -75 0
-5 -61 -82 0
-5 -61 -89 0
-5 -61 -96 0
-5 -61 -103 0
-5 -68 -75 0
-5 -68 -82 0
-5 -68 -89 0
-5 -68 -96 0
-5 -68 -103 0
-5 -75 -82 0
-5 -75 -89 0
-5 -75 -96 0
-5 -75 -103 0
-5 -82 -89 0
-5 -82 -96 0
-5 -82 -103 0
-5 -89 -96 0
-5 -89 -103 0
-5 -96 -103 0
-12 -19 -26 0
-12 -19 -33 0
-12 -19 -40 0
-12 -19 -47 0
-12 -19 -54 0
-12 -19 -61 0
-12 -19 -68 0
-12 -19 -75 0
-12 -19 -82 0
-12 -19 -89 0
-12 -19 -96 0
-12 -19 -103 0
-12 -26 -33 0
-12 -26 -40 0
-12 -26 -47 0
-12 -26 -54 0
-12 -26 -61 0
-12 -26 -68 0
-12 -26 -75 0
-12 -26 -82 0
-12 -26 -89 0
-12 -26 -96 0
-12 -26 -103 0
-12 -33 -40 0
-12 -33 -47 0
-12 -33 -54 0
-12 -33 -61 0
-12 -33 -68 0
-12 -33 -75 0
-12 -33 -82 0
-12 -33 -89 0
-12 -33 -96 0
-12 -33 -103 0
-12 -40 -47 0
-12 -40 -54 0
-12 -40 -61 0
-12 -40 -68 0
-12 -40 -75 0
-12 -40 -82 0
-12 -40 -89 0
-12 -40 -96 0
-12 -40 -103 0
-12 -47 -54 0
-12 -47 -61 0
-12 -47 -68 0
-12 -47 -75 0
-12 -47 -82 0
-12 -47 -89 0
-12 -47 -96 0
-12 -47 -103 0
-12 -54 -61 0
-12 -54 -68 0
-12 -54 -75 0
-12 -54 -82 0
-12 -54 -89 0
-12 -54 -96 0
-12 -54 -103 0
-12 -61 -68 0
-12 -61 -75 0
-12 -61 -82 0
-12 -61 -89 0
-12 -61 -96 0
-12 -61 -103 0
-12 -68 -75 0
-12 -68 -82 0
-12 -68 -89 0
-12 -68 -96 0
-12 -68 -103 0
-12 -75 -82 0
-12 -75 -89 0
-12 -75 -96 0
-12 -75 -103 0
-12 -82 -89 0
-12 -82 -96 0
-12 -82 -103 0
-12 -89 -96 0
-12 -89 -103 0
-12 -96 -103 0
-19 -26 -33 0
-19 -26 -40 0
-19 -26 -47 0
-19 -26 -54 0
-19 -26 -61 0
-19 -26 -68 0
-19 -26 -75 0
-19 -26 -82 0
-19 -26 -89 0
-19 -26 -96 0
-19 -26 -103 0
-19 -33 -40 0
-19 -33 -47 0
-19 -33 -54 0
-19 -33 -61 0
-19 -33 -68 0
-19 -33 -75 0
-19 -33 -82 0
-19 -33 -89 0
-19 -33 -96 0
-19 -33 -103 0
-19 -40 -47 0
-19 -40 -54 0
-19 -40 -61 0
-19 -40 -68 0
-19 -40 -75 0
-19 -40 -82 0
-19 -40 -89 0
-19 -40 -96 0
-19 -40 -103 0
-19 -47 -54 0
-19 -47 -61 0
-19 -47 -68 0
-19 -47 -75 0
-19 -47 -82 0
-19 -47 -89 0
-19 -47 -96 0
-19 -47 -103 0
-19 -54 -61 0
-19 -54 -68 0
-19 -54 -75 0
-19 -54 -82 0
-19 -54 -89 0
-19 -54 -96 0
-19 -54 -103 0
-19 -61 -68 0
-19 -61 -75 0
-19 -61 -82 0
-19 -61 -89 0
-19 -61 -96 0
-19 -61 -103 0
-19 -68 -75 0
-19 -68 -82 0
-19 -68 -89 0
-19 -68 -96 0
-19 -68 -103 0
-19 -75 -82 0
-19 -75 -89 0
-19 -75 -96 0
-19 -75 -103 0
-19 -82 -89 0
-19 -82 -96 0
-19 -82 -103 0
-19 -89 -96 0
-19 -89 -103 0
-19 -96 -103 0
-26 -33 -40 0
-26 -33 -47 0
-26 -33 -54 0
-26 -33 -61 0
-26 -33 -68 0
-26 -33 -75 0
-26 -33 -82 0
-26 -33 -89 0
-26 -33 -96 0
-26 -33 -103 0
-26 -40 -47 0
-26 -40 -54 0
-26 -40 -61 0
-26 -40 -68 0
-26 -40 -75 0
-26 -40 -82 0
-26 -40 -89 0
-26 -40 -96 0
-26 -40 -103 0
-26 -47 -54 0
-26 -47 -61 0
-26 -47 -68 0
-26 -47 -75 0
-26 -47 -82 0
-26 -47 -89 0
-26 -47 -96 0
-26 -47 -103 0
-26 -54 -61 0
-26 -54 -68 0
-26 -54 -75 0
-26 -54 -82 0
-26 -54 -89 0
-26 -54 -96 0
-26 -54 -103 0
-26 -61 -68 0
-26 -61 -75 0
-26 -61 -82 0
-26 -61 -89 0
-26 -61 -96 0
-26 -61 -103 0
-26 -68 -75 0
-26 -68 -82 0
-26 -68 -89 0
-26 -68 -96 0
-26 -68 -103 0
-26 -75 -82 0
-26 -75 -89 0
-26 -75 -96 0
-26 -75 -103 0
-26 -82 -89 0
-26 -82 -96 0
-26 -82 -103 0
-26 -89 -96 0
-26 -89 -103 0
-26 -96 -103 0
-33 -40 -47 0
-33 -40 -54 0
-33 -40 -61 0
-33 -40 -68 0
-33 -40 -75 0
-33 -40 -82 0
-33 -40 -89 0
-33 -40 -96 0
-33 -40 -103 0
-33 -47 -54 0
-33 -47 -61 0
-33 -47 -68 0
-33 -47 -75 0
-33 -47 -82 0
-33 -47 -89 0
-33 -47 -96 0
-33 -47 -103 0
-33 -54 -61 0
-33 -54 -68 0
-33 -54 -75 0
-33 -54 -82 0
-33 -54 -89 0
-33 -54 -96 0
-33 -54 -103 0
-33 -61 -68 0
-33 -61 -75 0
-33 -61 -82 0
-33 -61 -89 0
-33 -61 -96 0
-33 -61 -103 0
-33 -68 -75 0
-33 -68 -82 0
-33 -68 -89 0
-33 -68 -96 0
-33 -68 -103 0
-33 -75 -82 0
-33 -75 -89 0
-33 -75 -96 0
-33 -75 -103 0
-33 -82 -89 0
-33 -82 -96 0
-33 -82 -103 0
-33 -89 -96 0
-33 -89 -103 0
-33 -96 -103 0
-40 -47 -54 0
-40 -47 -61 0
-40 -47 -68 0
-40 -47 -75 0
-40 -47 -82 0
-40 -47 -89 0
-40 -47 -96 0
-40 -47 -103 0
-40 -54 -61 0
-40 -54 -68 0
-40 -54 -75 0
-40 -54 -82 0
-40 -54 -89 0
-40 -54 -96 0
-40 -54 -103 0
-40 -61 -68 0
-40 -61 -75 0
-40 -61 -82 0
-40 -61 -89 0
-40 -61 -96 0
-40 -61 -103 0
-40 -68 -75 0
-40 -68 -82 0
-40 -68 -89 0
-40 -68 -96 0
-40 -68 -103 0
-40 -75 -82 0
-40 -75 -89 0
-40 -75 -96 0
-40 -75 -103 0
-40 -82 -89 0
-40 -82 -96 0
-40 -82 -103 0
-40 -89 -96 0
-40 -89 -103 0
-40 -96 -103 0
-47 -54 -61 0
-47 -54 -68 0
-47 -54 -75 0
-47 -54 -82 0
-47 -54 -89 0
-47 -54 -96 0
-47 -54 -103 0
-47 -61 -68 0
-47 -61 -75 0
-47 -61 -82 0
-47 -61 -89 0
-47 -61 -96 0
-47 -61 -103 0
-47 -68 -75 0
-47 -68 -82 0
-47 -68 -89 0
-47 -68 -96 0
-47 -68 -103 0
-47 -75 -82 0
-47 -75 -89 0
-47 -75 -96 0
-47 -75 -103 0
-47 -82 -89 0
-47 -82 -96 0
-47 -82 -103 0
-47 -89 -96 0
-47 -89 -103 0
-47 -96 -103 0
-54 -61 -68 0
-54 -61 -75 0
-54 -61 -82 0
-54 -61 -89 0
-54 -61 -96 0
-54 -61 -103 0
-54 -68 -75 0
-54 -68 -82 0
-54 -68 -89 0
-54 -68 -96 0
-54 -68 -103 0
-54 -75 -82 0
-54 -75 -89 0
-54 -75 -96 0
-54 -75 -103 0
-54 -82 -89 0
-54 -82 -96 0
-54 -82 -103 0
-54 -89 -96 0
-54 -89 -103 0
-54 -96 -103 0
-61 -68 -75 0
-61 -68 -82 0
-61 -68 -89 0
-61 -68 -96 0
-61 -68 -103 0
-61 -75 -82 0
-61 -75 -89 0
-61 -75 -96 0
-61 -75 -103 0
-61 -82 -89 0
-61 -82 -96 0
-61 -82 -103 0
-61 -89 -96 0
-61 -89 -103 0
-61 -96 -103 0
-68 -75 -82 0
-68 -75 -89 0
-68 -75 -96 0
-68 -75 -103 0
-68 -82 -89 0
-68 -82 -96 0
-68 -82 -103 0
-68 -89 -96 0
-68 -89 -103 0
-68 -96 -103 0
-75 -82 -89 0
-75 -82 -96 0
-75 -82 -103 0
-75 -89 -96 0
-75 -89 -103 0
-75 -96 -103 0
-82 -89 -96 0
-82 -89 -103 0
-82 -96 -103 0
-89 -96 -103 0
-6 -13 -20 0
-6 -13 -27 0
-6 -13 -34 0
-6 -13 -41 0
-6 -13 -48 0
-6 -13 -55 0
-6 -13 -62 0
-6 -13 -69 0
-6 -13 -76 0
-6 -13 -83 0
-6 -13 -90 0
-6 -13 -97 0
-6 -13 -104 0
-6 -20 -27 0
-6 -20 -34 0
-6 -20 -41 0
-6 -20 -48 0
-6 -20 -55 0
-6 -20 -62 0
-6 -20 -69 0
-6 -20 -76 0
-6 -20 -83 0
-6 -20 -90 0
-6 -20 -97 0
-6 -20 -104 0
-6 -27 -34 0
-6 -27 -41 0
-6 -27 -48 0
-6 -27 -55 0
-6 -27 -62 0
-6 -27 -69 0
-6 -27 -76 0
-6 -27 -83 0
-6 -27 -90 0
-6 -27 -97 0
-6 -27 -104 0
-6 -34 -41 0
-6 -34 -48 0
-6 -34 -55 0
-6 -34 -62 0
-6 -34 -69 0
-6 -34 -76 0
-6 -34 -83 0
-6 -34 -90 0
-6 -34 -97 0
-6 -34 -104 0
-6 -41 -48 0
-6 -41 -55 0
-6 -41 -62 0
-6 -41 -69 0
-6 -41 -76 0
-6 -41 -83 0
-6 -41 -90 0
-6 -41 -97 0
-6 -41 -104 0
-6 -48 -55 0
-6 -48 -62 0
-6 -48 -69 0
-6 -48 -76 0
-6 -48 -83 0
-6 -48 -90 0
-6 -48 -97 0
-6 -48 -104 0
-6 -55 -62 0
-6 -55 -69 0
-6 -55 -76 0
-6 -55 -83 0
-6 -55 -90 0
-6 -55 -97 0
-6 -55 -104 0
-6 -62 -69 0
-6 -62 -76 0
-6 -62 -83 0
-6 -62 -90 0
-6 -62 -97 0
-6 -62 -104 0
-6 -69 -76 0
-6 -69 -83 0
-6 -69 -90 0
-6 -69 -97 0
-6 -69 -104 0
-6 -76 -83 0
-6 -76 -90 0
-6 -76 -97 0
-6 -76 -104 0
-6 -83 -90 0
-6 -83 -97 0
-6 -83 -104 0
-6 -90 -97 0
-6 -90 -104 0
-6 -97 -104 0
-13 -20 -27 0
-13 -20 -34 0
-13 -20 -41 0
-13 -20 -48 0
-13 -20 -55 0
-13 -20 -62 0
-13 -20 -69 0
-13 -20 -76 0
-13 -20 -83 0
-13 -20 -90 0
-13 -20 -97 0
-13 -20 -104 0
-13 -27 -34 0
-13 -27 -41 0
-13 -27 -48 0
-13 -27 -55 0
-13 -27 -62 0
-13 -27 -69 0
-13 -27 -76 0
-13 -27 -83 0
-13 -27 -90 0
-13 -27 -97 0
-13 -27 -104 0
-13 -34 -41 0
-13 -34 -48 0
-13 -34 -55 0
-13 -34 -62 0
-13 -34 -69 0
-13 -34 -76 0
-13 -34 -83 0
-13 -34 -90 0
-13 -34 -97 0
-13 -34 -104 0
-13 -41 -48 0
-13 -41 -55 0
-13 -41 -62 0
-13 -41 -69 0
-13 -41 -76 0
-13 -41 -83 0
-13 -41 -90 0
-13 -41 -97 0
-13 -41 -104 0
-13 -48 -55 0
-13 -48 -62 0
-13 -48 -69 0
-13 -48 -76 0
-13 -48 -83 0
-13 -48 -90 0
-13 -48 -97 0
-13 -48 -104 0
-13 -55 -62 0
-13 -55 -69 0
-13 -55 -76 0
-13 -55 -83 0
-13 -55 -90 0
-13 -55 -97 0
-13 -55 -104 0
-13 -62 -69 0
-13 -62 -76 0
-13 -62 -83 0
-13 -62 -90 0
-13 -62 -97 0
-13 -62 -104 0
-13 -69 -76 0
-13 -69 -83 0
-13 -69 -90 0
-13 -69 -97 0
-13 -69 -104 0
-13 -76 -83 0
-13 -76 -90 0
-13 -76 -97 0
-13 -76 -104 0
-13 -83 -90 0
-13 -83 -97 0
-13 -83 -104 0
-13 -90 -97 0
-13 -90 -104 0
-13 -97 -104 0
-20 -27 -34 0
-20 -27 -41 0
-20 -27 -48 0
-20 -27 -55 0
-20 -27 -62 0
-20 -27 -69 0
-20 -27 -76 0
-20 -27 -83 0
-20 -27 -90 0
-20 -27 -97 0
-20 -27 -104 0
-20 -34 -41 0
-20 -34 -48 0
-20 -34 -55 0
-20 -34 -62 0
-20 -34 -69 0
-20 -34 -76 0
-20 -34 -83 0
-20 -34 -90 0
-20 -34 -97 0
-20 -34 -104 0
-20 -41 -48 0
-20 -41 -55 0
-20 -41 -62 0
-20 -41 -69 0
-20 -41 -76 0
-20 -41 -83 0
-20 -41 -90 0
-20 -41 -97 0
-20 -41 -104 0
-20 -48 -55 0
-20 -48 -62 0
-20 -48 -69 0
-20 -48 -76 0
-20 -48 -83 0
-20 -48 -90 0
-20 -48 -97 0
-20 -48 -104 0
-20 -55 -62 0
-20 -55 -69 0
-20 -55 -76 0
-20 -55 -83 0
-20 -55 -90 0
-20 -55 -97 0
-20 -55 -104 0
-20 -62 -69 0
-20 -62 -76 0
-20 -62 -83 0
-20 -62 -90 0
-20 -62 -97 0
-20 -62 -104 0
-20 -69 -76 0
-20 -69 -83 0
-20 -69 -90 0
-20 -69 -97 0
-20 -69 -104 0
-20 -76 -83 0
-20 -76 -90 0
-20 -76 -97 0
-20 -76 -104 0
-20 -83 -90 0
-20 -83 -97 0
-20 -83 -104 0
-20 -90 -97 0
-20 -90 -104 0
-20 -97 -104 0
-27 -34 -41 0
-27 -34 -48 0
-27 -34 -55 0
-27 -34 -62 0
-27 -34 -69 0
-27 -34 -76 0
-27 -34 -83 0
-27 -34 -90 0
-27 -34 -97 0
-27 -34 -104 0
-27 -41 -48 0
-27 -41 -55 0
-27 -41 -62 0
-27 -41 -69 0
-27 -41 -76 0
-27 -41 -83 0
-27 -41 -90 0
-27 -41 -97 0
-27 -41 -104 0
-27 -48 -55 0
-27 -48 -62 0
-27 -48 -69 0
-27 -48 -76 0
-27 -48 -83 0
-27 -48 -90 0
-27 -48 -97 0
-27 -48 -104 0
-27 -55 -62 0
-27 -55 -69 0
-27 -55 -76 0
-27 -55 -83 0
-27 -55 -90 0
-27 -55 -97 0
-27 -55 -104 0
-27 -62 -69 0
-27 -62 -76 0
-27 -62 -83 0
-27 -62 -90 0
-27 -62 -97 0
-27 -62 -104 0
-27 -69 -76 0
-27 -69 -83 0
-27 -69 -90 0
-27 -69 -97 0
-27 -69 -104 0
-27 -76 -83 0
-27 -76 -90 0
-27 -76 -97 0
-27 -76 -104 0
-27 -83 -90 0
-27 -83 -97 0
-27 -83 -104 0
-27 -90 -97 0
-27 -90 -104 0
-27 -97 -104 0
-34 -41 -48 0
-34 -41 -55 0
-34 -41 -62 0
-34 -41 -69 0
-34 -41 -76 0
-34 -41 -83 0
-34 -41 -90 0
-34 -41 -97 0
-34 -41 -104 0
-34 -48 -55 0
-34 -48 -62 0
-34 -48 -69 0
-34 -48 -76 0
-34 -48 -83 0
-34 -48 -90 0
-34 -48 -97 0
-34 -48 -104 0
-34 -55 -62 0
-34 -55 -69 0
-34 -55 -76 0
-34 -55 -83 0
-34 -55 -90 0
-34 -55 -97 0
-34 -55 -104 0
-34 -62 -69 0
-34 -62 -76 0
-34 -62 -83 0
-34 -62 -90 0
-34 -62 -97 0
-34 -62 -104 0
-34 -69 -76 0
-34 -69 -83 0
-34 -69 -90 0
-34 -69 -97 0
-34 -69 -104 0
-34 -76 -83 0
-34 -76 -90 0
-34 -76 -97 0
-34 -76 -104 0
-34 -83 -90 0
-34 -83 -97 0
-34 -83 -104 0
-34 -90 -97 0
-34 -90 -104 0
-34 -97 -104 0
-41 -48 -55 0
-41 -48 -62 0
-41 -48 -69 0
-41 -48 -76 0
-41 -48 -83 0
-41 -48 -90 0
-41 -48 -97 0
-41 -48 -104 0
-41 -55 -62 0
-41 -55 -69 0
-41 -55 -76 0
-41 -55 -83 0
-41 -55 -90 0
-41 -55 -97 0
-41 -55 -104 0
-41 -62 -69 0
-41 -62 -76 0
-41 -62 -83 0
-41 -62 -90 0
-41 -62 -97 0
-41 -62 -104 0
-41 -69 -76 0
-41 -69 -83 0
-41 -69 -90 0
-41 -69 -97 0
-41 -69 -104 0
-41 -76 -83 0
-41 -76 -90 0
-41 -76 -97 0
-41 -76 -104 0
-41 -83 -90 0
-41 -83 -97 0
-41 -83 -104 0
-41 -90 -97 0
-41 -90 -104 0
-41 -97 -104 0
-48 -55 -62 0
-48 -55 -69 0
-48 -55 -76 0
-48 -55 -83 0
-48 -55 -90 0
-48 -55 -97 0
-48 -55 -104 0
-48 -62 -69 0
-48 -62 -76 0
-48 -62 -83 0
-48 -62 -90 0
-48 -62 -97 0
-48 -62 -104 0
-48 -69 -76 0
-48 -69 -83 0
-48 -69 -90 0
-48 -69 -97 0
-48 -69 -104 0
-48 -76 -83 0
-48 -76 -90 0
-48 -76 -97 0
-48 -76 -104 0
-48 -83 -90 0
-48 -83 -97 0
-48 -83 -104 0
-48 -90 -97 0
-48 -90 -104 0
-48 -97 -104 0
-55 -62 -69 0
-55 -62 -76 0
-55 -62 -83 0
-55 -62 -90 0
-55 -62 -97 0
-55 -62 -104 0
-55 -69 -76 0
-55 -69 -83 0
-55 -69 -90 0
-55 -69 -97 0
-55 -69 -104 0
-55 -76 -83 0
-55 -76 -90 0
-55 -76 -97 0
-55 -76 -104 0
-55 -83 -90 0
-55 -83 -97 0
-55 -83 -104 0
-55 -90 -97 0
-55 -90 -104 0
-55 -97 -104 0
-62 -69 -76 0
-62 -69 -83 0
-62 -69 -90 0
-62 -69 -97 0
-62 -69 -104 0
-62 -76 -83 0
-62 -76 -90 0
-62 -76 -97 0
-62 -76 -104 0
-62 -83 -90 0
-62 -83 -97 0
-62 -83 -104 0
-62 -90 -97 0
-62 -90 -104 0
-62 -97 -104 0
-69 -76 -83 0
-69 -76 -90 0
-69 -76 -97 0
-69 -76 -104 0
-69 -83 -90 0
-69 -83 -97 0
-69 -83 -104 0
-69 -90 -97 0
-69 -90 -104 0
-69 -97 -104 0
-76 -83 -90 0
-76 -83 -97 0
-76 -83 -104 0
-76 -90 -97 0
-76 -90 -104 0
-76 -97 -104 0
-83 -90 -97 0
-83 -90 -104 0
-83 -97 -104 0
-90 -97 -104 0
-7 -14 -21 0
-7 -14 -28 0
-7 -14 -35 0
-7 -14 -42 0
-7 -14 -49 0
-7 -14 -56 0
-7 -14 -63 0
-7 -14 -70 0
-7 -14 -77 0
-7 -14 -84 0
-7 -14 -91 0
-7 -14 -98 0
-7 -14 -105 0
-7 -21 -28 0
-7 -21 -35 0
-7 -21 -42 0
-7 -21 -49 0
-7 -21 -56 0
-7 -21 -63 0
-7 -21 -70 0
-7 -21 -77 0
-7 -21 -84 0
-7 -21 -91 0
-7 -21 -98 0
-7 -21 -105 0
-7 -28 -35 0
-7 -28 -42 0
-7 -28 -49 0
-7 -28 -56 0
-7 -28 -63 0
-7 -28 -70 0
-7 -28 -77 0
-7 -28 -84 0
-7 -28 -91 0
-7 -28 -98 0
-7 -28 -105 0
-7 -35 -42 0
-7 -35 -49 0
-7 -35 -56 0
-7 -35 -63 0
-7 -35 -70 0
-7 -35 -77 0
-7 -35 -84 0
-7 -35 -91 0
-7 -35 -98 0
-7 -35 -105 0
-7 -42 -49 0
-7 -42 -56 0
-7 -42 -63 0
-7 -42 -70 0
-7 -42 -77 0
-7 -42 -84 0
-7 -42 -91 0
-7 -42 -98 0
-7 -42 -105 0
-7 -49 -56 0
-7 -49 -63 0
-7 -49 -70 0
-7 -49 -77 0
-7 -49 -84 0
-7 -49 -91 0
-7 -49 -98 0
-7 -49 -105 0
-7 -56 -63 0
-7 -56 -70 0
-7 -56 -77 0
-7 -56 -84 0
-7 -56 -91 0
-7 -56 -98 0
-7 -56 -105 0
-7 -63 -70 0
-7 -63 -77 0
-7 -63 -84 0
-7 -63 -91 0
-7 -63 -98 0
-7 -63 -105 0
-7 -70 -77 0
-7 -70 -84 0
-7 -70 -91 0
-7 -70 -98 0
-7 -70 -105 0
-7 -77 -84 0
-7 -77 -91 0
-7 -77 -98 0
-7 -77 -105 0
-7 -84 -91 0
-7 -84 -98 0
-7 -84 -105 0
-7 -91 -98 0
-7 -91 -105 0
-7 -98 -105 0
-14 -21 -28 0
-14 -21 -35 0
-14 -21 -42 0
-14 -21 -49 0
-14 -21 -56 0
-14 -21 -63 0
-14 -21 -70 0
-14 -21 -77 0
-14 -21 -84 0
-14 -21 -91 0
-14 -21 -98 0
-14 -21 -105 0
-14 -28 -35 0
-14 -28 -42 0
-14 -28 -49 0
-14 -28 -56 0
-14 -28 -63 0
-14 -28 -70 0
-14 -28 -77 0
-14 -28 -84 0
-14 -28 -91 0
-14 -28 -98 0
-14 -28 -105 0
-14 -35 -42 0
-14 -35 -49 0
-14 -35 -56 0
-14 -35 -63 0
-14 -35 -70 0
-14 -35 -77 0
-14 -35 -84 0
-14 -35 -91 0
-14 -35 -98 0
-14 -35 -105 0
-14 -42 -49 0
-14 -42 -56 0
-14 -42 -63 0
-14 -42 -70 0
-14 -42 -77 0
-14 -42 -84 0
-14 -42 -91 0
-14 -42 -98 0
-14 -42 -105 0
-14 -49 -56 0
-14 -49 -63 0
-14 -49 -70 0
-14 -49 -77 0
-14 -49 -84 0
-14 -49 -91 0
-14 -49 -98 0
-14 -49 -105 0
-14 -56 -63 0
-14 -56 -70 0
-14 -56 -77 0
-14 -56 -84 0
-14 -56 -91 0
-14 -56 -98 0
-14 -56 -105 0
-14 -63 -70 0
-14 -63 -77 0
-14 -63 -84 0
-14 -63 -91 0
-14 -63 -98 0
-14 -63 -105 0
-14 -70 -77 0
-14 -70 -84 0
-14 -70 -91 0
-14 -70 -98 0
-14 -70 -105 0
-14 -77 -84 0
-14 -77 -91 0
-14 -77 -98 0
-14 -77 -105 0
-14 -84 -91 0
-14 -84 -98 0
-14 -84 -105 0
-14 -91 -98 0
-14 -91 -105 0
-14 -98 -105 0
-21 -28 -35 0
-21 -28 -42 0
-21 -28 -49 0
-21 -28 -56 0
-21 -28 -63 0
-21 -28 -70 0
-21 -28 -77 0
-21 -28 -84 0
-21 -28 -91 0
-21 -28 -98 0
-21 -28 -105 0
-21 -35 -42 0
-21 -35 -49 0
-21 -35 -56 0
-21 -35 -63 0
-21 -35 -70 0
-21 -35 -77 0
-21 -35 -84 0
-21 -35 -91 0
-21 -35 -98 0
-21 -35 -105 0
-21 -42 -49 0
-21 -42 -56 0
-21 -42 -63 0
-21 -42 -70 0
-21 -42 -77 0
-21 -42 -84 0
-21 -42 -91 0
-21 -42 -98 0
-21 -42 -105 0
-21 -49 -56 0
-21 -49 -63 0
-21 -49 -70 0
-21 -49 -77 0
-21 -49 -84 0
-21 -49 -91 0
-21 -49 -98 0
-21 -49 -105 0
-21 -56 -63 0
-21 -56 -70 0
-21 -56 -77 0
-21 -56 -84 0
-21 -56 -91 0
-21 -56 -98 0
-21 -56 -105 0
-21 -63 -70 0
-21 -63 -77 0
-21 -63 -84 0
-21 -63 -91 0
-21 -63 -98 0
-21 -63 -105 0
-21 -70 -77 0
-21 -70 -84 0
-21 -70 -91 0
-21 -70 -98 0
-21 -70 -105 0
-21 -77 -84 0
-21 -77 -91 0
-21 -77 -98 0
-21 -77 -105 0
-21 -84 -91 0
-21 -84 -98 0
-21 -84 -105 0
-21 -91 -98 0
-21 -91 -105 0
-21 -98 -105 0
-28 -35 -42 0
-28 -35 -49 0
-28 -35 -56 0
-28 -35 -63 0
-28 -35 -70 0
-28 -35 -77 0
-28 -35 -84 0
-28 -35 -91 0
-28 -35 -98 0
-28 -35 -105 0
-28 -42 -49 0
-28 -42 -56 0
-28 -42 -63 0
-28 -42 -70 0
-28 -42 -77 0
-28 -42 -84 0
-28 -42 -91 0
-28 -42 -98 0
-28 -42 -105 0
-28 -49 -56 0
-28 -49 -63 0
-28 -49 -70 0
-28 -49 -77 0
-28 -49 -84 0
-28 -49 -91 0
-28 -49 -98 0
-28 -49 -105 0
-28 -56 -63 0
-28 -56 -70 0
-28 -56 -77 0
-28 -56 -84 0
-28 -56 -91 0
-28 -56 -98 0
-28 -56 -105 0
-28 -63 -70 0
-28 -63 -77 0
-28 -63 -84 0
-28 -63 -91 0
-28 -63 -98 0
-28 -63 -105 0
-28 -70 -77 0
-28 -70 -84 0
-28 -70 -91 0
-28 -70 -98 0
-28 -70 -105 0
-28 -77 -84 0
-28 -77 -91 0
-28 -77 -98 0
-28 -77 -105 0
-28 -84 -91 0
-28 -84 -98 0
-28 -84 -105 0
-28 -91 -98 0
-28 -91 -105 0
-28 -98 -105 0
-35 -42 -49 0
-35 -42 -56 0
-35 -42 -63 0
-35 -42 -70 0
-35 -42 -77 0
-35 -42 -84 0
-35 -42 -91 0
-35 -42 -98 0
-35 -42 -105 0
-35 -49 -56 0
-35 -49 -63 0
-35 -49 -70 0
-35 -49 -77 0
-35 -49 -84 0
-35 -49 -91 0
-35 -49 -98 0
-35 -49 -105 0
-35 -56 -63 0
-35 -56 -70 0
-35 -56 -77 0
-35 -56 -84 0
-35 -56 -91 0
-35 -56 -98 0
-35 -56 -105 0
-35 -63 -70 0
-35 -63 -77 0
-35 -63 -84 0
-35 -63 -91 0
-35 -63 -98 0
-35 -63 -105 0
-35 -70 -77 0
-35 -70 -84 0
-35 -70 -91 0
-35 -70 -98 0
-35 -70 -105 0
-35 -77 -84 0
-35 -77 -91 0
-35 -77 -98 0
-35 -77 -105 0
-35 -84 -91 0
-35 -84 -98 0
-35 -84 -105 0
-35 -91 -98 0
-35 -91 -105 0
-35 -98 -105 0
-42 -49 -56 0
-42 -49 -63 0
-42 -49 -70 0
-42 -49 -77 0
-42 -49 -84 0
-42 -49 -91 0
-42 -49 -98 0
-42 -49 -105 0
-42 -56 -63 0
-42 -56 -70 0
-42 -56 -77 0
-42 -56 -84 0
-42 -56 -91 0
-42 -56 -98 0
-42 -56 -105 0
-42 -63 -70 0
-42 -63 -77 0
-42 -63 -84 0
-42 -63 -91 0
-42 -63 -98 0
-42 -63 -105 0
-42 -70 -77 0
-42 -70 -84 0
-42 -70 -91 0
-42 -70 -98 0
-42 -70 -105 0
-42 -77 -84 0
-42 -77 -91 0
-42 -77 -98 0
-42 -77 -105 0
-42 -84 -91 0
-42 -84 -98 0
-42 -84 -105 0
-42 -91 -98 0
-42 -91 -105 0
-42 -98 -105 0
-49 -56 -63 0
-49 -56 -70 0
-49 -56 -77 0
-49 -56 -84 0
-49 -56 -91 0
-49 -56 -98 0
-49 -56 -105 0
-49 -63 -70 0
-49 -63 -77 0
-49 -63 -84 0
-49 -63 -91 0
-49 -63 -98 0
-49 -63 -105 0
-49 -70 -77 0
-49 -70 -84 0
-49 -70 -91 0
-49 -70 -98 0
-49 -70 -105 0
-49 -77 -84 0
-49 -77 -91 0
-49 -77 -98 0
-49 -77 -105 0
-49 -84 -91 0
-49 -84 -98 0
-49 -84 -105 0
-49 -91 -98 0
-49 -91 -105 0
-49 -98 -105 0
-56 -63 -70 0
-56 -63 -77 0
-56 -63 -84 0
-56 -63 -91 0
-56 -63 -98 0
-56 -63 -105 0
-56 -70 -77 0
-56 -70 -84 0
-56 -70 -91 0
-56 -70 -98 0
-56 -70 -105 0
-56 -77 -84 0
-56 -77 -91 0
-56 -77 -98 0
-56 -77 -105 0
-56 -84 -91 0
-56 -84 -98 0
-56 -84 -105 0
-56 -91 -98 0
-56 -91 -105 0
-56 -98 -105 0
-63 -70 -77 0
-63 -70 -84 0
-63 -70 -91 0
-63 -70 -98 0
-63 -70 -105 0
-63 -77 -84 0
-63 -77 -91 0
-63 -77 -98 0
-63 -77 -105 0
-63 -84 -91 0
-63 -84 -98 0
-63 -84 -105 0
-63 -91 -98 0
-63 -91 -105 0
-63 -98 -105 0
-70 -77 -84 0
-70 -77 -91 0
-70 -77 -98 0
-70 -77 -105 0
-70 -84 -91 0
-70 -84 -98 0
-70 -84 -105 0
-70 -91 -98 0
-70 -91 -105 0
-70 -98 -105 0
-77 -84 -91 0
-77 -84 -98 0
-77 -84 -105 0
-77 -91 -98 0
-77 -91 -105 0
-77 -98 -105 0
-84 -91 -98 0
-84 -91 -105 0
-84 -98 -105 0
-91 -98 -105 0
-798 1579 1668 0
-150 -266 -1447 0
-251 481 -1406 0
352 -1064 -1670 0
-674 819 1856 0
-253 -635 1207 0
-114 1134 -1521 0
-311 -1539 -1780 0
-1057 -1491 -1629 0
-735 1355 1587 0
245 1472 1861 0
854 1100 1832 0
1153 -1610 -1668 0
-802 1218 -1424 0
-567 1445 1812 0
-540 -1118 1408 0
329 1398 -1449 0
416 444 -1647 0
-120 563 -1134 0
636 -1645 1730 0
333 549 1846 0
-326 929 -1274 0
673 1337 1490 0
-179 -544 -681 0
186 -783 -1452 0
-110 -653 1831 0
416 646 1792 0
-586 794 1734 0
501 1167 -1484 0
539 -890 -945 0
-240 -440 1339 0
-137 206 1532 0
897 1153 1293 0
-113 1355 -1389 0
141 490 1474 0
-154 -912 1800 0
-193 1343 -1563 0
514 1616 1745 0
-770 -1037 -1612 0
467 -884 -1497 0
278 -1597 -1603 0
414 1028 -1655 0
137 -1269 1601 0
288 -1070 1783 0
-351 1166 1430 0
-279 1281 -1300 0
569 968 -1194 0
177 1096 -1512 0
1167 -1423 -1840 0
-703 1127 1311 0
605 -815 -1818 0
358 1138 1458 0
377 457 1367 0
-750 1125 -1527 0
-503 781 1026 0
208 1364 1380 0
953 -1352 -1849 0
-372 -1646 1683 0
1226 -1264 -1423 0
-489 827 1350 0
-134 -476 -1616 0
-1597 1603 1857 0
-1320 -1362 -1619 0
-484 -991 -1065 0
-274 -1635 1801 0
663 -879 -1433 0
-562 -592 -674 0
-147 -261 -654 0
-398 -707 -1408 0
-591 -1148 -1606 0
646 -822 1278 0
-493 -524 -1388 0
768 1053 -1255 0
945 -1635 -1762 0
673 822 -1856 0
-174 -1007 -1466 0
314 1130 1277 0
131 -502 -1053 0
512 -1502 -1721 0
-126 720 -1485 0
1095 -1260 1712 0
-1131 -1423 -1660 0
1111 1341 -1651 0
-107 -622 719 0
-239 -391 1460 0
511 -1314 1857 0
-475 -1135 1175 0
467 1488 -1500 0
605 -942 1224 0
448 614 -1473 0
-193 1086 -1088 0
-131 715 -1523 0
-300 414 -424 0
734 804 -1326 0
823 -952 -1438 0
281 417 1405 0
-377 1359 1618 0
-278 -1139 1175 0
-213 778 1737 0
357 -681 1280 0
-537 764 1770 0
-716 1584 1684 0
-169 934 -1608 0
555 1057 -1718 0
-1014 -1210 1737 0
-873 -949 1687 0
313 416 789 0
175 -418 -487 0
402 728 1444 0
-601 -1214 -1301 0
-783 1126 -1721 0
-797 828 -1662 0
621 632 -638 0
-213 719 1700 0
-837 -1296 1445 0
968 1428 1735 0
-363 -710 -1491 0
-110 320 -1310 0
341 -985 1469 0
-150 292 1769 0
469 -819 1135 0
195 1035 1542 0
454 -652 -975 0
646 863 -1257 0
-695 -973 -1766 0
-1254 1668 1776 0
-611 675 -718 0
-451 -1201 -1512 0
260 -540 -1614 0
-729 -1206 1495 0
-233 -915 1114 0
-596 1505 1768 0
-527 909 -1232 0
-449 907 1072 0
437 -1509 1813 0
394 1521 1831 0
-736 -763 -1004 0
498 533 -1646 0
-488 -1200 1754 0
-687 -1167 -1480 0
1080 1154 1568 0
134 675 1315 0
-861 1172 -1547 0
235 -849 -1468 0
280 -386 -442 0
322 1549 1617 0
-213 850 -933 0
-1448 1473 1622 0
-236 323 1680 0
180 429 1025 0
345 -525 -766 0
444 -1046 -1747 0
-262 -470 1671 0
745 943 1143 0
-488 -1426 -1459 0
-333 682 -1183 0
-497 -1273 1778 0
-177 -1109 1388 0
854 -1042 1232 0
371 -1532 1722 0
531 1170 -1494 0
-493 -1381 1437 0
386 570 -1831 0
204 -941 1215 0
-496 1014 1020 0
-908 1334 -1525 0
-267 360 663 0
-832 1213 1303 0
-804 1350 -1391 0
-166 -677 -769 0
492 -1393 -1721 0
220 -507 1832 0
658 1445 -1467 0
880 -893 -1095 0
-432 -799 1058 0
192 -217 341 0
-985 -1525 1738 0
1258 -1333 -1775 0
-208 -438 -1254 0
1337 -1347 -1638 0
314 881 -1027 0
283 -527 982 0
-1111 -1470 -1724 0
1257 1508 -1512 0
335 896 1020 0
-422 -1077 -1762 0
-842 957 1207 0
-952 -1315 1398 0
1129 1162 1320 0
707 800 -1445 0
944 -970 1719 0
-443 755 1586 0
243 -716 -1114 0
-712 -1803 1832 0
312 954 -1620 0
-398 954 1387 0
1657 -1687 -1726 0
-728 1245 -1262 0
1095 -1378 -1601 0
466 1176 1458 0
214 -315 -738 0
878 -955 -1403 0
111 266 -1398 0
-116 291 -1635 0
-594 -1093 -1483 0
232 -284 -1614 0
-492 1182 -1300 0
464 -615 -1561 0
189 -1372 1850 0
-1036 1039 1194 0
-491 842 1130 0
1249 -1536 -1549 0
-672 896 967 0
-1267 1564 1622 0
-146 323 -1577 0
-118 427 1682 0
-861 -1041 -1469 0
-260 1236 1390 0
-128 -1592 -1680 0
949 1131 -1664 0
844 -1082 1861 0
-497 976 -1238 0
-143 1339 -1664 0
-842 1254 1394 0
499 885 -1768 0
-228 -1348 1613 0
-302 1240 1613 0
-200 1205 1375 0
1046 -1374 -1832 0
655 1151 1734 0
124 1337 -1454 0
-662 1319 1435 0
604 890 -1208 0
-367 -1210 1370 0
-905 -954 1448 0
-518 -879 1815 0
664 703 1848 0
-148 630 841 0
210 1212 -1402 0
-303 591 770 0
616 693 -1571 0
446 -771 1740 0
278 1732 -1770 0
-191 477 -1503 0
961 1082 1378 0
-201 541 970 0
-456 -573 1715 0
-1188 -1507 1659 0
636 1063 -1465 0
368 -1215 1391 0
688 1065 -1455 0
148 559 -1099 0
-184 -217 -848 0
-598 -1070 1861 0
-1194 1420 1684 0
1099 -1131 1795 0
394 946 1398 0
514 1114 -1176 0
-1309 1530 -1672 0
189 1456 1831 0
1037 -1280 -1363 0
-118 -1140 -1703 0
-628 -1768 1859 0
-484 1148 1418 0
345 -969 1682 0
715 770 1103 0
249 -713 -1607 0
801 1309 -1746 0
-601 1218 1392 0
1153 1549 1697 0
157 -296 515 0
691 -833 -1281 0
-127 -237 872 0
495 1655 -1715 0
1573 -1633 1736 0
545 813 -1640 0
-1047 1118 -1484 0
137 342 1708 0
532 -1109 -1851 0
412 -433 -1855 0
119 264 -1763 0
-1039 1146 -1258 0
971 -1657 1819 0
-143 354 861 0
476 999 1476 0
336 -794 -889 0
123 823 -1588 0
-250 373 -505 0
-523 -678 1098 0
1010 -1383 -1834 0
-336 1378 1405 0
-196 927 -1316 0
250 -977 -1398 0
366 -556 -1116 0
-1249 1590 -1680 0
519 1254 1283 0
554 -924 1677 0
-626 -1224 1370 0
-983 1466 1495 0
-379 622 -644 0
1232 1701 -1853 0
-384 -1618 1666 0
415 807 -1647 0
331 -907 1024 0
593 -752 1229 0
-678 1329 1437 0
366 1249 -1608 0
201 1448 -1856 0
369 -709 -1467 0
279 732 1556 0
811 1189 -1664 0
-130 -571 -750 0
-860 -1066 -1663 0
1140 1156 -1641 0
593 -702 1535 0
-395 -942 1806 0
1428 1474 1549 0
433 733 -1366 0
902 -1478 1580 0
1120 -1193 -1567 0
202 1491 1734 0
327 -366 -515 0
-237 283 -306 0
187 1325 -1798 0
573 -1091 1545 0
-142 -275 1400 0
1234 -1333 1371 0
1076 1131 1530 0
1062 -1250 1600 0
448 975 1747 0
575 622 -665 0
-1179 -1315 1573 0
-330 982 1482 0
710 -744 -1818 0
727 -1400 1451 0
195 623 -1632 0
481 -879 -1545 0
-1539 -1725 1826 0
-552 842 1339 0
1302 1575 1644 0
-533 -617 1256 0
1471 -1670 -1789 0
-122 148 1113 0
293 370 1512 0
-1065 -1239 -1283 0
-471 579 -1289 0
513 1309 -1430 0
-1112 -1667 1819 0
-518 -629 -1598 0
826 -848 1615 0
445 454 573 0
-983 -1092 1097 0
559 1128 1296 0
-416 487 -830 0
-501 617 1014 0
940 1436 1507 0
-258 1316 -1335 0
563 1425 -1696 0
-416 -758 1225 0
-787 1137 -1554 0
821 1429 -1715 0
1268 -1292 1294 0
927 -1128 -1271 0
363 -667 1858 0
-383 -1377 1490 0
571 -1015 1625 0
-142 -1091 1194 0
913 -1613 1641 0
-383 -599 -1564 0
-193 -972 1775 0
899 -1079 1128 0
712 1149 1708 0
971 1442 -1748 0
562 -653 897 0
115 276 -991 0
872 1164 1607 0
-648 -676 -1269 0
1260 -1569 1672 0
-909 935 1594 0
-252 -413 1397 0
-659 816 1020 0
-593 -734 791 0
-441 -996 1824 0
-1297 -1459 -1819 0
119 -952 -1737 0
347 -1162 1224 0
-1001 1138 1356 0
685 774 -929 0
314 494 -1546 0
353 -460 1206 0
688 825 1220 0
935 1159 1423 0
194 -683 941 0
850 -1671 1769 0
969 -1161 -1302 0
-768 -1453 -1576 0
-604 -800 911 0
228 -1127 -1131 0
350 366 1246 0
262 1398 -1509 0
232 -1227 1520 0
141 -1227 1492 0
-335 492 883 0
-388 1114 -1765 0
-297 1000 1753 0
-202 502 -1481 0
459 -1243 -1390 0
-824 -1164 -1485 0
-521 1334 -1434 0
-127 -1179 -1830 0
-249 1443 -1659 0
-337 1358 -1729 0
-345 -703 830 0
126 316 -1247 0
659 859 1731 0
-216 628 -841 0
308 -594 945 0
619 634 -1752 0
1081 1261 1503 0
550 -570 -687 0
465 -505 -1041 0
274 1398 -1547 0
294 -801 1506 0
-601 -754 1591 0
-666 -668 1128 0
-793 1239 1393 0
-885 -1347 -1697 0
-586 1100 1167 0
-205 -813 -1655 0
824 -1280 1746 0
199 -560 -1019 0
155 -1276 1801 0
767 1741 1748 0
129 209 1283 0
-305 474 1510 0
-1348 -1526 -1829 0
-1077 1486 -1566 0
-762 -896 -1010 0
727 -966 -1097 0
275 314 1720 0
360 -818 -1822 0
327 768 1762 0
-237 -1108 1385 0
173 884 947 0
197 -335 -1858 0
-784 -978 -1809 0
779 1036 -1737 0
-296 -930 -1513 0
226 667 -1289 0
-1210 1604 1641 0
-1076 1530 1558 0
659 1657 -1826 0
1252 1413 -1564 0
825 -1119 -1177 0
535 1027 1755 0
378 -728 765 0
-399 -1174 -1708 0
-780 1507 1679 0
943 989 -1269 0
-271 -430 1399 0
-342 -469 -1421 0
1165 1473 -1665 0
-1352 1606 1746 0
1395 1517 -1832 0
-1301 -1721 -1781 0
-175 1124 -1432 0
606 916 -1031 0
259 1004 -1052 0
-206 -1232 -1632 0
543 -1357 -1597 0
-884 926 -1586 0
342 -582 -900 0
1034 -1131 -1858 0
-435 -585 665 0
-261 -904 -1009 0
194 -451 -1161 0
-926 -1133 1554 0
155 196 1024 0
860 889 1498 0
134 -303 606 0
626 1031 -1728 0
-603 -1186 1745 0
-986 -1557 -1745 0
-1566 -1590 1828 0
-142 -1179 1437 0
-1239 1367 1655 0
-278 -663 1820 0
-442 -1410 1809 0
-701 1215 -1691 0
-175 1181 1679 0
-505 -778 1469 0
-643 1144 -1805 0
463 -1341 -1765 0
314 1355 -1500 0
641 857 1051 0
392 -544 -1148 0
-317 -1401 -1434 0
-700 -1186 -1667 0
-589 -693 -1079 0
303 691 -1026 0
876 1020 -1856 0
690 1374 -1768 0
798 1116 1448 0
134 377 -640 0
399 -1170 1738 0
-866 1134 -1537 0
-214 -317 1057 0
732 1267 -1422 0
442 503 1814 0
-547 -1561 -1673 0
-638 1287 -1831 0
-1443 1561 1756 0
-860 894 1340 0
-584 1353 -1379 0
-454 1320 1603 0
-947 952 958 0
592 -910 1123 0
-421 -656 1831 0
-564 785 -1477 0
-778 1280 1336 0
1025 1253 -1376 0
135 904 -1827 0
162 1337 -1402 0
754 -919 -1538 0
-1126 1584 -1795 0
-756 -1064 1203 0
-368 -1532 -1586 0
-123 -908 1145 0
-354 855 -1283 0
201 606 1849 0
-435 824 -1172 0
-318 333 -1375 0
520 1170 -1860 0
358 1238 -1531 0
-443 670 1636 0
166 -400 -651 0
342 811 -1074 0
-423 1095 1696 0
-454 943 950 0
-1330 1584 -1597 0
-155 -1213 1413 0
901 1161 1785 0
547 -682 -785 0
-671 -1150 1807 0
465 1626 1796 0
265 -530 1377 0
348 -547 1539 0
-531 690 1826 0
204 754 -1014 0
209 -631 1701 0
-299 -1055 -1147 0
-215 -743 1676 0
-112 -1040 -1792 0
-380 678 1216 0
280 1309 1565 0
1282 1385 -1801 0
-209 1486 -1515 0
231 -890 -925 0
-543 593 1590 0
1493 -1514 1534 0
194 868 1763 0
-699 -1066 1832 0
657 991 1854 0
445 466 988 0
-715 -965 -1753 0
898 1063 1066 0
714 -1081 1128 0
263 271 1336 0
830 -919 -1595 0
282 -1405 -1695 0
-751 -1279 -1573 0
-546 1327 -1517 0
-222 1024 -1700 0
-483 734 1791 0
726 -1292 -1499 0
-567 878 -1275 0
695 -1092 -1317 0
1061 -1376 -1601 0
124 506 1739 0
118 1248 -1514 0
556 -1526 1680 0
-184 -387 1777 0
162 1127 1616 0
450 -667 -811 0
-1150 -1516 -1812 0
-612 1189 1413 0
-894 -1553 1851 0
-860 968 1299 0
669 741 -794 0
642 760 1167 0
133 1306 -1673 0
-363 -1017 1436 0
552 971 -1709 0
-820 -1578 1699 0
-830 975 1256 0
-1059 1273 1481 0
335 356 1633 0
-231 -1150 1723 0
107 190 922 0
-718 -1027 1847 0
-1459 1839 -1841 0
143 1592 -1661 0
1727 1800 1826 0
-158 -317 -1255 0
300 -354 -1142 0
550 645 -951 0
735 -1619 -1752 0
-108 1148 -1860 0
739 1592 -1782 0
-167 -781 1042 0
386 -744 -921 0
-527 -896 -1639 0
320 -995 -1845 0
-427 603 -1824 0
-561 -1042 -1577 0
-126 -882 927 0
292 -577 1405 0
-755 941 -1697 0
691 1304 -1524 0
434 1011 1745 0
928 1371 -1519 0
-277 -928 1010 0
-286 -1305 1449 0
421 -980 1845 0
449 850 -855 0
-372 1670 1700 0
-978 -1072 -1500 0
327 728 1623 0
-407 -1167 -1597 0
1178 -1462 1756 0
1133 1701 1823 0
-677 -1689 1788 0
977 1038 1407 0
-264 503 1781 0
-267 -565 775 0
130 -158 433 0
-499 634 -725 0
822 -1616 -1815 0
-348 545 -731 0
-145 -1216 -1801 0
800 -1586 -1677 0
-155 -389 690 0
1171 1670 -1816 0
-274 -489 -1804 0
190 220 958 0
489 -1053 -1256 0
106 -432 -1429 0
-355 -648 1516 0
400 1756 -1802 0
-669 -1535 -1549 0
401 -737 -1300 0
150 -236 -315 0
-993 -1432 1648 0
197 1366 -1644 0
-933 1526 1611 0
746 1188 1719 0
-501 -1221 1256 0
-976 1189 1756 0
-1654 -1754 1833 0
896 1247 -1518 0
-257 665 1021 0
-659 1472 1672 0
242 -352 -628 0
-305 939 -1793 0
940 1063 1411 0
275 1395 1713 0
-269 570 -1711 0
929 -1265 -1714 0
144 664 1053 0
-312 -485 -1509 0
631 728 -847 0
-557 -1223 -1552 0
-939 -1254 1770 0
1451 -1504 1587 0
-626 1523 -1720 0
1481 1510 1814 0
-614 686 -1833 0
247 -1053 -1134 0
961 1077 -1557 0
-380 469 -1140 0
751 1276 1547 0
312 -1444 -1470 0
847 1345 -1538 0
190 -901 -1500 0
-720 -1182 -1662 0
236 1108 -1788 0
904 -1042 1175 0
-111 -537 1508 0
370 1050 -1753 0
-628 1568 -1579 0
306 1201 1742 0
635 731 -1542 0
998 -1040 -1833 0
-142 1029 -1255 0
-423 -1095 1139 0
259 296 -1086 0
-113 598 -1162 0
1275 1402 -1858 0
743 1576 1777 0
-229 521 964 0
304 -361 732 0
935 959 1711 0
-1659 -1708 -1817 0
-351 1242 1515 0
421 -813 1489 0
187 -513 -1249 0
-285 593 977 0
277 474 1850 0
-878 -1394 1569 0
-377 400 853 0
253 -492 -1822 0
938 1205 -1427 0
-788 1168 -1326 0
-1061 -1275 -1354 0
337 550 -811 0
625 837 -1594 0
-143 -591 -776 0
323 1005 -1356 0
375 683 1251 0
743 -1324 1455 0
806 -1183 -1522 0
-307 -573 1574 0
-1071 1201 -1639 0
600 -1294 -1739 0
144 318 1378 0
-729 1023 1454 0
-394 1202 1497 0
203 954 1470 0
-205 499 -1763 0
504 -1631 -1770 0
-595 777 -1253 0
-654 -940 -1855 0
558 709 1686 0
-324 -925 -1133 0
-1239 1314 -1696 0
-620 -648 688 0
659 -911 942 0
1552 -1717 -1805 0
1068 1122 -1716 0
453 -856 1822 0
410 -755 -1600 0
789 1361 -1805 0
1207 -1261 -1398 0
662 948 1382 0
-291 -766 -1484 0
-427 -569 890 0
-773 1274 -1804 0
-713 -743 1127 0
422 -866 -1529 0
-1186 -1654 1796 0
126 -405 584 0
174 -694 1229 0
241 283 1362 0
-178 1034 -1562 0
-555 1688 1705 0
272 752 -1084 0
-314 352 1270 0
813 -971 -1236 0
-340 -798 964 0
611 1000 -1841 0
263 678 -849 0
365 -1244 1795 0
-331 -909 -1304 0
-839 1198 1628 0
122 354 1340 0
-1578 -1721 -1739 0
-1088 -1166 1405 0
-1202 1296 1815 0
-442 847 -1356 0
941 -1093 -1796 0
-502 668 -1448 0
-509 -1279 1575 0
838 -1293 1567 0
165 1106 -1375 0
-812 -1327 1562 0
601 -1342 1646 0
-304 -348 1512 0
-544 -981 -1628 0
-390 822 1190 0
-153 1401 1720 0
-146 958 -1303 0
-1285 1327 -1861 0
-185 -268 615 0
-539 1066 -1461 0
-205 1625 1629 0
-368 -483 -914 0
-1481 -1551 1638 0
-407 -689 965 0
302 543 -1298 0
-119 330 -862 0
755 -956 -1292 0
-692 959 1230 0
-528 -1014 1792 0
216 297 1688 0
718 1023 1074 0
-814 -1026 -1235 0
-877 1270 -1411 0
-953 -1633 1635 0
-281 887 952 0
1557 -1828 -1857 0
167 -302 849 0
-749 1456 1755 0
448 584 631 0
-164 419 611 0
-340 -576 -1378 0
-552 -959 -1082 0
-1352 1431 1792 0
1124 1223 -1475 0
-191 -439 -1312 0
424 679 1379 0
-566 1079 1647 0
-724 1048 1110 0
1145 1264 1726 0
200 -209 -1114 0
350 1122 -1795 0
-1038 1160 1464 0
-965 1212 -1424 0
562 -1049 -1639 0
-465 553 -906 0
-249 -898 1351 0
314 793 -1649 0
-518 -680 1219 0
1772 -1804 -1810 0
805 1172 1483 0
-153 969 -1266 0
533 932 -1060 0
-1233 1523 1852 0
179 345 -575 0
-193 -760 1333 0
145 -1234 1685 0
296 -1268 1487 0
-255 1410 1649 0
343 606 -1249 0
-541 -763 1278 0
-1230 -1268 1628 0
985 -1030 -1591 0
795 1114 -1294 0
722 1275 -1366 0
271 398 -694 0
-737 -1305 -1705 0
384 593 1171 0
-567 -1205 -1749 0
-523 573 1764 0
596 -1019 1036 0
-127 190 1104 0
242 -343 627 0
-655 -1702 1817 0
-546 -1078 -1287 0
564 1348 -1455 0
192 426 1415 0
-198 -755 1039 0
351 -484 1058 0
770 -1552 -1700 0
-151 628 -1617 0
-378 713 1788 0
197 890 -1372 0
-191 357 829 0
-391 911 -987 0
-461 813 -1224 0
-203 267 -1302 0
683 -1140 -1252 0
-268 874 1464 0
-353 -429 1100 0
458 -801 1524 0
373 -918 -1118 0
-440 1197 -1557 0
1155 1406 -1486 0
-206 566 -1648 0
-180 650 -1673 0
417 496 -915 0
273 -710 921 0
-907 -1187 1629 0
-565 -1651 -1678 0
-408 556 -1566 0
886 -1027 1647 0
-949 963 1634 0
739 -1389 -1473 0
257 -1006 1611 0
-729 -1683 -1782 0
878 945 -1129 0
-304 -568 -1232 0
258 -543 1359 0
-125 -201 1259 0
-176 -544 -588 0
-1124 1211 -1588 0
239 -687 750 0
519 -766 -1604 0
-503 -517 -1663 0
271 1434 -1718 0
-149 296 -845 0
-273 -463 1046 0
-954 1344 -1366 0
-633 -1562 -1794 0
918 1038 1227 0
-263 562 -969 0
-284 -977 -1651 0
-680 994 -1622 0
235 952 -1409 0
-717 -1260 -1346 0
-400 850 -871 0
-412 -721 1340 0
879 -1425 1834 0
-890 -1405 -1568 0
-485 -1248 1849 0
137 -761 -1529 0
-219 254 -1548 0
1110 -1644 -1803 0
517 779 -1190 0
1014 -1396 -1529 0
407 609 -1733 0
191 -1333 -1769 0
1295 -1310 1741 0
-789 798 887 0
521 -633 -1296 0
893 -1631 1860 0
218 1625 1685 0
-289 -592 1778 0
-789 1001 -1356 0
-497 762 -1464 0
266 -521 846 0
257 1201 -1337 0
246 568 -1143 0
-386 409 886 0
910 -1440 1819 0
-278 -377 -1107 0
-957 1260 1313 0
-380 -738 1824 0
180 -1358 1660 0
-244 1051 -1735 0
-818 -1097 1741 0
-131 -894 -1440 0
-435 766 1521 0
130 717 1099 0
1497 1547 1825 0
401 -693 -1556 0
1014 1377 1651 0
839 928 1166 0
394 -514 -1492 0
-1066 -1193 -1286 0
-1239 -1613 -1835 0
202 1064 -1752 0
236 1142 -1321 0
175 683 817 0
-519 -632 -673 0
318 -1493 1682 0
-131 -513 517 0
-1016 -1524 -1611 0
-190 -213 714 0
990 1061 1606 0
663 -1099 -1437 0
531 684 -1622 0
-700 -1280 1497 0
436 -1171 1532 0
-661 -794 -1656 0
184 -526 -1250 0
1078 1427 1507 0
293 -1203 -1279 0
731 1191 -1448 0
-591 1267 1696 0
-834 -1314 1410 0
-390 -908 -1271 0
-358 873 1340 0
1127 1200 -1278 0
837 -1110 1709 0
-424 -1291 -1453 0
962 -1499 1802 0
-310 -959 1323 0
-129 204 -1218 0
221 -477 -1613 0
590 903 1816 0
-318 -570 1210 0
-1281 1401 1649 0
804 -1032 -1180 0
-108 -387 -1474 0
-212 1357 1574 0
163 208 -373 0
-402 -849 -1630 0
856 1235 -1861 0
1070 -1432 1607 0
-598 725 -1859 0
-1521 -1629 1796 0
108 -504 1749 0
-523 -1591 -1611 0
1294 1564 -1682 0
484 -1255 1732 0
-542 -1397 -1428 0
-657 -862 -1058 0
583 -608 -773 0
-332 -414 1329 0
-265 -419 1050 0
-1103 -1286 -1595 0
-406 -1096 -1613 0
-212 894 -1584 0
933 1327 1662 0
182 -1339 1796 0
571 1545 1636 0
-295 -878 1818 0
-1270 -1757 1856 0
483 1023 -1235 0
-663 -744 792 0
-285 784 -1082 0
-714 1426 1858 0
-328 -1050 -1258 0
800 1069 1563 0
-145 -1324 1636 0
-774 -1349 -1555 0
-650 831 -1705 0
914 1113 1391 0
527 -878 1775 0
268 -416 -1455 0
-1055 -1394 -1542 0
232 873 1528 0
-290 -800 -1222 0
-1227 -1375 1847 0
500 633 1042 0
243 595 1472 0
1319 -1427 1557 0
-334 -1153 -1158 0
446 1420 1630 0
234 1213 1795 0
277 1585 1685 0
793 -1483 1706 0
187 696 1754 0
-1013 -1176 1588 0
-137 1171 -1360 0
138 -927 -1750 0
152 1004 -1111 0
-383 465 -1499 0
-450 -1236 -1547 0
137 -1327 -1822 0
-437 -1212 1361 0
-455 -992 1818 0
-129 461 -863 0
352 689 -1272 0
616 -682 1316 0
548 814 966 0
-474 570 -1336 0
-198 640 1745 0
-130 -1222 1691 0
-195 516 -1838 0
655 -747 1272 0
-824 1075 1243 0
618 -671 -956 0
125 721 906 0
707 -1652 -1820 0
306 -1280 1642 0
-146 771 -902 0
346 1025 1839 0
-842 -1600 -1603 0
260 -1250 -1612 0
-490 -608 -1185 0
452 -1600 1852 0
-107 -419 1286 0
145 161 1846 0
686 1153 1408 0
225 -1188 -1532 0
-855 1475 1647 0
-539 -1772 -1838 0
135 -350 -1699 0
-437 530 -1290 0
492 958 -1375 0
467 -513 1325 0
661 -1219 1628 0
410 -1358 1626 0
-361 425 -1149 0
-594 -911 -1106 0
-252 1611 1715 0
-631 -888 1636 0
-647 1102 -1854 0
292 -1439 1611 0
728 -873 1230 0
490 1225 1501 0
552 765 1716 0
538 -1128 -1832 0
-257 1093 1458 0
-1165 1541 -1577 0
908 -1306 1332 0
-111 -653 1342 0
334 -1268 -1597 0
631 1055 1482 0
1071 -1091 1098 0
-108 -368 728 0
-692 -951 -1031 0
499 -673 -1754 0
687 -816 -1219 0
-745 934 1839 0
883 -1256 -1629 0
243 -988 1706 0
-1223 -1409 1811 0
561 1487 1527 0
-164 165 -1195 0
-1216 -1372 1821 0
389 1167 1818 0
273 -760 1691 0
-263 -1108 -1439 0
-351 993 -1343 0
-306 998 1138 0
894 -1684 1689 0
-321 -510 -585 0
178 -1223 -1304 0
793 -950 1437 0
-653 1245 -1728 0
836 1184 1817 0
654 -1183 1586 0
469 -846 -1540 0
-586 957 -1378 0
623 -1498 1733 0
448 -1279 -1285 0
-542 -799 1566 0
256 -456 -1697 0
-452 -494 -1080 0
235 775 -1285 0
-848 951 1068 0
-694 -1360 -1528 0
925 1432 1744 0
-1290 1610 1799 0
916 -1145 1832 0
-417 -1392 -1645 0
642 839 -1773 0
183 -235 -1087 0
139 209 1662 0
116 -620 842 0
-1288 1521 1810 0
166 -514 -914 0
297 -1225 1701 0
394 864 1522 0
112 -207 636 0
-719 1380 1555 0
-126 343 1094 0
685 -1439 1630 0
-1199 1577 -1580 0
-213 -540 -652 0
-1125 -1268 1822 0
-1354 -1456 -1738 0
132 -321 -363 0
-158 705 1669 0
-220 617 -997 0
-695 -1480 1542 0
838 1186 -1404 0
-695 1411 -1572 0
-289 -429 -736 0
316 449 -1740 0
832 -1322 1484 0
1399 1438 -1800 0
-402 1099 -1320 0
349 1256 -1604 0
-1169 -1560 1797 0
-342 683 -1798 0
-1095 1437 -1469 0
325 -830 1407 0
272 -1131 1548 0
-1145 1318 -1365 0
-743 -1557 -1595 0
-410 1308 1648 0
-668 -1238 1290 0
284 1015 -1233 0
-838 933 -966 0
1445 1508 -1579 0
-589 644 -1571 0
-322 -383 757 0
-726 -1462 1772 0
-563 962 -1286 0
741 -1296 1575 0
-256 1503 -1816 0
499 1745 -1818 0
550 1023 1383 0
-308 751 1191 0
1036 1245 1781 0
444 -756 -1691 0
-452 1317 1821 0
-818 -1381 1407 0
221 323 686 0
-364 654 867 0
472 1337 -1859 0
841 -848 -1012 0
255 -1475 1509 0
145 -1263 -1740 0
549 899 -1796 0
-806 891 -1433 0
1145 -1454 -1585 0
486 1487 -1801 0
-130 -1207 -1344 0
-157 -661 909 0
675 -696 -947 0
756 -1280 1803 0
1028 1329 -1548 0
-517 -608 975 0
-940 1368 -1627 0
-764 951 1573 0
189 1367 -1846 0
476 687 994 0
-291 -550 585 0
-999 1120 1158 0
-639 1539 -1692 0
-106 -1610 1846 0
350 925 1542 0
903 1416 1739 0
-525 -1508 -1585 0
-122 -1182 -1224 0
-682 -934 -1657 0
-319 -642 -1860 0
590 996 1573 0
533 864 1509 0
986 -1369 -1710 0
-294 915 -1097 0
863 1064 -1689 0
-580 -1774 -1853 0
231 -252 1787 0
-745 -1436 1789 0
204 -485 1681 0
-264 985 -1006 0
638 -1137 -1583 0
1270 -1394 -1728 0
119 -1342 1597 0
-641 -1213 1804 0
230 -314 -1173 0
-377 409 565 0
328 -823 -1637 0
-849 -1235 1549 0
161 1274 -1484 0
-512 -1070 -1686 0
750 1070 1222 0
-309 569 -1650 0
-470 952 -1014 0
-748 1229 1794 0
972 1705 1759 0
-258 -818 -1023 0
-541 -1172 -1174 0
-205 -1612 -1816 0
106 -364 752 0
245 -1013 -1456 0
399 -1049 -1096 0
522 -608 -1117 0
917 1464 -1509 0
597 -963 -1816 0
287 496 -581 0
836 -1196 -1382 0
191 -1153 1480 0
566 -932 1444 0
1239 1518 1756 0
1567 1821 -1861 0
-435 1656 -1690 0
564 1107 -1582 0
664 -1237 -1375 0
584 -1285 1840 0
838 1049 -1524 0
-137 -527 -903 0
-234 -416 943 0
220 1407 1478 0
-355 612 1704 0
-713 963 -1550 0
178 855 -965 0
535 -907 -1543 0
210 -768 1189 0
180 347 -1022 0
-178 386 1236 0
-433 504 1159 0
-642 -1360 -1574 0
-305 -730 1320 0
-128 -400 696 0
-994 1095 -1137 0
403 509 860 0
-569 -984 1735 0
-603 946 1187 0
1235 1376 1744 0
-1038 -1230 1708 0
-1315 1475 1530 0
-570 -856 -1652 0
-389 -724 -1131 0
326 635 -1057 0
-850 1245 -1798 0
819 -1329 -1496 0
-353 -357 1555 0
-495 545 1107 0
901 -949 -1817 0
663 1134 1257 0
-341 528 863 0
218 1337 -1532 0
-305 -612 1330 0
665 -1030 1749 0
-543 1547 -1856 0
-289 1237 -1417 0
-504 -1154 -1668 0
-232 -288 -639 0
-177 991 1561 0
741 -991 1594 0
492 -581 -1741 0
-445 541 1772 0
-630 1394 -1676 0
-613 1055 1215 0
579 1410 1548 0
861 911 -1329 0
-1042 1112 1510 0
-1470 1737 -1853 0
553 774 -1359 0
734 1298 1756 0
-206 959 961 0
-158 1171 1193 0
1049 -1294 1630 0
-153 460 1135 0
-1247 -1579 -1782 0
195 1330 -1606 0
-472 -775 -1734 0
362 -1230 1790 0
378 -1781 1817 0
457 -602 -846 0
761 1359 1580 0
687 -985 1078 0
-172 661 -1441 0
689 -979 1788 0
119 605 1083 0
635 -1245 -1587 0
-227 -609 -842 0
352 821 829 0
327 1031 -1554 0
-469 575 880 0
-143 -817 1859 0
-964 -1390 -1395 0
196 544 1190 0
-372 727 827 0
-220 1247 -1813 0
-324 -511 1826 0
839 1083 1660 0
-134 -644 -1830 0
-161 -877 1208 0
751 1612 -1803 0
738 988 1692 0
-695 945 -1635 0
-337 -876 1479 0
-541 -1123 1669 0
-253 -750 -1406 0
-111 683 1649 0
-263 -667 -1712 0
-508 -1104 -1406 0
-478 637 1071 0
-718 1391 -1543 0
834 -861 1445 0
444 -1171 -1632 0
-243 894 -976 0
711 -1367 1638 0
741 958 -1283 0
1067 1346 1619 0
-613 1574 1759 0
-507 -692 1519 0
-1258 1439 1596 0
-977 -1322 -1660 0
216 -349 -1444 0
936 -1131 1702 0
154 419 660 0
831 -1211 -1446 0
651 -752 -1096 0
544 -595 1407 0
669 934 1448 0
977 1125 -1804 0
-533 618 958 0
1028 1064 -1704 0
-733 -1015 1857 0
-543 -1115 -1350 0
1170 1192 1351 0
657 -894 1745 0
-719 1251 -1830 0
-298 583 -1253 0
107 506 -1499 0
484 573 -708 0
-600 -994 1493 0
229 -653 -1395 0
1372 -1796 -1813 0
-488 717 1129 0
1375 1568 1626 0
673 -1409 -1475 0
-450 -550 -1639 0
389 -1446 -1674 0
-282 -1091 -1194 0
262 910 1023 0
-1325 -1798 1837 0
-388 -715 803 0
513 -696 1043 0
-636 927 -1225 0
-334 -1358 -1411 0
868 -1072 -1076 0
-625 758 -990 0
139 -552 -556 0
-215 -1329 -1516 0
832 -1097 1476 0
733 1004 -1188 0
-1465 1564 1778 0
-1444 -1681 1836 0
-1124 -1254 1606 0
-381 732 -1847 0
762 -765 1012 0
143 -1115 -1259 0
-369 -967 1836 0
722 881 919 0
212 -1259 1514 0
-120 476 1181 0
-419 761 -1373 0
-245 722 -1581 0
-568 -1206 1665 0
-384 -742 -1667 0
434 -1674 1714 0
383 1223 1665 0
-192 913 -1056 0
-282 742 -1348 0
138 -1320 1525 0
-443 -899 1002 0
305 557 1408 0
-892 1041 -1111 0
-690 1299 1491 0
337 -1229 -1673 0
364 510 -1078 0
371 -382 -601 0
-151 1596 -1823 0
-295 423 -1154 0
1655 1667 -1781 0
139 -176 -1255 0
834 873 -1844 0
1250 1711 1725 0
992 1645 1861 0
876 916 1185 0
-150 -881 -899 0
-814 1209 1615 0
-1191 1273 1367 0
-824 -1094 1604 0
1028 -1126 -1620 0
185 -881 -1674 0
-1261 1275 -1844 0
986 -1364 -1670 0
-809 973 1840 0
575 -825 939 0
293 -832 -1309 0
760 1067 1857 0
553 -1171 1574 0
1335 -1438 1848 0
652 -1443 -1452 0
-667 1029 1628 0
-829 -1222 -1786 0
550 -637 -719 0
-1129 -1205 -1246 0
-972 1159 -1550 0
-415 1779 1819 0
189 -222 -1787 0
524 -786 -1481 0
430 746 -828 0
-312 -962 -969 0
124 -201 -537 0
-864 1201 -1706 0
-664 938 -1774 0
-1107 -1143 1695 0
1037 -1082 1452 0
-1013 1076 1582 0
-537 -826 1572 0
-242 -523 -528 0
161 -596 -1727 0
180 -999 1646 0
151 261 444 0
469 -1268 1345 0
-185 845 -895 0
-258 492 549 0
109 -134 321 0
585 1512 1863 0
740 1263 -1432 0
494 1213 -1664 0
1251 1504 1541 0
403 410 1515 0
-370 1655 -1811 0
524 -657 1374 0
-117 166 1767 0
1126 -1728 1782 0
-1117 -1209 -1748 0
1069 -1200 -1492 0
266 919 -1329 0
132 -656 1211 0
-534 -775 -1030 0
478 812 -862 0
-543 -1237 1699 0
-1318 1325 1752 0
-831 -1465 -1848 0
1074 1207 -1653 0
512 -1188 1517 0
-841 1144 1858 0
-489 1324 1547 0
271 1439 -1505 0
203 291 -1472 0
218 693 1727 0
-656 1357 -1492 0
140 485 -633 0
141 1411 -1789 0
-331 -795 1388 0
-649 973 1802 0
-292 487 -1560 0
943 -1377 -1589 0
257 -602 -1792 0
634 971 1747 0
187 -1077 -1119 0
683 1163 1470 0
1070 -1185 1807 0
-477 587 -1382 0
123 861 1208 0
-1428 -1567 -1733 0
421 1151 -1862 0
561 1272 -1477 0
441 1050 -1247 0
406 452 -1224 0
1032 1459 -1569 0
140 -246 380 0
-285 623 1366 0
-898 1221 1393 0
-607 -1181 -1499 0
440 -1091 1157 0
-1181 -1653 1670 0
-389 -1692 1750 0
-411 -820 1695 0
366 -1148 1830 0
838 971 -1065 0
-1366 -1615 -1767 0
-135 -1504 -1759 0
499 -1256 -1589 0
237 -775 1849 0
-405 -458 -1220 0
-750 1085 1530 0
1197 -1565 -1758 0
231 -997 -1165 0
728 748 1104 0
-429 -1326 -1746 0
594 1431 -1831 0
-326 693 1543 0
609 -775 -882 0
1243 1343 1848 0
977 1334 1380 0
-418 -1510 -1600 0
160 -1422 -1516 0
606 -1019 -1370 0
-949 -1357 1440 0
-1153 -1243 -1743 0
250 -1605 1665 0
564 -1430 -1728 0
-275 612 648 0
-914 -1115 1277 0
511 -1329 -1748 0
122 -770 -1566 0
-518 -1006 -1534 0
837 -1509 1520 0
-121 -968 -1788 0
1073 -1621 1745 0
662 -1288 1717 0
-663 1052 1370 0
-486 1351 -1842 0
-289 895 -1513 0
799 987 -1525 0
898 1471 1808 0
-177 946 -1001 0
210 978 1442 0
474 -1425 -1509 0
-590 -1259 -1704 0
442 1158 -1793 0
621 -1647 1679 0
167 183 964 0
106 220 1056 0
-1199 1483 1537 0
306 1067 1561 0
-440 1169 1844 0
-167 206 1694 0
428 -1321 1860 0
-666 -1776 1796 0
991 1213 -1351 0
716 -1301 -1803 0
524 -580 -1627 0
-494 868 886 0
-319 848 941 0
-266 -422 -765 0
358 -1136 -1478 0
752 1020 -1743 0
497 -948 -987 0
-225 1485 -1533 0
597 -750 1661 0
239 -755 -1381 0
-303 -328 -380 0
631 -767 1166 0
-471 -1175 1807 0
468 1052 -1645 0
-1164 1477 -1525 0
-531 -1132 -1631 0
270 -1202 1655 0
-152 -248 1681 0
-420 -721 851 0
-1566 1617 1734 0
341 421 -1168 0
1206 1251 -1844 0
-495 963 -1657 0
-412 605 716 0
1461 -1554 -1691 0
220 -422 1833 0
-971 -1457 1852 0
444 -966 -1049 0
-285 -304 1714 0
628 734 -1113 0
-237 -455 652 0
385 1071 1583 0
-651 1060 -1154 0
-458 1096 -1273 0
301 976 1801 0
360 -1037 -1268 0
-255 -1103 -1863 0
339 -1189 -1715 0
611 -912 1445 0
352 -428 632 0
-446 858 1178 0
-784 -1668 -1751 0
-111 -1780 1782 0
-489 -1284 1335 0
-233 313 1486 0
-194 -1292 1373 0
-432 -569 807 0
-319 1173 1634 0
-242 276 891 0
984 1178 1618 0
490 -1523 -1829 0
-954 -1500 1545 0
-375 393 817 0
-155 465 670 0
-666 -1264 -1493 0
-171 1021 -1200 0
1802 -1813 -1832 0
329 599 -675 0
876 1309 -1846 0
-591 -711 -979 0
1143 1383 -1448 0
1235 1428 1435 0
-967 1040 -1173 0
-379 936 -1784 0
-347 691 -1128 0
312 1322 1500 0
-1479 -1516 -1620 0
-114 -1463 1468 0
106 -340 -754 0
914 -1022 -1705 0
161 -178 -1476 0
-752 1181 -1599 0
228 809 1481 0
-505 -614 -1507 0
-595 -1718 -1842 0
-1354 -1665 -1694 0
135 775 -1134 0
-1236 -1499 1705 0
149 -713 1222 0
-122 317 -1329 0
-357 359 1004 0
-141 -792 -1157 0
-887 1396 -1700 0
-775 1203 -1661 0
167 -328 -1138 0
740 -1070 -1136 0
377 -987 1576 0
-629 -695 1528 0
-297 -398 1572 0
-682 1371 -1705 0
134 461 -1446 0
173 -925 990 0
1308 1372 1640 0
1250 -1559 1808 0
-670 1155 1428 0
119 226 692 0
256 -322 -1145 0
-193 -391 1617 0
768 1098 1192 0
-465 -1069 1704 0
-757 1637 -1701 0
270 -1670 1721 0
393 565 -1267 0
300 -911 -1574 0
214 1255 1360 0
216 -527 -1802 0
-765 -918 1146 0
-291 1256 1863 0
536 566 1165 0
-384 1340 1532 0
196 427 -677 0
-451 -1667 1856 0
-960 1123 -1624 0
-143 696 -1367 0
-363 439 849 0
323 909 -1474 0
-554 711 -1451 0
-258 789 1675 0
-1499 -1579 -1600 0
598 -1223 -1295 0
565 566 -926 0
621 -1631 1750 0
352 -400 -1711 0
1100 -1228 -1738 0
-671 695 1578 0
1130 1512 -1565 0
1086 1681 -1733 0
768 -904 1718 0
-932 1421 1845 0
-670 1685 -1765 0
-288 823 -1537 0
-1041 -1377 1742 0
255 -291 1475 0
-301 1095 -1365 0
-181 497 1468 0
311 1593 1679 0
991 1206 1690 0
495 -1192 -1211 0
-241 -577 -769 0
-351 -1224 1266 0
-263 531 773 0
-526 1488 1666 0
657 -1092 -1624 0
309 -1311 -1532 0
125 -825 962 0
-1090 -1171 1611 0
925 -1289 1479 0
-852 1514 1827 0
-153 -1040 -1243 0
140 -1116 1445 0
-646 1206 1640 0
1002 -1267 1375 0
-191 1230 1316 0
-177 211 -690 0
708 1338 -1395 0
542 1172 1758 0
204 -573 1588 0
387 526 -1665 0
-511 -1088 -1308 0
-1080 -1138 -1532 0
-433 -829 1159 0
323 -1110 1149 0
-323 412 700 0
-495 -683 873 0
187 1394 -1541 0
535 -1399 -1735 0
-970 -1257 -1440 0
1080 1383 -1477 0
-1435 1485 -1539 0
-243 -1442 1656 0
379 737 -1775 0
-843 1301 -1384 0
106 835 1550 0
194 -982 1794 0
651 -828 -1736 0
-853 -1054 1538 0
-213 612 1206 0
499 -1420 -1613 0
531 1076 1499 0
-243 -554 -841 0
-205 354 622 0
824 -1072 1275 0
-897 899 -1030 0
-221 646 -663 0
833 1572 1851 0
212 543 -1002 0
-569 1034 1054 0
-657 -971 1095 0
124 332 -524 0
1376 -1385 -1859 0
170 -1011 1306 0
-156 -698 -1060 0
-255 -559 1437 0
-169 -1449 1775 0
965 1272 1299 0
-893 1264 -1719 0
561 -669 -1658 0
-400 1288 -1427 0
1198 -1480 1594 0
350 898 1330 0
-1258 -1370 -1683 0
-279 465 1797 0
-731 -1413 1567 0
857 1015 1273 0
161 -930 1788 0
797 -1479 -1852 0
-407 -1066 -1773 0
805 1514 -1659 0
125 1251 -1458 0
-619 866 1230 0
379 405 -790 0
821 -1541 1714 0
375 439 692 0
1060 -1161 -1377 0
459 -1172 -1339 0
-184 -1499 1859 0
1099 1269 1671 0
340 946 -978 0
1009 1272 -1714 0
736 1562 1777 0
510 916 -1801 0
305 -377 1325 0
581 -1393 -1450 0
-285 -351 632 0
-402 473 488 0
242 -731 1476 0
-510 -1085 -1468 0
-385 481 -1823 0
-198 752 1748 0
-1251 -1569 1635 0
-552 -896 1853 0
356 789 1439 0
888 -981 -1151 0
714 1092 1240 0
1554 1641 1827 0
600 -1428 1549 0
-369 1551 -1739 0
-355 936 1516 0
181 759 -800 0
-463 1198 -1731 0
-331 951 -1097 0
311 721 1840 0
-245 -1550 -1608 0
-717 -1188 1822 0
136 138 -1719 0
1184 1249 -1449 0
169 1131 1567 0
-525 909 -1060 0
-619 -1502 1559 0
-512 -1209 1526 0
-565 -901 -1718 0
794 1402 -1574 0
174 -378 844 0
741 864 1531 0
-786 -1045 -1078 0
-385 657 -1394 0
-879 -1166 1694 0
875 -944 1319 0
110 -240 469 0
357 896 -1132 0
-601 1193 -1845 0
-232 678 -1697 0
247 -819 1175 0
-981 1040 1707 0
404 -1206 1640 0
-441 1086 -1361 0
-818 849 -1481 0
245 674 -934 0
163 625 1852 0
308 372 -439 0
-643 1469 1862 0
456 1617 1821 0
-996 -1519 1562 0
-686 -703 -948 0
-507 -1283 1365 0
300 -361 -680 0
-540 626 1771 0
193 700 1521 0
-479 738 -1699 0
-121 446 -644 0
-513 -1085 1820 0
151 872 -1673 0
-108 -701 926 0
-142 -1017 1195 0
920 -1195 1208 0
-380 1399 1738 0
-1395 -1420 -1611 0
-148 -242 -591 0
1355 -1762 -1805 0
342 -365 1773 0
-217 -405 1758 0
1250 1784 1822 0
589 -1089 1139 0
-971 976 -1458 0
-832 -1748 -1838 0
796 1035 -1664 0
-636 -800 -998 0
290 -757 -1088 0
367 1017 -1477 0
-139 -357 452 0
642 -760 864 0
-357 1084 1462 0
-582 -1094 -1438 0
-714 762 -1099 0
664 1193 -1405 0
-510 858 1237 0
-114 -142 881 0
-552 -619 1726 0
788 -875 -1318 0
-275 696 1548 0
-542 1353 1774 0
135 -952 1083 0
749 951 -1578 0
373 -1021 -1197 0
-385 449 1829 0
-222 1278 -1667 0
-125 -1530 1718 0
317 -1604 1652 0
714 -1018 1084 0
-495 -811 -1027 0
-491 1374 1730 0
-539 -1094 1495 0
260 1178 1777 0
-124 1287 1474 0
211 1320 -1801 0
-232 -717 1722 0
-265 510 -1384 0
915 1187 -1261 0
299 911 1339 0
1109 1223 -1260 0
-323 -1256 1665 0
528 -865 1033 0
-158 -1137 -1174 0
-700 1294 1854 0
583 -766 958 0
-258 -1259 1488 0
-717 1202 -1463 0
1346 -1424 1573 0
-285 1510 1848 0
-481 -874 -1715 0
-1019 1475 -1685 0
-223 884 -940 0
-759 1331 -1511 0
362 1067 1596 0
-414 -740 1236 0
-166 351 914 0
733 1683 1709 0
-1565 1684 1714 0
215 -326 1636 0
-1010 1116 1409 0
535 1120 -1556 0
-1069 -1477 1507 0
832 -1503 -1569 0
-710 1403 1492 0
-139 1349 -1791 0
-266 937 1376 0
462 753 758 0
-266 544 1024 0
-274 -532 -834 0
469 1400 1698 0
-490 1068 1625 0
247 -1396 1673 0
480 1509 -1831 0
-451 508 1054 0
870 1030 1391 0
714 -880 -1287 0
-795 827 -1136 0
-766 -942 -1521 0
893 -1277 1372 0
671 1796 1804 0
-1050 -1152 1776 0
-861 -1136 1786 0
-108 -167 895 0
-118 1469 -1742 0
124 971 -1030 0
1148 -1213 -1380 0
212 1203 1345 0
633 -1317 -1551 0
593 -1007 1567 0
758 932 -1522 0
564 718 1461 0
-470 -1412 -1467 0
-248 1132 1230 0
-486 724 1589 0
-338 -672 1121 0
-581 -1243 1502 0
-633 -1062 1790 0
857 1154 -1552 0
-517 1057 -1365 0
-166 1448 -1735 0
-412 -818 1365 0
171 795 927 0
-256 1163 1382 0
824 -1050 1863 0
-1113 -1361 -1512 0
766 -960 1349 0
-810 1111 -1656 0
704 -1419 1832 0
637 -922 -1039 0
669 1305 1448 0
1375 1678 1793 0
-941 -962 1679 0
598 -1194 1464 0
-870 1726 -1749 0
-245 405 1080 0
-770 1375 1736 0
-342 707 1528 0
-617 -1107 1494 0
-755 -1111 -1153 0
1112 1114 -1527 0
-1295 -1467 1798 0
-242 726 1789 0
126 -736 1779 0
310 600 945 0
-430 647 -926 0
374 1152 -1506 0
444 -1710 1714 0
-164 -300 999 0
856 -911 1813 0
148 -282 -438 0
108 -727 -1555 0
950 1547 1844 0
-1362 1506 -1712 0
-1271 -1329 1385 0
-817 -1527 -1697 0
815 -889 -1215 0
295 -997 1506 0
1522 -1644 -1810 0
228 -1040 -1749 0
620 755 -870 0
836 1248 1513 0
175 -1734 1765 0
-291 -443 -1841 0
217 219 1376 0
482 682 -725 0
571 -1649 1755 0
-487 1128 1341 0
682 -718 -1419 0
482 1227 1444 0
357 361 -1285 0
-404 612 -1637 0
456 -802 1047 0
-644 1497 1786 0
-205 453 782 0
112 753 -1637 0
-1051 -1137 -1860 0
483 796 -942 0
274 -634 -1291 0
-108 -653 -1530 0
413 1406 -1692 0
399 -437 -1095 0
282 673 -1542 0
-233 664 830 0
-302 1774 1857 0
291 804 -1539 0
732 -1201 -1611 0
-1002 1363 -1659 0
301 -1742 -1746 0
1220 -1239 1531 0
-224 704 -1420 0
1430 1495 1859 0
670 707 1336 0
-1117 1498 1520 0
316 -668 841 0
-253 -1041 -1530 0
-129 191 1520 0
-159 579 1152 0
-505 -923 1004 0
-1098 -1161 1657 0
-320 -1169 1270 0
-306 688 819 0
1016 1324 1508 0
220 1053 1761 0
-392 547 1600 0
-524 1669 1759 0
378 -1104 -1326 0
174 203 -961 0
551 668 1181 0
238 -281 1580 0
205 -380 1041 0
-151 -750 -1018 0
-1243 -1625 1668 0
-659 1466 -1694 0
1363 -1658 1862 0
417 762 -1257 0
-879 -1004 -1396 0
-201 -411 -803 0
1044 1125 1482 0
-408 -634 1018 0
384 391 1273 0
-1044 -1238 1260 0
-563 1477 -1604 0
-765 991 -1396 0
1039 -1131 1842 0
286 -575 1818 0
-108 1058 1338 0
648 1279 -1366 0
-120 -231 -1502 0
-276 463 -1810 0
685 1415 -1465 0
-372 -567 -1190 0
1263 1372 1458 0
-282 -890 896 0
-306 -782 -875 0
-201 463 1271 0
-843 922 1073 0
517 -563 -613 0
250 536 1383 0
718 -1424 -1609 0
228 -779 1503 0
-168 339 -1523 0
1269 -1469 1783 0
-1114 1759 1845 0
679 -956 1158 0
1074 1112 -1524 0
286 783 1522 0
-463 628 -1251 0
-353 -712 -853 0
-887 -1308 -1396 0
1463 1584 1665 0
570 882 -1193 0
570 1331 -1443 0
-792 -1099 1488 0
-577 -1131 1171 0
135 247 -338 0
-279 1220 1468 0
-1172 -1306 1460 0
-504 -585 -1258 0
-134 447 -893 0
-830 -1115 1268 0
725 -1460 1530 0
-487 -1545 -1593 0
863 -1122 1629 0
-195 -279 1719 0
-390 980 989 0
-909 1250 1695 0
616 1055 -1468 0
288 -572 1030 0
285 501 -565 0
249 1262 1285 0
478 514 -1418 0
451 536 926 0
707 -1152 1597 0
-166 -252 -746 0
-792 911 -940 0
-275 -384 1417 0
196 491 810 0
1387 -1523 -1840 0
532 1265 -1702 0
-995 -1468 -1771 0
475 516 -1155 0
109 1275 -1806 0
-406 1158 1783 0
-259 946 1177 0
-609 -639 -1106 0
324 1467 -1564 0
-239 -1249 1731 0
-645 1119 -1554 0
589 -919 1436 0
597 1457 1604 0
-646 691 880 0
-273 -416 1766 0
420 -940 -1660 0
-1048 1161 1778 0
-1043 -1339 -1787 0
-307 -597 -1789 0
-1163 1185 1702 0
585 -860 1692 0
-416 1036 1255 0
1089 1194 -1604 0
254 -773 1465 0
291 -358 1400 0
427 -561 -787 0
467 -1210 -1575 0
-173 -607 1771 0
-486 1151 -1476 0
-1022 -1231 1476 0
911 -925 1323 0
-142 -944 -1187 0
241 915 1792 0
470 537 1388 0
-137 -622 -769 0
-177 564 -1546 0
472 -1690 1695 0
-186 -632 872 0
816 1395 1659 0
109 1073 -1190 0
261 -463 -716 0
-699 -1371 -1863 0
492 852 1609 0
193 958 -1204 0
294 1201 -1410 0
1122 1220 1354 0
-892 -1256 -1345 0
595 1449 -1540 0
-414 -807 -1065 0
491 -1010 1389 0
-538 1298 1824 0
247 -727 1183 0
-282 936 -1192 0
540 -691 1851 0
110 -1146 -1458 0
-233 -1270 -1848 0
-1061 -1086 1440 0
495 -819 -1521 0
-1270 -1373 -1545 0
889 -1555 -1601 0
-278 -1048 1534 0
-316 -938 1101 0
-983 -993 -1439 0
-353 1365 1831 0
-258 1123 1508 0
-527 1044 1556 0
512 -796 1608 0
808 -1090 -1097 0
190 -215 269 0
269 1350 -1662 0
211 273 1846 0
262 1036 1477 0
861 1370 1858 0
-218 1025 1512 0
-516 737 1534 0
1223 -1536 1768 0
-439 874 1651 0
-882 907 -1546 0
149 -1516 -1671 0
-640 945 -995 0
304 -757 1361 0
218 -863 1094 0
-370 394 561 0
546 843 -1701 0
-623 1319 -1375 0
1305 1361 -1435 0
-1279 1695 -1718 0
611 758 1596 0
-224 1243 1618 0
-211 1015 -1801 0
-323 -394 984 0
404 -614 -1329 0
507 -1111 1490 0
-1411 -1631 -1634 0
775 -1588 1753 0
-332 717 -1451 0
-546 -1254 -1474 0
-361 -614 -1044 0
299 598 1153 0
579 -840 -1371 0
-490 -841 1860 0
234 -1032 1689 0
738 -898 1360 0
531 -629 -1358 0
-553 739 -1054 0
-409 841 1504 0
-192 836 -1749 0
542 -615 1617 0
-154 -1481 -1638 0
-601 -738 1183 0
478 912 1544 0
463 868 -934 0
121 -1002 -1182 0
194 -798 -1302 0
-1221 1244 -1569 0
-440 1636 -1674 0
-489 -577 -1471 0
-146 -808 946 0
444 502 683 0
350 968 1700 0
582 810 1612 0
-1242 -1244 -1843 0
694 -828 1297 0
195 243 -1543 0
760 890 -1520 0
134 256 1560 0
920 1101 -1480 0
236 540 920 0
993 -1349 1538 0
-1254 1703 -1825 0
231 -626 -1523 0
1349 -1465 1820 0
1185 -1256 -1804 0
-1328 1540 1739 0
272 -566 1432 0
740 803 -1556 0
-199 -1073 -1678 0
560 -916 -1265 0
459 843 849 0
795 1411 1522 0
394 -477 892 0
-228 -1231 1330 0
-503 808 1314 0
392 522 -1049 0
153 381 -1779 0
-498 -993 1249 0
239 567 1033 0
-1367 -1515 -1848 0
-1816 -1843 -1858 0
-1176 -1228 -1689 0
451 -613 -1817 0
1071 -1498 1579 0
-789 877 1030 0
446 970 1784 0
-1521 -1606 1777 0
256 356 784 0
-940 -1500 -1518 0
1200 1348 1465 0
-523 988 1275 0
-155 -347 -931 0
350 1033 1374 0
923 960 -1228 0
-722 868 1730 0
-984 -1167 -1347 0
537 -687 1655 0
1031 -1401 -1539 0
-263 -1061 -1606 0
242 560 -859 0
150 323 -467 0
-1052 -1161 -1523 0
-730 -1131 1475 0
1271 1338 1663 0
625 -1066 -1157 0
347 838 -1790 0
-295 899 -1461 0
-124 948 1477 0
-715 -805 -1250 0
260 370 1238 0
-1355 1436 1504 0
-485 528 -1592 0
480 -1614 1665 0
313 1272 -1529 0
933 -1509 -1685 0
161 -190 -1155 0
-1028 -1078 -1406 0
-265 1021 -1196 0
303 -896 -1839 0
809 1016 1803 0
113 -245 298 0
703 -1279 1365 0
768 1161 1200 0
124 -1327 -1778 0
291 870 -929 0
-532 869 1615 0
320 -816 -1474 0
-657 1031 1626 0
494 1373 1615 0
125 370 866 0
152 -564 -1697 0
-123 1411 -1603 0
-950 1272 1846 0
553 -714 1473 0
-675 679 -1220 0
306 -1105 -1621 0
-246 1444 -1842 0
366 960 -1552 0
-847 1033 1358 0
482 816 -1080 0
167 -864 -1710 0
185 906 -1474 0
-699 -1355 1419 0
-441 748 -1388 0
-617 -1336 -1614 0
-627 -797 -1158 0
328 562 1048 0
185 1113 -1657 0
361 532 -980 0
449 1050 -1758 0
676 1500 -1554 0
-112 979 -1377 0
-318 -917 -1430 0
399 630 1006 0
131 626 -1483 0
1136 1323 1837 0
-1376 1408 1480 0
-703 -977 -1074 0
-308 542 -1058 0
411 953 -1520 0
-1189 -1416 -1446 0
-211 -748 1311 0
247 447 -741 0
739 -812 -1194 0
266 -320 465 0
-484 -1629 -1683 0
846 1534 -1863 0
140 -698 -790 0
948 1621 -1807 0
807 -1298 -1662 0
-206 -276 1831 0
145 380 -1746 0
1039 1115 -1701 0
-434 485 655 0
558 -1071 -1728 0
247 1075 1226 0
-151 -530 1466 0
812 -911 -1055 0
-509 1520 1739 0
477 -977 -1099 0
-349 -1115 1260 0
-318 719 1663 0
-1010 -1025 1702 0
-696 -1366 1668 0
297 356 1628 0
-151 313 -507 0
-414 1146 1428 0
670 -677 1744 0
684 -1516 -1654 0
-1042 1683 1837 0
-255 -1083 1363 0
-1289 -1625 1759 0
-411 -1102 1181 0
397 1108 -1762 0
-281 -490 805 0
-532 810 -1534 0
-207 -418 -1248 0
313 847 1057 0
162 390 -1800 0
-651 1378 1719 0
262 320 387 0
322 493 -730 0
-579 -1744 1826 0
261 473 -591 0
-245 -338 -1418 0
-613 -1360 1431 0
-364 -1038 1289 0
106 -529 -1053 0
821 1102 1341 0
-1180 -1413 -1762 0
1177 -1557 1769 0
-833 -913 -1213 0
-259 501 1635 0
714 -1025 1602 0
-947 -1732 -1738 0
-953 -1653 -1722 0
-286 -491 -776 0
-807 -876 1448 0
-693 -968 -1201 0
362 -1140 -1392 0
498 -1183 -1321 0
-728 -1443 -1583 0
-769 1067 -1751 0
185 1090 -1436 0
1014 -1287 1790 0
-297 -453 940 0
-248 532 -979 0
-1010 1075 1765 0
-448 -1115 1238 0
-534 -1165 -1498 0
157 510 791 0
674 817 -1702 0
-291 -881 1763 0
952 -1240 -1579 0
-657 -1120 1567 0
155 -1253 1834 0
821 -1000 1762 0
261 -961 -1056 0
-606 1022 -1298 0
479 -596 1495 0
-437 -549 1182 0
230 339 -772 0
968 -1379 -1538 0
128 -437 -526 0
1028 -1059 -1648 0
-1331 1520 -1629 0
-226 -519 1007 0
-630 -1280 1460 0
526 -556 1033 0
-1108 1420 1691 0
-555 -1773 1786 0
-277 -619 -1486 0
233 249 -1796 0
-434 516 -1574 0
-427 -1503 -1791 0
1298 -1449 -1808 0
-533 -793 -963 0
636 1465 1703 0
-829 1150 -1337 0
-655 857 1237 0
122 436 -1572 0
1056 -1083 -1105 0
-630 1025 1703 0
-1084 -1141 -1192 0
-437 -992 1459 0
1017 1295 -1787 0
369 -1125 1862 0
-836 1021 -1649 0
-473 779 1045 0
-221 -318 -905 0
-167 436 -1196 0
651 717 -1251 0
-139 -326 1789 0
-177 750 -1363 0
-152 593 1240 0
-306 -688 -970 0
-359 451 -1752 0
434 -838 -1666 0
-196 966 1297 0
-209 764 -956 0
-887 1426 -1478 0
816 -1276 1367 0
-569 -623 -1024 0
299 1312 -1502 0
-877 -1348 1598 0
874 -1165 -1505 0
-431 -1236 1508 0
1331 1429 -1820 0
-516 -573 1771 0
-619 -804 -1645 0
-1029 -1153 1537 0
250 372 -512 0
291 419 -1460 0
-183 629 1415 0
390 -705 -1513 0
800 -909 1514 0
507 -547 998 0
272 -1155 1582 0
516 -1427 -1493 0
444 -986 -1255 0
-571 -1414 1828 0
400 -515 -1563 0
-238 -1249 1863 0
974 -995 1508 0
-985 1536 -1847 0
-619 681 -1300 0
-647 -963 -1421 0
-1020 1448 1856 0
394 591 -1541 0
-751 1045 -1491 0
870 -1423 -1790 0
-196 1471 1562 0
-405 -486 1155 0
331 -1575 -1697 0
-1170 -1218 -1271 0
-1341 1483 1647 0
-403 -1251 -1800 0
932 977 -1444 0
419 1132 -1328 0
-659 -1342 -1823 0
444 -620 1589 0
-371 1287 -1562 0
-809 -1014 -1260 0
-285 -1654 1804 0
-154 -506 -618 0
978 1097 -1154 0
114 -388 -847 0
-431 608 -1269 0
-646 -1128 1306 0
-319 -604 -837 0
241 -461 1736 0
1052 1221 1437 0
-331 971 -1699 0
664 -1154 -1688 0
-329 -341 901 0
-779 1250 1641 0
-671 812 945 0
-468 -506 -1375 0
654 687 -1024 0
-132 896 -1374 0
-319 -765 902 0
-473 -1431 1720 0
-487 1413 -1776 0
639 1028 -1183 0
1021 -1477 1579 0
873 -1637 1830 0
-370 -1245 1679 0
-152 656 920 0
-1115 -1254 -1262 0
-403 -957 1576 0
-140 -911 1145 0
335 -719 -1274 0
-769 1243 -1553 0
-1316 -1350 -1473 0
-427 -505 1293 0
-227 688 -894 0
1459 -1705 -1822 0
-137 -299 -1182 0
379 -1147 1792 0
-1006 -1422 -1799 0
203 1033 1524 0
-411 -679 -1312 0
267 -1297 1630 0
1444 -1737 1745 0
292 705 1532 0
429 1338 -1394 0
135 916 1131 0
-227 1315 -1613 0
762 1350 1646 0
1278 1497 1766 0
-171 1568 1782 0
581 1028 1293 0
-120 960 1721 0
-1074 -1108 -1647 0
308 -376 -973 0
-348 -761 -910 0
650 -1080 1147 0
1049 -1092 -1151 0
527 1597 -1741 0
378 914 1503 0
-164 364 -1761 0
-693 -1046 1665 0
766 -911 -1386 0
203 1449 -1808 0
747 -1384 -1648 0
731 -1390 -1413 0
-146 -191 1733 0
-401 -1423 -1747 0
-524 -814 896 0
452 1022 1531 0
-675 -743 1153 0
680 1234 -1372 0
-304 -382 605 0
-367 -739 -1851 0
-1511 -1535 -1850 0
667 -708 -1215 0
-855 1370 1692 0
-199 613 1393 0
-651 1222 1429 0
116 -997 -1808 0
593 1202 1539 0
308 477 1339 0
-196 -597 -1716 0
473 531 1174 0
169 -1322 1767 0
-508 -869 -1851 0
-269 1042 -1506 0
302 1758 -1840 0
-943 -1523 1701 0
324 359 1263 0
-1483 -1630 1771 0
1572 -1648 -1709 0
562 -642 1085 0
-273 604 1074 0
205 630 -833 0
-400 -1306 -1533 0
931 -1005 1642 0
-624 1030 -1402 0
422 1151 -1465 0
-1153 1204 -1412 0
1151 1503 -1706 0
-693 1477 -1747 0
653 770 -819 0
474 -1213 -1587 0
-449 698 -1516 0
126 1466 -1607 0
160 -1211 1733 0
419 831 -1539 0
-398 532 -1683 0
1097 1411 1478 0
280 -686 -909 0
-676 1240 -1620 0
119 -785 1320 0
-1309 -1328 -1586 0
-516 -953 1121 0
-600 1166 1553 0
1375 1413 1503 0
691 -1472 -1822 0
-153 908 -1258 0
971 979 1523 0
609 -970 -1783 0
187 1023 1112 0
-938 997 1388 0
-460 1124 -1514 0
1205 -1344 1828 0
-733 -1091 -1777 0
434 1155 1781 0
283 1300 1592 0
-702 -797 -1112 0
703 -1218 -1481 0
-216 549 1129 0
741 -850 1761 0
1082 -1262 1625 0
-310 575 -937 0
-1511 -1574 1791 0
987 -1185 -1246 0
-704 988 1698 0
567 -795 -1228 0
-653 -993 1801 0
171 -203 -402 0
949 -1056 1791 0
185 -368 -1237 0
411 -1398 1657 0
-727 -1269 -1856 0
780 1194 1437 0
-234 -316 -1584 0
-628 750 -1809 0
-468 -1065 1787 0
508 -1235 1296 0
-158 512 -1848 0
-1183 1301 -1669 0
-1200 -1675 -1852 0
1204 1487 1611 0
193 -456 -1481 0
-244 -269 353 0
-1115 -1351 -1353 0
437 -1264 1478 0
-925 1735 -1764 0
668 -774 869 0
220 -1120 -1798 0
116 -755 -1592 0
135 605 1618 0
217 1458 -1643 0
-743 896 -1273 0
-422 -618 1619 0
-242 -563 -1449 0
559 791 1732 0
981 -1445 1809 0
392 564 1504 0
-223 -291 -1281 0
-796 939 1522 0
-497 -1635 -1706 0
926 1528 -1718 0
1183 -1237 1810 0
766 1027 1657 0
702 1427 1442 0
-787 -942 -1172 0
322 -340 -832 0
-191 -470 -970 0
-604 783 -795 0
-436 -877 1417 0
-209 -1136 1760 0
-143 790 -1861 0
-571 757 -1812 0
-374 520 976 0
340 -1603 1855 0
-227 1549 -1614 0
-430 -1264 -1648 0
-338 -1234 1429 0
-189 204 -308 0
-689 -708 -1312 0
-453 -848 -1479 0
-997 1488 -1527 0
-108 383 -913 0
177 416 -1260 0
-533 -1123 -1460 0
-565 -584 -897 0
304 -391 -1632 0
158 743 1139 0
799 -1068 1701 0
612 646 -1130 0
-1070 -1286 -1772 0
488 -1144 -1191 0
-516 -597 -1068 0
861 -1474 -1839 0
-561 -791 1074 0
996 1444 -1664 0
200 352 -629 0
-410 1366 -1501 0
126 1696 -1836 0
249 -301 1522 0
-924 -1143 -1739 0
-871 987 -1146 0
1014 1356 1633 0
-528 -863 945 0
1374 -1414 -1677 0
610 642 1105 0
-151 152 760 0
729 1670 1730 0
488 -1194 -1742 0
356 383 1804 0
-330 429 1009 0
209 926 -959 0
-151 993 -1414 0
-641 -648 -763 0
296 -962 -1645 0
-188 863 -1839 0
1163 1413 -1795 0
-218 503 -1839 0
1044 1073 -1463 0
-736 1349 -1433 0
381 -390 1457 0
-199 363 1744 0
606 748 805 0
-585 1582 -1762 0
-439 -831 -1145 0
-970 -1579 -1726 0
-392 -1076 1375 0
131 416 -790 0
-695 -1447 1758 0
244 -1097 -1570 0
745 1265 1479 0
125 -427 1451 0
107 -1761 -1846 0
-866 868 -974 0
-106 -678 -1034 0
527 -1087 -1503 0
622 1070 -1624 0
446 -957 1399 0
-459 -1105 -1144 0
656 1260 1489 0
1204 -1423 -1537 0
230 601 -665 0
-952 -1442 -1679 0
1361 1475 1827 0
-110 337 1532 0
-251 1008 1706 0
149 1166 1637 0
802 -885 -950 0
688 807 1206 0
414 577 -902 0
-152 190 -483 0
-250 -919 1475 0
-1595 1624 -1788 0
492 -755 -1834 0
1211 1403 1557 0
-354 -463 -1317 0
-115 901 1829 0
555 -1586 1859 0
396 1462 1720 0
-432 1174 -1693 0
-709 -949 -1614 0
144 -1411 -1578 0
-396 717 1094 0
-1040 1471 -1473 0
834 -1187 1546 0
318 617 1843 0
-232 -1080 -1425 0
-1291 -1373 -1527 0
-1213 -1467 -1682 0
-256 -925 1533 0
572 729 1526 0
-252 -259 -991 0
-114 -214 784 0
-304 1382 -1844 0
1151 -1719 1725 0
-355 665 -739 0
-147 -277 1465 0
-839 -976 -1472 0
611 -1165 -1769 0
153 1314 1711 0
-707 -901 1403 0
666 -906 1562 0
253 659 1520 0
-491 990 -1740 0
-909 1038 1504 0
224 700 828 0
-196 1237 1853 0
405 610 -1035 0
134 -775 1206 0
294 -617 1284 0
791 1050 1422 0
-340 566 594 0
-392 778 -1769 0
845 1349 -1589 0
-533 -1362 1766 0
641 -924 -1078 0
1130 1512 -1852 0
342 -1136 -1563 0
621 1114 -1187 0
-192 535 -694 0
470 -912 -1576 0
-379 -943 1472 0
934 988 -1709 0
-143 349 -785 0
752 -1180 1206 0
143 -330 433 0
802 -1486 -1824 0
-358 360 1379 0
248 -791 1286 0
898 919 1484 0
-499 751 -1482 0
-1206 1513 1805 0
194 1121 1386 0
402 -655 1794 0
-646 -864 -946 0
216 -547 1718 0
680 -1181 1414 0
1183 -1557 -1600 0
171 -731 1858 0
1512 -1743 1830 0
-280 -387 894 0
447 -882 1050 0
358 -495 1175 0
549 -679 -1187 0
-269 -355 1690 0
840 1367 1449 0
-121 -1000 1746 0
383 -404 686 0
896 -1172 1580 0
803 -1480 -1856 0
-371 1136 -1154 0
-359 466 847 0
-315 459 1704 0
462 705 -1673 0
1051 1152 1642 0
1446 -1454 -1860 0
352 -530 -715 0
-477 -840 1725 0
1119 1174 -1768 0
637 -1798 -1819 0
-202 980 1737 0
-614 -1210 1348 0
358 507 1584 0
-271 1006 1514 0
-780 -1764 -1781 0
491 513 -1020 0
168 989 -1633 0
-390 -907 1260 0
-1157 -1199 1261 0
-230 764 1266 0
-397 838 1145 0
-736 -999 -1759 0
921 1310 -1805 0
122 -553 1672 0
-327 -347 545 0
236 736 1060 0
-628 -741 -1251 0
-678 1248 -1583 0
-144 1650 1761 0
166 -355 -1154 0
992 -1381 -1707 0
-628 1504 1763 0
485 -675 -798 0
189 338 -943 0
-271 -850 1569 0
440 -836 -1075 0
-194 -1134 -1598 0
-214 865 1640 0
-346 1384 -1672 0
-890 1126 1507 0
-289 -795 1710 0
-145 1080 -1100 0
-1433 1528 -1805 0
-1252 1502 1676 0
-111 -308 -537 0
644 1130 1606 0
806 1311 1457 0
383 699 1844 0
-199 405 -992 0
-520 1125 1595 0
-290 -1038 1635 0
-222 504 1449 0
-240 -665 -936 0
-196 1643 -1846 0
-833 -1309 1570 0
-676 931 1542 0
549 -1158 1168 0
-180 -426 1540 0
261 -1175 -1694 0
461 -1132 1684 0
614 1033 -1372 0
211 858 1602 0
466 -905 -1382 0
-213 1096 -1428 0
-333 -388 -1856 0
859 1101 -1584 0
693 1369 1808 0
-1616 1632 -1704 0
837 1011 -1266 0
-299 -1076 1806 0
-853 1020 -1430 0
-1091 1616 1831 0
-1029 -1123 -1226 0
-956 -1004 -1714 0
199 451 -452 0
-595 -652 -685 0
624 807 1065 0
357 630 636 0
-256 -1484 -1683 0
726 -750 -814 0
623 900 -1291 0
837 1488 -1663 0
234 379 1508 0
-529 -552 -944 0
276 980 1100 0
-208 483 1680 0
-1570 1696 -1769 0
238 1645 1765 0
399 -437 -1821 0
270 514 -662 0
670 1142 -1857 0
-438 586 1847 0
-1173 1185 1266 0
822 1141 1524 0
660 829 1756 0
212 860 1103 0
968 -1350 -1670 0
541 1467 -1567 0
-152 181 742 0
330 -899 933 0
202 -332 556 0
-490 564 951 0
-482 1121 -1677 0
-1196 1697 -1815 0
-810 -1321 1470 0
532 1275 1564 0
-407 -1265 -1626 0
-655 -899 1683 0
-257 1270 1818 0
-619 -716 -839 0
935 -1224 -1750 0
764 -1042 1615 0
-400 -1126 1648 0
-778 1040 -1671 0
-202 847 -1664 0
-608 733 1414 0
689 -1249 1449 0
-843 933 -1120 0
-122 1084 -1351 0
-206 -1575 1854 0
619 -910 -1161 0
-420 -779 1559 0
-307 -889 1081 0
-434 -1441 1569 0
-642 -701 1248 0
467 -926 -1766 0
176 -678 -1591 0
-1368 -1734 -1800 0
-125 560 -852 0
-423 933 -1474 0
-365 -684 -1742 0
1134 1496 1764 0
551 1239 -1800 0
306 532 -792 0
-299 1061 -1823 0
911 -1450 1806 0
825 1114 -1495 0
642 901 -1216 0
-320 -323 -1117 0
-778 1103 -1788 0
1043 -1132 -1748 0
-454 1520 1843 0
-108 867 1582 0
235 -518 -1319 0
635 809 -1103 0
737 831 -1407 0
-811 -1094 1140 0
392 -531 660 0
-1317 1369 1425 0
-411 556 -1378 0
-338 978 1659 0
-1092 1139 1676 0
-494 1159 1620 0
-700 -876 1060 0
294 -380 797 0
209 -1257 -1683 0
-746 1059 1258 0
-244 -559 1576 0
-194 273 701 0
-786 1047 1188 0
-332 -338 1007 0
-1342 -1759 -1820 0
508 -528 916 0
437 1298 -1736 0
-691 1428 -1728 0
663 887 -1250 0
-175 -686 1488 0
372 1054 1292 0
551 1431 -1644 0
-257 -985 -1599 0
1065 1638 1690 0
1083 1532 1755 0
-131 -901 -1356 0
208 -531 815 0
-341 -1514 1733 0
-188 1585 -1799 0
-443 451 1171 0
-224 830 -1170 0
-396 529 784 0
-251 652 1632 0
359 -1178 1691 0
-238 806 1305 0
1162 1511 -1545 0
-108 -528 -1461 0
813 -1139 1707 0
-418 883 -1373 0
119 -539 -1382 0
-433 648 -787 0
-696 944 1255 0
-700 1222 -1229 0
-419 1056 1485 0
-1164 -1255 1606 0
716 -1427 -1503 0
507 1031 -1681 0
480 -720 1255 0
541 -928 1656 0
-119 -1566 1748 0
791 -866 1804 0
-470 853 1493 0
460 -1587 1633 0
147 282 1859 0
-472 895 -989 0
113 -682 -1075 0
-414 -1135 -1562 0
284 -387 -1292 0
688 1619 1658 0
-837 -1549 1573 0
447 564 -799 0
-119 -1454 1473 0
590 779 -1079 0
-285 -908 -1065 0
-201 -256 -1840 0
908 1495 -1753 0
172 1077 -1183 0
-244 945 1324 0
-662 738 770 0
136 497 -1371 0
-1004 -1236 1387 0
-406 -1268 -1766 0
-112 306 -1252 0
-289 -961 1019 0
530 1069 -1537 0
401 491 1677 0
858 -1397 1651 0
386 1049 -1603 0
-768 1471 1507 0
556 -1010 1282 0
-317 1381 -1814 0
502 -651 1500 0
291 -507 -1061 0
-906 1702 -1844 0
171 -696 1096 0
-1305 -1380 1622 0
203 1271 1692 0
324 -368 1354 0
280 -1054 1578 0
-430 -1169 1654 0
-249 309 -1340 0
-146 -463 753 0
-261 561 -1710 0
245 -777 1493 0
-180 -1354 -1648 0
888 983 -1066 0
756 926 -1544 0
-1098 1540 1788 0
-231 556 558 0
385 -589 -764 0
1016 -1332 -1553 0
-206 -345 -730 0
113 308 -1852 0
314 -376 623 0
-777 -826 -1356 0
-180 -563 -1259 0
-609 865 -1851 0
306 604 -1161 0
159 -337 1626 0
-280 -1018 1121 0
137 908 1082 0
149 1190 -1849 0
376 -519 1140 0
-297 638 -1761 0
-480 1329 -1653 0
-779 904 -1350 0
967 -1641 1852 0
-155 441 1855 0
-881 926 1608 0
-304 -336 1614 0
1206 1281 1466 0
365 -383 1484 0
296 433 610 0
1698 -1703 -1773 0
704 895 1758 0
-505 -698 742 0
-408 -1195 1258 0
268 -1524 -1847 0
731 -1259 -1598 0
-1169 1347 1692 0
-242 281 -1324 0
635 -827 888 0
-1241 1479 1659 0
364 -1035 1583 0
639 906 -1315 0
116 -546 1329 0
-327 677 1134 0
496 -1455 -1574 0
-175 1577 1648 0
-599 -1380 1646 0
-368 566 -899 0
-381 -1390 1614 0
723 1279 -1538 0
-656 -987 -1396 0
238 -450 1569 0
781 -826 1615 0
-1038 1152 1767 0
-1327 1598 -1748 0
160 -161 394 0
-1107 1504 1801 0
-395 707 1712 0
-299 602 -1275 0
-1366 -1519 1681 0
798 -878 -1205 0
1115 1165 1247 0
-445 1088 1483 0
-344 354 -881 0
-976 -1358 1686 0
1043 1649 1725 0
527 1428 1844 0
638 691 -1055 0
-725 1138 -1307 0
-318 -1221 1459 0
-400 -1042 -1386 0
-350 400 -1529 0
845 -1140 1675 0
471 -1449 -1752 0
-1061 -1375 -1728 0
-291 -1116 1572 0
674 929 1040 0
199 -435 888 0
-514 -1110 -1703 0
350 -1179 -1236 0
-882 -1072 1762 0
-554 -1026 -1719 0
-288 -1707 -1859 0
-861 1076 1808 0
1351 -1455 -1822 0
240 -1624 1776 0
-1028 -1152 -1586 0
513 1324 1593 0
760 955 -1363 0
705 1520 1831 0
318 938 -1684 0
313 -539 587 0
801 1101 -1175 0
-1404 1582 -1617 0
180 -1560 -1780 0
1428 1522 1598 0
396 579 -684 0
-553 556 -966 0
-366 -383 1298 0
189 -959 -1802 0
1183 -1576 -1831 0
429 1117 -1694 0
601 605 1087 0
-278 1098 1430 0
-364 -643 -1496 0
174 -506 -602 0
-574 1798 1818 0
224 -448 1461 0
1167 1463 1706 0
1390 1432 -1746 0
487 1043 -1114 0
815 -1470 1561 0
310 -1295 1813 0
1028 1413 -1587 0
555 -671 1833 0
499 1558 1842 0
708 -1756 -1761 0
-224 363 -682 0
-563 684 -1479 0
-363 1109 -1486 0
1159 -1231 1848 0
350 -923 967 0
173 1101 -1322 0
-533 575 1461 0
-553 -938 1216 0
-1596 1642 -1863 0
-111 160 832 0
-1354 -1559 -1783 0
1007 1721 -1840 0
-297 -469 1111 0
-569 -959 -1206 0
729 1679 1721 0
560 -797 1179 0
490 -596 -1303 0
-645 1623 1761 0
-1106 -1153 -1823 0
584 1138 -1380 0
-1024 1294 -1372 0
-408 -646 -854 0
277 657 1016 0
303 -576 -795 0
-305 -423 1372 0
-755 -932 1153 0
-1528 1658 1844 0
592 1016 1667 0
-477 1051 -1088 0
944 1417 -1771 0
1246 1255 -1277 0
204 225 242 0
428 825 -1207 0
205 -1022 1434 0
511 -852 1527 0
-655 -1408 -1569 0
174 -177 -216 0
946 -1485 1824 0
180 -905 -973 0
-534 -723 -1691 0
-601 -1381 -1405 0
-709 1384 -1624 0
-222 891 1629 0
-415 969 1230 0
-140 1466 -1743 0
-479 1449 1538 0
1160 1705 1744 0
1064 -1167 1605 0
-961 -1280 1819 0
118 -759 -993 0
-873 1163 1397 0
809 1153 1407 0
-978 -1298 -1773 0
-571 925 -1573 0
-779 1363 1559 0
203 433 -687 0
-143 1172 -1484 0
113 217 1064 0
-710 1394 1782 0
641 821 -981 0
-488 539 -1036 0
-551 1182 -1369 0
-194 -715 -1831 0
163 1176 1381 0
412 1168 1256 0
488 735 1633 0
-524 -565 1110 0
209 751 1251 0
664 -1158 1299 0
1189 -1277 -1828 0
204 -1382 1385 0
192 -240 -1337 0
559 1088 1432 0
624 -1002 1277 0
-360 -851 -922 0
323 1130 -1474 0
491 -1000 -1816 0
1052 -1293 -1704 0
-1078 -1124 -1687 0
1180 -1227 1467 0
-655 -1063 1454 0
716 1024 1664 0
-163 527 1148 0
376 -941 -1054 0
-339 569 1640 0
-218 266 330 0
-197 327 -618 0
-869 -1142 -1208 0
-408 813 1334 0
-1220 1627 -1686 0
274 354 -1731 0
-222 -1559 -1575 0
-232 1644 -1648 0
642 -1303 -1590 0
475 772 -791 0
-519 -702 -1026 0
-520 1376 1531 0
582 -898 -1517 0
509 821 1225 0
-511 -528 -1323 0
264 -270 -1832 0
-232 265 -1350 0
-319 -1345 1603 0
664 -1029 -1177 0
1117 1444 1680 0
1190 -1575 1725 0
-1062 -1641 1849 0
224 901 925 0
-545 1604 1688 0
-217 -387 438 0
461 883 1304 0
164 -1263 1838 0
-393 817 -857 0
-1040 -1176 1248 0
646 -760 -1235 0
-413 -756 -1295 0
-183 -1015 -1402 0
-187 -611 891 0
-1128 -1134 1368 0
207 603 -1317 0
930 1406 -1596 0
-196 1279 -1568 0
112 999 1692 0
-236 -1157 -1479 0
859 -1238 1718 0
215 712 1253 0
-616 -1016 -1535 0
-227 509 -649 0
796 -1450 -1525 0
-391 775 -776 0
-390 1486 1687 0
-308 1133 1378 0
181 757 1358 0
954 -1200 1833 0
460 1257 -1545 0
-874 -895 -1116 0
543 -1288 1464 0
-836 -1129 -1187 0
142 -648 764 0
-255 390 -1125 0
432 1353 1445 0
561 -1361 1788 0
268 457 1155 0
-260 -1305 -1585 0
738 -1598 1845 0
-948 -955 1086 0
530 1027 -1069 0
372 597 -644 0
-498 -695 783 0
-281 399 -710 0
-279 1519 -1662 0
-555 -1078 -1695 0
543 835 1368 0
139 -214 -859 0
-397 498 1358 0
500 588 -1789 0
-1332 1430 1464 0
766 -1032 1098 0
-112 1009 -1217 0
170 1320 -1626 0
844 -1170 1383 0
951 1653 -1785 0
199 492 1252 0
1051 1387 -1464 0
230 556 -1431 0
544 -769 949 0
-342 381 408 0
156 394 946 0
-252 -528 -576 0
520 -743 1434 0
-843 -1282 -1325 0
571 -897 -1746 0
740 -995 998 0
-178 -545 713 0
421 -1169 1782 0
190 -688 -1037 0
616 -1471 -1487 0
238 466 -1177 0
-116 1330 -1627 0
-125 551 554 0
-1518 1565 -1609 0
-548 603 -1329 0
-696 -1184 1494 0
1335 1431 1779 0
690 975 1726 0
973 1686 -1694 0
-328 1172 1436 0
-814 877 -1676 0
-585 633 1719 0
261 -929 -989 0
-1056 -1084 1847 0
-771 -1059 -1844 0
244 -292 462 0
-781 1291 1617 0
682 1339 -1791 0
-379 611 673 0
875 1023 -1159 0
475 1137 -1641 0
-328 879 -1556 0
-583 -885 1082 0
233 746 -1631 0
948 1278 -1411 0
-1002 -1060 1780 0
-241 291 -1029 0
-640 1500 -1509 0
-544 851 1671 0
638 1374 -1861 0
1390 -1531 1593 0
-1394 1652 1721 0
-167 1413 1653 0
1270 -1702 -1737 0
451 1167 1692 0
-439 -1503 1604 0
-988 -1141 1235 0
513 -1113 1194 0
689 -1091 1246 0
688 -751 1749 0
-297 -1286 -1568 0
821 1320 1376 0
-147 203 1241 0
198 873 -1514 0
747 -1043 1114 0
-190 1138 -1739 0
329 -1176 1485 0
-399 736 980 0
461 758 781 0
596 607 1762 0
687 -850 1751 0
734 820 -1616 0
-1513 1561 -1817 0
-548 -858 -1443 0
1009 1570 -1741 0
666 779 1512 0
333 645 -843 0
-771 -923 1012 0
251 -355 -1286 0
976 -1379 1748 0
742 1494 -1500 0
890 900 -1078 0
204 -783 821 0
-439 1088 -1803 0
358 469 1791 0
204 632 1176 0
262 499 850 0
-754 -769 1684 0
-1313 -1541 -1697 0
-149 360 660 0
-374 893 1060 0
432 1105 -1435 0
749 1015 -1859 0
1188 -1501 1721 0
623 991 -1240 0
1491 -1613 -1639 0
-423 -1545 -1634 0
199 861 1458 0
314 793 -1166 0
-666 -1022 1703 0
821 866 1714 0
-936 -1140 -1623 0
924 1420 -1433 0
218 -1241 -1807 0
437 560 -759 0
234 -350 1590 0
519 -540 -1621 0
211 -454 1081 0
-327 356 1741 0
-202 910 918 0
870 -1409 1800 0
-124 -440 1043 0
415 997 -1694 0
339 373 -1400 0
747 1106 -1374 0
881 -1420 1634 0
772 -1386 1559 0
302 325 -861 0
989 1485 -1759 0
-1168 1821 1851 0
159 -1351 1643 0
612 -803 1556 0
451 -1458 1480 0
560 686 918 0
-200 -429 1396 0
-271 333 -1440 0
-790 1113 1293 0
444 759 -764 0
238 514 1432 0
-134 -1429 -1578 0
-1034 1578 -1627 0
423 -742 -1312 0
257 993 1560 0
444 -478 1333 0
-734 954 -1109 0
257 915 1669 0
-631 1229 -1303 0
-932 -1044 -1697 0
-281 -750 -1843 0
537 1184 -1846 0
-713 -1015 -1650 0
-678 -812 1685 0
882 1166 1342 0
-673 1033 -1779 0
311 -1224 1544 0
1251 1294 -1652 0
280 995 1025 0
787 -893 1541 0
-325 -566 1828 0
-792 1215 1424 0
-269 -473 816 0
-304 1372 -1776 0
-1127 -1417 1815 0
-294 1215 1813 0
-1139 1670 1764 0
-513 -1382 -1537 0
-659 1082 -1613 0
-622 1032 -1607 0
-604 -764 1285 0
