c Phase 3 generated performance instance
c family=hidden_pigeonhole
c scale=6
c variant=tune
c noise_percent=100
c expected=UNSATISFIABLE
p cnf 321 576
-1 -2 31 0
-1 -2 -31 0
-1 -3 32 0
-1 -3 -32 0
-1 -4 33 0
-1 -4 -33 0
-1 -5 34 0
-1 -5 -34 0
-2 -3 35 0
-2 -3 -35 0
-2 -4 36 0
-2 -4 -36 0
-2 -5 37 0
-2 -5 -37 0
-3 -4 38 0
-3 -4 -38 0
-3 -5 39 0
-3 -5 -39 0
-4 -5 40 0
-4 -5 -40 0
1 2 41 0
3 -41 42 0
4 5 -42 0
-6 -7 43 0
-6 -7 -43 0
-6 -8 44 0
-6 -8 -44 0
-6 -9 45 0
-6 -9 -45 0
-6 -10 46 0
-6 -10 -46 0
-7 -8 47 0
-7 -8 -47 0
-7 -9 48 0
-7 -9 -48 0
-7 -10 49 0
-7 -10 -49 0
-8 -9 50 0
-8 -9 -50 0
-8 -10 51 0
-8 -10 -51 0
-9 -10 52 0
-9 -10 -52 0
6 7 53 0
8 -53 54 0
9 10 -54 0
-11 -12 55 0
-11 -12 -55 0
-11 -13 56 0
-11 -13 -56 0
-11 -14 57 0
-11 -14 -57 0
-11 -15 58 0
-11 -15 -58 0
-12 -13 59 0
-12 -13 -59 0
-12 -14 60 0
-12 -14 -60 0
-12 -15 61 0
-12 -15 -61 0
-13 -14 62 0
-13 -14 -62 0
-13 -15 63 0
-13 -15 -63 0
-14 -15 64 0
-14 -15 -64 0
11 12 65 0
13 -65 66 0
14 15 -66 0
-16 -17 67 0
-16 -17 -67 0
-16 -18 68 0
-16 -18 -68 0
-16 -19 69 0
-16 -19 -69 0
-16 -20 70 0
-16 -20 -70 0
-17 -18 71 0
-17 -18 -71 0
-17 -19 72 0
-17 -19 -72 0
-17 -20 73 0
-17 -20 -73 0
-18 -19 74 0
-18 -19 -74 0
-18 -20 75 0
-18 -20 -75 0
-19 -20 76 0
-19 -20 -76 0
16 17 77 0
18 -77 78 0
19 20 -78 0
-21 -22 79 0
-21 -22 -79 0
-21 -23 80 0
-21 -23 -80 0
-21 -24 81 0
-21 -24 -81 0
-21 -25 82 0
-21 -25 -82 0
-22 -23 83 0
-22 -23 -83 0
-22 -24 84 0
-22 -24 -84 0
-22 -25 85 0
-22 -25 -85 0
-23 -24 86 0
-23 -24 -86 0
-23 -25 87 0
-23 -25 -87 0
-24 -25 88 0
-24 -25 -88 0
21 22 89 0
23 -89 90 0
24 25 -90 0
-26 -27 91 0
-26 -27 -91 0
-26 -28 92 0
-26 -28 -92 0
-26 -29 93 0
-26 -29 -93 0
-26 -30 94 0
-26 -30 -94 0
-27 -28 95 0
-27 -28 -95 0
-27 -29 96 0
-27 -29 -96 0
-27 -30 97 0
-27 -30 -97 0
-28 -29 98 0
-28 -29 -98 0
-28 -30 99 0
-28 -30 -99 0
-29 -30 100 0
-29 -30 -100 0
26 27 101 0
28 -101 102 0
29 30 -102 0
-1 -6 103 0
-1 -6 -103 0
-1 -11 104 0
-1 -11 -104 0
-1 -16 105 0
-1 -16 -105 0
-1 -21 106 0
-1 -21 -106 0
-1 -26 107 0
-1 -26 -107 0
-6 -11 108 0
-6 -11 -108 0
-6 -16 109 0
-6 -16 -109 0
-6 -21 110 0
-6 -21 -110 0
-6 -26 111 0
-6 -26 -111 0
-11 -16 112 0
-11 -16 -112 0
-11 -21 113 0
-11 -21 -113 0
-11 -26 114 0
-11 -26 -114 0
-16 -21 115 0
-16 -21 -115 0
-16 -26 116 0
-16 -26 -116 0
-21 -26 117 0
-21 -26 -117 0
-2 -7 118 0
-2 -7 -118 0
-2 -12 119 0
-2 -12 -119 0
-2 -17 120 0
-2 -17 -120 0
-2 -22 121 0
-2 -22 -121 0
-2 -27 122 0
-2 -27 -122 0
-7 -12 123 0
-7 -12 -123 0
-7 -17 124 0
-7 -17 -124 0
-7 -22 125 0
-7 -22 -125 0
-7 -27 126 0
-7 -27 -126 0
-12 -17 127 0
-12 -17 -127 0
-12 -22 128 0
-12 -22 -128 0
-12 -27 129 0
-12 -27 -129 0
-17 -22 130 0
-17 -22 -130 0
-17 -27 131 0
-17 -27 -131 0
-22 -27 132 0
-22 -27 -132 0
-3 -8 133 0
-3 -8 -133 0
-3 -13 134 0
-3 -13 -134 0
-3 -18 135 0
-3 -18 -135 0
-3 -23 136 0
-3 -23 -136 0
-3 -28 137 0
-3 -28 -137 0
-8 -13 138 0
-8 -13 -138 0
-8 -18 139 0
-8 -18 -139 0
-8 -23 140 0
-8 -23 -140 0
-8 -28 141 0
-8 -28 -141 0
-13 -18 142 0
-13 -18 -142 0
-13 -23 143 0
-13 -23 -143 0
-13 -28 144 0
-13 -28 -144 0
-18 -23 145 0
-18 -23 -145 0
-18 -28 146 0
-18 -28 -146 0
-23 -28 147 0
-23 -28 -147 0
-4 -9 148 0
-4 -9 -148 0
-4 -14 149 0
-4 -14 -149 0
-4 -19 150 0
-4 -19 -150 0
-4 -24 151 0
-4 -24 -151 0
-4 -29 152 0
-4 -29 -152 0
-9 -14 153 0
-9 -14 -153 0
-9 -19 154 0
-9 -19 -154 0
-9 -24 155 0
-9 -24 -155 0
-9 -29 156 0
-9 -29 -156 0
-14 -19 157 0
-14 -19 -157 0
-14 -24 158 0
-14 -24 -158 0
-14 -29 159 0
-14 -29 -159 0
-19 -24 160 0
-19 -24 -160 0
-19 -29 161 0
-19 -29 -161 0
-24 -29 162 0
-24 -29 -162 0
-5 -10 163 0
-5 -10 -163 0
-5 -15 164 0
-5 -15 -164 0
-5 -20 165 0
-5 -20 -165 0
-5 -25 166 0
-5 -25 -166 0
-5 -30 167 0
-5 -30 -167 0
-10 -15 168 0
-10 -15 -168 0
-10 -20 169 0
-10 -20 -169 0
-10 -25 170 0
-10 -25 -170 0
-10 -30 171 0
-10 -30 -171 0
-15 -20 172 0
-15 -20 -172 0
-15 -25 173 0
-15 -25 -173 0
-15 -30 174 0
-15 -30 -174 0
-20 -25 175 0
-20 -25 -175 0
-20 -30 176 0
-20 -30 -176 0
-25 -30 177 0
-25 -30 -177 0
-280 297 302 0
-196 246 -277 0
188 257 312 0
-205 262 -316 0
248 -279 -285 0
-246 -285 -303 0
200 246 -292 0
221 262 -272 0
-183 -273 -302 0
-181 194 212 0
196 -231 238 0
-214 268 306 0
-222 320 -321 0
-186 246 -287 0
-183 208 -288 0
203 206 314 0
227 261 -318 0
-184 190 -228 0
178 -263 -276 0
-184 247 -319 0
232 289 -309 0
204 -224 291 0
253 297 310 0
238 -251 -299 0
-212 250 -275 0
261 267 317 0
-211 270 271 0
-226 261 -289 0
181 -224 -257 0
196 -213 269 0
-224 297 298 0
-221 281 -308 0
278 -304 320 0
-182 249 269 0
-194 -236 270 0
-187 201 213 0
249 264 -270 0
-190 -191 -215 0
204 -216 262 0
-207 -264 297 0
-188 255 286 0
-233 -240 286 0
246 -269 321 0
-214 -226 297 0
211 214 217 0
-192 215 -242 0
195 258 -295 0
-191 -197 -214 0
-209 -287 -290 0
187 -198 -241 0
207 225 -297 0
-182 -202 235 0
192 243 316 0
-201 271 -272 0
191 -218 -243 0
219 -252 -281 0
-292 -301 -313 0
180 -228 244 0
-196 202 -309 0
-209 -230 239 0
229 237 307 0
191 292 -298 0
-180 199 -256 0
186 -266 287 0
-204 230 295 0
-226 262 289 0
229 236 270 0
-243 261 263 0
-254 -271 -311 0
-237 -263 273 0
211 -270 -283 0
-188 -193 202 0
265 291 -300 0
289 296 -312 0
198 -222 262 0
-192 -282 -316 0
285 303 -305 0
203 218 -271 0
-191 198 -252 0
232 -239 -251 0
-242 253 -262 0
-195 224 277 0
212 -219 -301 0
178 223 318 0
-233 -245 265 0
226 -233 -314 0
229 -282 -290 0
-223 -259 262 0
178 261 298 0
-266 303 314 0
184 194 244 0
-215 -283 317 0
-184 224 311 0
185 214 256 0
-225 -244 301 0
-214 273 316 0
198 -247 281 0
234 250 311 0
-236 -288 -298 0
190 250 255 0
-188 -259 271 0
185 -283 316 0
203 -228 290 0
-271 -298 305 0
-189 240 -251 0
192 202 -225 0
-243 -297 318 0
-198 -261 296 0
-198 266 -305 0
243 -251 303 0
196 228 -257 0
233 236 -276 0
-182 190 -279 0
214 -306 -318 0
-184 -281 310 0
-206 209 -245 0
-202 221 -232 0
-292 -297 316 0
-186 -193 -223 0
-199 -203 -268 0
189 -216 -314 0
-196 -291 304 0
232 -283 290 0
216 241 255 0
-238 -276 303 0
190 197 -291 0
-185 -239 282 0
-228 238 269 0
188 -295 -313 0
-178 -297 299 0
-194 -215 292 0
241 -261 -301 0
209 217 -242 0
-220 -282 313 0
216 -239 -292 0
-188 -194 -252 0
191 -298 319 0
301 -303 316 0
196 216 -312 0
-266 298 -319 0
179 234 272 0
-196 209 -274 0
-178 202 -228 0
192 207 -304 0
-248 307 -319 0
-191 -196 295 0
-258 -281 -302 0
-186 218 -257 0
-178 -276 295 0
-227 262 -297 0
-205 -217 -296 0
-186 -299 301 0
-191 -300 321 0
187 -231 258 0
204 215 263 0
195 242 304 0
208 240 261 0
196 -296 304 0
202 215 -260 0
-200 -204 215 0
274 294 312 0
-237 -264 -302 0
181 291 -293 0
200 -263 -278 0
195 230 274 0
-229 275 316 0
-203 -219 -243 0
217 305 314 0
288 296 300 0
208 236 -307 0
190 -272 321 0
249 271 -279 0
-197 204 -213 0
-288 289 291 0
-229 262 -317 0
240 -267 317 0
196 -220 320 0
188 -235 256 0
-201 218 230 0
-251 267 -310 0
212 -230 -252 0
-206 -209 -280 0
179 209 -306 0
242 282 294 0
230 -298 301 0
-183 -254 -321 0
193 227 268 0
-181 216 -251 0
181 -215 -277 0
-192 -245 268 0
-195 196 199 0
-184 -231 -254 0
232 254 285 0
200 254 -300 0
195 -198 280 0
266 281 -316 0
228 -280 321 0
182 -266 278 0
-224 -272 -284 0
-183 248 286 0
184 -232 -312 0
218 -285 -307 0
209 -256 289 0
235 -308 -321 0
198 214 -243 0
188 244 307 0
-178 185 -295 0
208 216 220 0
-251 -304 -311 0
206 -243 315 0
246 -260 -264 0
244 247 304 0
-193 222 -300 0
-196 220 -309 0
-218 265 272 0
213 254 -316 0
-251 269 300 0
-188 276 284 0
-185 -241 -303 0
221 250 280 0
180 -182 -236 0
-188 -189 310 0
-234 -248 -307 0
198 -224 -299 0
-194 -205 -230 0
195 243 -300 0
191 -200 220 0
192 -256 -261 0
186 201 -252 0
-189 -209 298 0
-226 257 -271 0
-258 -273 280 0
-216 281 287 0
230 296 -306 0
-200 -223 -282 0
-184 218 229 0
-208 264 319 0
192 -245 290 0
-308 -312 318 0
-232 271 -299 0
224 263 295 0
-220 -229 266 0
-232 -290 299 0
198 269 -286 0
-250 287 -308 0
186 285 -294 0
181 187 -271 0
255 282 -304 0
211 -290 295 0
-203 235 289 0
201 -299 305 0
196 -254 314 0
227 -239 -258 0
220 -265 -318 0
209 240 -281 0
217 231 252 0
-200 -211 215 0
192 -193 301 0
227 255 309 0
179 245 -274 0
-293 -313 -314 0
227 234 -316 0
203 206 305 0
267 294 298 0
-256 268 307 0
214 257 -315 0
216 257 283 0
184 -212 -243 0
-262 269 -303 0
-182 -251 -305 0
-234 275 -276 0
-253 -264 281 0
-178 -189 -313 0
-238 -245 -284 0
248 285 290 0
187 -197 279 0
206 213 -219 0
189 -195 -314 0
229 -273 -276 0
-228 250 -293 0
-235 253 -270 0
-237 258 312 0
-212 218 -249 0
-215 232 256 0
227 -229 320 0
237 251 -280 0
-219 -244 252 0
-254 -264 287 0
