c Phase 3 generated performance instance
c family=hidden_pigeonhole
c scale=8
c variant=tune
c noise_percent=0
c expected=UNSATISFIABLE
p cnf 452 768
-1 -2 57 0
-1 -2 -57 0
-1 -3 58 0
-1 -3 -58 0
-1 -4 59 0
-1 -4 -59 0
-1 -5 60 0
-1 -5 -60 0
-1 -6 61 0
-1 -6 -61 0
-1 -7 62 0
-1 -7 -62 0
-2 -3 63 0
-2 -3 -63 0
-2 -4 64 0
-2 -4 -64 0
-2 -5 65 0
-2 -5 -65 0
-2 -6 66 0
-2 -6 -66 0
-2 -7 67 0
-2 -7 -67 0
-3 -4 68 0
-3 -4 -68 0
-3 -5 69 0
-3 -5 -69 0
-3 -6 70 0
-3 -6 -70 0
-3 -7 71 0
-3 -7 -71 0
-4 -5 72 0
-4 -5 -72 0
-4 -6 73 0
-4 -6 -73 0
-4 -7 74 0
-4 -7 -74 0
-5 -6 75 0
-5 -6 -75 0
-5 -7 76 0
-5 -7 -76 0
-6 -7 77 0
-6 -7 -77 0
1 2 78 0
3 -78 79 0
4 -79 80 0
5 -80 81 0
6 7 -81 0
-8 -9 82 0
-8 -9 -82 0
-8 -10 83 0
-8 -10 -83 0
-8 -11 84 0
-8 -11 -84 0
-8 -12 85 0
-8 -12 -85 0
-8 -13 86 0
-8 -13 -86 0
-8 -14 87 0
-8 -14 -87 0
-9 -10 88 0
-9 -10 -88 0
-9 -11 89 0
-9 -11 -89 0
-9 -12 90 0
-9 -12 -90 0
-9 -13 91 0
-9 -13 -91 0
-9 -14 92 0
-9 -14 -92 0
-10 -11 93 0
-10 -11 -93 0
-10 -12 94 0
-10 -12 -94 0
-10 -13 95 0
-10 -13 -95 0
-10 -14 96 0
-10 -14 -96 0
-11 -12 97 0
-11 -12 -97 0
-11 -13 98 0
-11 -13 -98 0
-11 -14 99 0
-11 -14 -99 0
-12 -13 100 0
-12 -13 -100 0
-12 -14 101 0
-12 -14 -101 0
-13 -14 102 0
-13 -14 -102 0
8 9 103 0
10 -103 104 0
11 -104 105 0
12 -105 106 0
13 14 -106 0
-15 -16 107 0
-15 -16 -107 0
-15 -17 108 0
-15 -17 -108 0
-15 -18 109 0
-15 -18 -109 0
-15 -19 110 0
-15 -19 -110 0
-15 -20 111 0
-15 -20 -111 0
-15 -21 112 0
-15 -21 -112 0
-16 -17 113 0
-16 -17 -113 0
-16 -18 114 0
-16 -18 -114 0
-16 -19 115 0
-16 -19 -115 0
-16 -20 116 0
-16 -20 -116 0
-16 -21 117 0
-16 -21 -117 0
-17 -18 118 0
-17 -18 -118 0
-17 -19 119 0
-17 -19 -119 0
-17 -20 120 0
-17 -20 -120 0
-17 -21 121 0
-17 -21 -121 0
-18 -19 122 0
-18 -19 -122 0
-18 -20 123 0
-18 -20 -123 0
-18 -21 124 0
-18 -21 -124 0
-19 -20 125 0
-19 -20 -125 0
-19 -21 126 0
-19 -21 -126 0
-20 -21 127 0
-20 -21 -127 0
15 16 128 0
17 -128 129 0
18 -129 130 0
19 -130 131 0
20 21 -131 0
-22 -23 132 0
-22 -23 -132 0
-22 -24 133 0
-22 -24 -133 0
-22 -25 134 0
-22 -25 -134 0
-22 -26 135 0
-22 -26 -135 0
-22 -27 136 0
-22 -27 -136 0
-22 -28 137 0
-22 -28 -137 0
-23 -24 138 0
-23 -24 -138 0
-23 -25 139 0
-23 -25 -139 0
-23 -26 140 0
-23 -26 -140 0
-23 -27 141 0
-23 -27 -141 0
-23 -28 142 0
-23 -28 -142 0
-24 -25 143 0
-24 -25 -143 0
-24 -26 144 0
-24 -26 -144 0
-24 -27 145 0
-24 -27 -145 0
-24 -28 146 0
-24 -28 -146 0
-25 -26 147 0
-25 -26 -147 0
-25 -27 148 0
-25 -27 -148 0
-25 -28 149 0
-25 -28 -149 0
-26 -27 150 0
-26 -27 -150 0
-26 -28 151 0
-26 -28 -151 0
-27 -28 152 0
-27 -28 -152 0
22 23 153 0
24 -153 154 0
25 -154 155 0
26 -155 156 0
27 28 -156 0
-29 -30 157 0
-29 -30 -157 0
-29 -31 158 0
-29 -31 -158 0
-29 -32 159 0
-29 -32 -159 0
-29 -33 160 0
-29 -33 -160 0
-29 -34 161 0
-29 -34 -161 0
-29 -35 162 0
-29 -35 -162 0
-30 -31 163 0
-30 -31 -163 0
-30 -32 164 0
-30 -32 -164 0
-30 -33 165 0
-30 -33 -165 0
-30 -34 166 0
-30 -34 -166 0
-30 -35 167 0
-30 -35 -167 0
-31 -32 168 0
-31 -32 -168 0
-31 -33 169 0
-31 -33 -169 0
-31 -34 170 0
-31 -34 -170 0
-31 -35 171 0
-31 -35 -171 0
-32 -33 172 0
-32 -33 -172 0
-32 -34 173 0
-32 -34 -173 0
-32 -35 174 0
-32 -35 -174 0
-33 -34 175 0
-33 -34 -175 0
-33 -35 176 0
-33 -35 -176 0
-34 -35 177 0
-34 -35 -177 0
29 30 178 0
31 -178 179 0
32 -179 180 0
33 -180 181 0
34 35 -181 0
-36 -37 182 0
-36 -37 -182 0
-36 -38 183 0
-36 -38 -183 0
-36 -39 184 0
-36 -39 -184 0
-36 -40 185 0
-36 -40 -185 0
-36 -41 186 0
-36 -41 -186 0
-36 -42 187 0
-36 -42 -187 0
-37 -38 188 0
-37 -38 -188 0
-37 -39 189 0
-37 -39 -189 0
-37 -40 190 0
-37 -40 -190 0
-37 -41 191 0
-37 -41 -191 0
-37 -42 192 0
-37 -42 -192 0
-38 -39 193 0
-38 -39 -193 0
-38 -40 194 0
-38 -40 -194 0
-38 -41 195 0
-38 -41 -195 0
-38 -42 196 0
-38 -42 -196 0
-39 -40 197 0
-39 -40 -197 0
-39 -41 198 0
-39 -41 -198 0
-39 -42 199 0
-39 -42 -199 0
-40 -41 200 0
-40 -41 -200 0
-40 -42 201 0
-40 -42 -201 0
-41 -42 202 0
-41 -42 -202 0
36 37 203 0
38 -203 204 0
39 -204 205 0
40 -205 206 0
41 42 -206 0
-43 -44 207 0
-43 -44 -207 0
-43 -45 208 0
-43 -45 -208 0
-43 -46 209 0
-43 -46 -209 0
-43 -47 210 0
-43 -47 -210 0
-43 -48 211 0
-43 -48 -211 0
-43 -49 212 0
-43 -49 -212 0
-44 -45 213 0
-44 -45 -213 0
-44 -46 214 0
-44 -46 -214 0
-44 -47 215 0
-44 -47 -215 0
-44 -48 216 0
-44 -48 -216 0
-44 -49 217 0
-44 -49 -217 0
-45 -46 218 0
-45 -46 -218 0
-45 -47 219 0
-45 -47 -219 0
-45 -48 220 0
-45 -48 -220 0
-45 -49 221 0
-45 -49 -221 0
-46 -47 222 0
-46 -47 -222 0
-46 -48 223 0
-46 -48 -223 0
-46 -49 224 0
-46 -49 -224 0
-47 -48 225 0
-47 -48 -225 0
-47 -49 226 0
-47 -49 -226 0
-48 -49 227 0
-48 -49 -227 0
43 44 228 0
45 -228 229 0
46 -229 230 0
47 -230 231 0
48 49 -231 0
-50 -51 232 0
-50 -51 -232 0
-50 -52 233 0
-50 -52 -233 0
-50 -53 234 0
-50 -53 -234 0
-50 -54 235 0
-50 -54 -235 0
-50 -55 236 0
-50 -55 -236 0
-50 -56 237 0
-50 -56 -237 0
-51 -52 238 0
-51 -52 -238 0
-51 -53 239 0
-51 -53 -239 0
-51 -54 240 0
-51 -54 -240 0
-51 -55 241 0
-51 -55 -241 0
-51 -56 242 0
-51 -56 -242 0
-52 -53 243 0
-52 -53 -243 0
-52 -54 244 0
-52 -54 -244 0
-52 -55 245 0
-52 -55 -245 0
-52 -56 246 0
-52 -56 -246 0
-53 -54 247 0
-53 -54 -247 0
-53 -55 248 0
-53 -55 -248 0
-53 -56 249 0
-53 -56 -249 0
-54 -55 250 0
-54 -55 -250 0
-54 -56 251 0
-54 -56 -251 0
-55 -56 252 0
-55 -56 -252 0
50 51 253 0
52 -253 254 0
53 -254 255 0
54 -255 256 0
55 56 -256 0
-1 -8 257 0
-1 -8 -257 0
-1 -15 258 0
-1 -15 -258 0
-1 -22 259 0
-1 -22 -259 0
-1 -29 260 0
-1 -29 -260 0
-1 -36 261 0
-1 -36 -261 0
-1 -43 262 0
-1 -43 -262 0
-1 -50 263 0
-1 -50 -263 0
-8 -15 264 0
-8 -15 -264 0
-8 -22 265 0
-8 -22 -265 0
-8 -29 266 0
-8 -29 -266 0
-8 -36 267 0
-8 -36 -267 0
-8 -43 268 0
-8 -43 -268 0
-8 -50 269 0
-8 -50 -269 0
-15 -22 270 0
-15 -22 -270 0
-15 -29 271 0
-15 -29 -271 0
-15 -36 272 0
-15 -36 -272 0
-15 -43 273 0
-15 -43 -273 0
-15 -50 274 0
-15 -50 -274 0
-22 -29 275 0
-22 -29 -275 0
-22 -36 276 0
-22 -36 -276 0
-22 -43 277 0
-22 -43 -277 0
-22 -50 278 0
-22 -50 -278 0
-29 -36 279 0
-29 -36 -279 0
-29 -43 280 0
-29 -43 -280 0
-29 -50 281 0
-29 -50 -281 0
-36 -43 282 0
-36 -43 -282 0
-36 -50 283 0
-36 -50 -283 0
-43 -50 284 0
-43 -50 -284 0
-2 -9 285 0
-2 -9 -285 0
-2 -16 286 0
-2 -16 -286 0
-2 -23 287 0
-2 -23 -287 0
-2 -30 288 0
-2 -30 -288 0
-2 -37 289 0
-2 -37 -289 0
-2 -44 290 0
-2 -44 -290 0
-2 -51 291 0
-2 -51 -291 0
-9 -16 292 0
-9 -16 -292 0
-9 -23 293 0
-9 -23 -293 0
-9 -30 294 0
-9 -30 -294 0
-9 -37 295 0
-9 -37 -295 0
-9 -44 296 0
-9 -44 -296 0
-9 -51 297 0
-9 -51 -297 0
-16 -23 298 0
-16 -23 -298 0
-16 -30 299 0
-16 -30 -299 0
-16 -37 300 0
-16 -37 -300 0
-16 -44 301 0
-16 -44 -301 0
-16 -51 302 0
-16 -51 -302 0
-23 -30 303 0
-23 -30 -303 0
-23 -37 304 0
-23 -37 -304 0
-23 -44 305 0
-23 -44 -305 0
-23 -51 306 0
-23 -51 -306 0
-30 -37 307 0
-30 -37 -307 0
-30 -44 308 0
-30 -44 -308 0
-30 -51 309 0
-30 -51 -309 0
-37 -44 310 0
-37 -44 -310 0
-37 -51 311 0
-37 -51 -311 0
-44 -51 312 0
-44 -51 -312 0
-3 -10 313 0
-3 -10 -313 0
-3 -17 314 0
-3 -17 -314 0
-3 -24 315 0
-3 -24 -315 0
-3 -31 316 0
-3 -31 -316 0
-3 -38 317 0
-3 -38 -317 0
-3 -45 318 0
-3 -45 -318 0
-3 -52 319 0
-3 -52 -319 0
-10 -17 320 0
-10 -17 -320 0
-10 -24 321 0
-10 -24 -321 0
-10 -31 322 0
-10 -31 -322 0
-10 -38 323 0
-10 -38 -323 0
-10 -45 324 0
-10 -45 -324 0
-10 -52 325 0
-10 -52 -325 0
-17 -24 326 0
-17 -24 -326 0
-17 -31 327 0
-17 -31 -327 0
-17 -38 328 0
-17 -38 -328 0
-17 -45 329 0
-17 -45 -329 0
-17 -52 330 0
-17 -52 -330 0
-24 -31 331 0
-24 -31 -331 0
-24 -38 332 0
-24 -38 -332 0
-24 -45 333 0
-24 -45 -333 0
-24 -52 334 0
-24 -52 -334 0
-31 -38 335 0
-31 -38 -335 0
-31 -45 336 0
-31 -45 -336 0
-31 -52 337 0
-31 -52 -337 0
-38 -45 338 0
-38 -45 -338 0
-38 -52 339 0
-38 -52 -339 0
-45 -52 340 0
-45 -52 -340 0
-4 -11 341 0
-4 -11 -341 0
-4 -18 342 0
-4 -18 -342 0
-4 -25 343 0
-4 -25 -343 0
-4 -32 344 0
-4 -32 -344 0
-4 -39 345 0
-4 -39 -345 0
-4 -46 346 0
-4 -46 -346 0
-4 -53 347 0
-4 -53 -347 0
-11 -18 348 0
-11 -18 -348 0
-11 -25 349 0
-11 -25 -349 0
-11 -32 350 0
-11 -32 -350 0
-11 -39 351 0
-11 -39 -351 0
-11 -46 352 0
-11 -46 -352 0
-11 -53 353 0
-11 -53 -353 0
-18 -25 354 0
-18 -25 -354 0
-18 -32 355 0
-18 -32 -355 0
-18 -39 356 0
-18 -39 -356 0
-18 -46 357 0
-18 -46 -357 0
-18 -53 358 0
-18 -53 -358 0
-25 -32 359 0
-25 -32 -359 0
-25 -39 360 0
-25 -39 -360 0
-25 -46 361 0
-25 -46 -361 0
-25 -53 362 0
-25 -53 -362 0
-32 -39 363 0
-32 -39 -363 0
-32 -46 364 0
-32 -46 -364 0
-32 -53 365 0
-32 -53 -365 0
-39 -46 366 0
-39 -46 -366 0
-39 -53 367 0
-39 -53 -367 0
-46 -53 368 0
-46 -53 -368 0
-5 -12 369 0
-5 -12 -369 0
-5 -19 370 0
-5 -19 -370 0
-5 -26 371 0
-5 -26 -371 0
-5 -33 372 0
-5 -33 -372 0
-5 -40 373 0
-5 -40 -373 0
-5 -47 374 0
-5 -47 -374 0
-5 -54 375 0
-5 -54 -375 0
-12 -19 376 0
-12 -19 -376 0
-12 -26 377 0
-12 -26 -377 0
-12 -33 378 0
-12 -33 -378 0
-12 -40 379 0
-12 -40 -379 0
-12 -47 380 0
-12 -47 -380 0
-12 -54 381 0
-12 -54 -381 0
-19 -26 382 0
-19 -26 -382 0
-19 -33 383 0
-19 -33 -383 0
-19 -40 384 0
-19 -40 -384 0
-19 -47 385 0
-19 -47 -385 0
-19 -54 386 0
-19 -54 -386 0
-26 -33 387 0
-26 -33 -387 0
-26 -40 388 0
-26 -40 -388 0
-26 -47 389 0
-26 -47 -389 0
-26 -54 390 0
-26 -54 -390 0
-33 -40 391 0
-33 -40 -391 0
-33 -47 392 0
-33 -47 -392 0
-33 -54 393 0
-33 -54 -393 0
-40 -47 394 0
-40 -47 -394 0
-40 -54 395 0
-40 -54 -395 0
-47 -54 396 0
-47 -54 -396 0
-6 -13 397 0
-6 -13 -397 0
-6 -20 398 0
-6 -20 -398 0
-6 -27 399 0
-6 -27 -399 0
-6 -34 400 0
-6 -34 -400 0
-6 -41 401 0
-6 -41 -401 0
-6 -48 402 0
-6 -48 -402 0
-6 -55 403 0
-6 -55 -403 0
-13 -20 404 0
-13 -20 -404 0
-13 -27 405 0
-13 -27 -405 0
-13 -34 406 0
-13 -34 -406 0
-13 -41 407 0
-13 -41 -407 0
-13 -48 408 0
-13 -48 -408 0
-13 -55 409 0
-13 -55 -409 0
-20 -27 410 0
-20 -27 -410 0
-20 -34 411 0
-20 -34 -411 0
-20 -41 412 0
-20 -41 -412 0
-20 -48 413 0
-20 -48 -413 0
-20 -55 414 0
-20 -55 -414 0
-27 -34 415 0
-27 -34 -415 0
-27 -41 416 0
-27 -41 -416 0
-27 -48 417 0
-27 -48 -417 0
-27 -55 418 0
-27 -55 -418 0
-34 -41 419 0
-34 -41 -419 0
-34 -48 420 0
-34 -48 -420 0
-34 -55 421 0
-34 -55 -421 0
-41 -48 422 0
-41 -48 -422 0
-41 -55 423 0
-41 -55 -423 0
-48 -55 424 0
-48 -55 -424 0
-7 -14 425 0
-7 -14 -425 0
-7 -21 426 0
-7 -21 -426 0
-7 -28 427 0
-7 -28 -427 0
-7 -35 428 0
-7 -35 -428 0
-7 -42 429 0
-7 -42 -429 0
-7 -49 430 0
-7 -49 -430 0
-7 -56 431 0
-7 -56 -431 0
-14 -21 432 0
-14 -21 -432 0
-14 -28 433 0
-14 -28 -433 0
-14 -35 434 0
-14 -35 -434 0
-14 -42 435 0
-14 -42 -435 0
-14 -49 436 0
-14 -49 -436 0
-14 -56 437 0
-14 -56 -437 0
-21 -28 438 0
-21 -28 -438 0
-21 -35 439 0
-21 -35 -439 0
-21 -42 440 0
-21 -42 -440 0
-21 -49 441 0
-21 -49 -441 0
-21 -56 442 0
-21 -56 -442 0
-28 -35 443 0
-28 -35 -443 0
-28 -42 444 0
-28 -42 -444 0
-28 -49 445 0
-28 -49 -445 0
-28 -56 446 0
-28 -56 -446 0
-35 -42 447 0
-35 -42 -447 0
-35 -49 448 0
-35 -49 -448 0
-35 -56 449 0
-35 -56 -449 0
-42 -49 450 0
-42 -49 -450 0
-42 -56 451 0
-42 -56 -451 0
-49 -56 452 0
-49 -56 -452 0
