c Phase 3 generated performance instance
c family=hidden_pigeonhole
c scale=8
c variant=tune
c noise_percent=100
c expected=UNSATISFIABLE
p cnf 836 1536
-1 -2 57 0
-1 -2 -57 0
-1 -3 58 0
-1 -3 -58 0
-1 -4 59 0
-1 -4 -59 0
-1 -5 60 0
-1 -5 -60 0
-1 -6 61 0
-1 -6 -61 0
-1 -7 62 0
-1 -7 -62 0
-2 -3 63 0
-2 -3 -63 0
-2 -4 64 0
-2 -4 -64 0
-2 -5 65 0
-2 -5 -65 0
-2 -6 66 0
-2 -6 -66 0
-2 -7 67 0
-2 -7 -67 0
-3 -4 68 0
-3 -4 -68 0
-3 -5 69 0
-3 -5 -69 0
-3 -6 70 0
-3 -6 -70 0
-3 -7 71 0
-3 -7 -71 0
-4 -5 72 0
-4 -5 -72 0
-4 -6 73 0
-4 -6 -73 0
-4 -7 74 0
-4 -7 -74 0
-5 -6 75 0
-5 -6 -75 0
-5 -7 76 0
-5 -7 -76 0
-6 -7 77 0
-6 -7 -77 0
1 2 78 0
3 -78 79 0
4 -79 80 0
5 -80 81 0
6 7 -81 0
-8 -9 82 0
-8 -9 -82 0
-8 -10 83 0
-8 -10 -83 0
-8 -11 84 0
-8 -11 -84 0
-8 -12 85 0
-8 -12 -85 0
-8 -13 86 0
-8 -13 -86 0
-8 -14 87 0
-8 -14 -87 0
-9 -10 88 0
-9 -10 -88 0
-9 -11 89 0
-9 -11 -89 0
-9 -12 90 0
-9 -12 -90 0
-9 -13 91 0
-9 -13 -91 0
-9 -14 92 0
-9 -14 -92 0
-10 -11 93 0
-10 -11 -93 0
-10 -12 94 0
-10 -12 -94 0
-10 -13 95 0
-10 -13 -95 0
-10 -14 96 0
-10 -14 -96 0
-11 -12 97 0
-11 -12 -97 0
-11 -13 98 0
-11 -13 -98 0
-11 -14 99 0
-11 -14 -99 0
-12 -13 100 0
-12 -13 -100 0
-12 -14 101 0
-12 -14 -101 0
-13 -14 102 0
-13 -14 -102 0
8 9 103 0
10 -103 104 0
11 -104 105 0
12 -105 106 0
13 14 -106 0
-15 -16 107 0
-15 -16 -107 0
-15 -17 108 0
-15 -17 -108 0
-15 -18 109 0
-15 -18 -109 0
-15 -19 110 0
-15 -19 -110 0
-15 -20 111 0
-15 -20 -111 0
-15 -21 112 0
-15 -21 -112 0
-16 -17 113 0
-16 -17 -113 0
-16 -18 114 0
-16 -18 -114 0
-16 -19 115 0
-16 -19 -115 0
-16 -20 116 0
-16 -20 -116 0
-16 -21 117 0
-16 -21 -117 0
-17 -18 118 0
-17 -18 -118 0
-17 -19 119 0
-17 -19 -119 0
-17 -20 120 0
-17 -20 -120 0
-17 -21 121 0
-17 -21 -121 0
-18 -19 122 0
-18 -19 -122 0
-18 -20 123 0
-18 -20 -123 0
-18 -21 124 0
-18 -21 -124 0
-19 -20 125 0
-19 -20 -125 0
-19 -21 126 0
-19 -21 -126 0
-20 -21 127 0
-20 -21 -127 0
15 16 128 0
17 -128 129 0
18 -129 130 0
19 -130 131 0
20 21 -131 0
-22 -23 132 0
-22 -23 -132 0
-22 -24 133 0
-22 -24 -133 0
-22 -25 134 0
-22 -25 -134 0
-22 -26 135 0
-22 -26 -135 0
-22 -27 136 0
-22 -27 -136 0
-22 -28 137 0
-22 -28 -137 0
-23 -24 138 0
-23 -24 -138 0
-23 -25 139 0
-23 -25 -139 0
-23 -26 140 0
-23 -26 -140 0
-23 -27 141 0
-23 -27 -141 0
-23 -28 142 0
-23 -28 -142 0
-24 -25 143 0
-24 -25 -143 0
-24 -26 144 0
-24 -26 -144 0
-24 -27 145 0
-24 -27 -145 0
-24 -28 146 0
-24 -28 -146 0
-25 -26 147 0
-25 -26 -147 0
-25 -27 148 0
-25 -27 -148 0
-25 -28 149 0
-25 -28 -149 0
-26 -27 150 0
-26 -27 -150 0
-26 -28 151 0
-26 -28 -151 0
-27 -28 152 0
-27 -28 -152 0
22 23 153 0
24 -153 154 0
25 -154 155 0
26 -155 156 0
27 28 -156 0
-29 -30 157 0
-29 -30 -157 0
-29 -31 158 0
-29 -31 -158 0
-29 -32 159 0
-29 -32 -159 0
-29 -33 160 0
-29 -33 -160 0
-29 -34 161 0
-29 -34 -161 0
-29 -35 162 0
-29 -35 -162 0
-30 -31 163 0
-30 -31 -163 0
-30 -32 164 0
-30 -32 -164 0
-30 -33 165 0
-30 -33 -165 0
-30 -34 166 0
-30 -34 -166 0
-30 -35 167 0
-30 -35 -167 0
-31 -32 168 0
-31 -32 -168 0
-31 -33 169 0
-31 -33 -169 0
-31 -34 170 0
-31 -34 -170 0
-31 -35 171 0
-31 -35 -171 0
-32 -33 172 0
-32 -33 -172 0
-32 -34 173 0
-32 -34 -173 0
-32 -35 174 0
-32 -35 -174 0
-33 -34 175 0
-33 -34 -175 0
-33 -35 176 0
-33 -35 -176 0
-34 -35 177 0
-34 -35 -177 0
29 30 178 0
31 -178 179 0
32 -179 180 0
33 -180 181 0
34 35 -181 0
-36 -37 182 0
-36 -37 -182 0
-36 -38 183 0
-36 -38 -183 0
-36 -39 184 0
-36 -39 -184 0
-36 -40 185 0
-36 -40 -185 0
-36 -41 186 0
-36 -41 -186 0
-36 -42 187 0
-36 -42 -187 0
-37 -38 188 0
-37 -38 -188 0
-37 -39 189 0
-37 -39 -189 0
-37 -40 190 0
-37 -40 -190 0
-37 -41 191 0
-37 -41 -191 0
-37 -42 192 0
-37 -42 -192 0
-38 -39 193 0
-38 -39 -193 0
-38 -40 194 0
-38 -40 -194 0
-38 -41 195 0
-38 -41 -195 0
-38 -42 196 0
-38 -42 -196 0
-39 -40 197 0
-39 -40 -197 0
-39 -41 198 0
-39 -41 -198 0
-39 -42 199 0
-39 -42 -199 0
-40 -41 200 0
-40 -41 -200 0
-40 -42 201 0
-40 -42 -201 0
-41 -42 202 0
-41 -42 -202 0
36 37 203 0
38 -203 204 0
39 -204 205 0
40 -205 206 0
41 42 -206 0
-43 -44 207 0
-43 -44 -207 0
-43 -45 208 0
-43 -45 -208 0
-43 -46 209 0
-43 -46 -209 0
-43 -47 210 0
-43 -47 -210 0
-43 -48 211 0
-43 -48 -211 0
-43 -49 212 0
-43 -49 -212 0
-44 -45 213 0
-44 -45 -213 0
-44 -46 214 0
-44 -46 -214 0
-44 -47 215 0
-44 -47 -215 0
-44 -48 216 0
-44 -48 -216 0
-44 -49 217 0
-44 -49 -217 0
-45 -46 218 0
-45 -46 -218 0
-45 -47 219 0
-45 -47 -219 0
-45 -48 220 0
-45 -48 -220 0
-45 -49 221 0
-45 -49 -221 0
-46 -47 222 0
-46 -47 -222 0
-46 -48 223 0
-46 -48 -223 0
-46 -49 224 0
-46 -49 -224 0
-47 -48 225 0
-47 -48 -225 0
-47 -49 226 0
-47 -49 -226 0
-48 -49 227 0
-48 -49 -227 0
43 44 228 0
45 -228 229 0
46 -229 230 0
47 -230 231 0
48 49 -231 0
-50 -51 232 0
-50 -51 -232 0
-50 -52 233 0
-50 -52 -233 0
-50 -53 234 0
-50 -53 -234 0
-50 -54 235 0
-50 -54 -235 0
-50 -55 236 0
-50 -55 -236 0
-50 -56 237 0
-50 -56 -237 0
-51 -52 238 0
-51 -52 -238 0
-51 -53 239 0
-51 -53 -239 0
-51 -54 240 0
-51 -54 -240 0
-51 -55 241 0
-51 -55 -241 0
-51 -56 242 0
-51 -56 -242 0
-52 -53 243 0
-52 -53 -243 0
-52 -54 244 0
-52 -54 -244 0
-52 -55 245 0
-52 -55 -245 0
-52 -56 246 0
-52 -56 -246 0
-53 -54 247 0
-53 -54 -247 0
-53 -55 248 0
-53 -55 -248 0
-53 -56 249 0
-53 -56 -249 0
-54 -55 250 0
-54 -55 -250 0
-54 -56 251 0
-54 -56 -251 0
-55 -56 252 0
-55 -56 -252 0
50 51 253 0
52 -253 254 0
53 -254 255 0
54 -255 256 0
55 56 -256 0
-1 -8 257 0
-1 -8 -257 0
-1 -15 258 0
-1 -15 -258 0
-1 -22 259 0
-1 -22 -259 0
-1 -29 260 0
-1 -29 -260 0
-1 -36 261 0
-1 -36 -261 0
-1 -43 262 0
-1 -43 -262 0
-1 -50 263 0
-1 -50 -263 0
-8 -15 264 0
-8 -15 -264 0
-8 -22 265 0
-8 -22 -265 0
-8 -29 266 0
-8 -29 -266 0
-8 -36 267 0
-8 -36 -267 0
-8 -43 268 0
-8 -43 -268 0
-8 -50 269 0
-8 -50 -269 0
-15 -22 270 0
-15 -22 -270 0
-15 -29 271 0
-15 -29 -271 0
-15 -36 272 0
-15 -36 -272 0
-15 -43 273 0
-15 -43 -273 0
-15 -50 274 0
-15 -50 -274 0
-22 -29 275 0
-22 -29 -275 0
-22 -36 276 0
-22 -36 -276 0
-22 -43 277 0
-22 -43 -277 0
-22 -50 278 0
-22 -50 -278 0
-29 -36 279 0
-29 -36 -279 0
-29 -43 280 0
-29 -43 -280 0
-29 -50 281 0
-29 -50 -281 0
-36 -43 282 0
-36 -43 -282 0
-36 -50 283 0
-36 -50 -283 0
-43 -50 284 0
-43 -50 -284 0
-2 -9 285 0
-2 -9 -285 0
-2 -16 286 0
-2 -16 -286 0
-2 -23 287 0
-2 -23 -287 0
-2 -30 288 0
-2 -30 -288 0
-2 -37 289 0
-2 -37 -289 0
-2 -44 290 0
-2 -44 -290 0
-2 -51 291 0
-2 -51 -291 0
-9 -16 292 0
-9 -16 -292 0
-9 -23 293 0
-9 -23 -293 0
-9 -30 294 0
-9 -30 -294 0
-9 -37 295 0
-9 -37 -295 0
-9 -44 296 0
-9 -44 -296 0
-9 -51 297 0
-9 -51 -297 0
-16 -23 298 0
-16 -23 -298 0
-16 -30 299 0
-16 -30 -299 0
-16 -37 300 0
-16 -37 -300 0
-16 -44 301 0
-16 -44 -301 0
-16 -51 302 0
-16 -51 -302 0
-23 -30 303 0
-23 -30 -303 0
-23 -37 304 0
-23 -37 -304 0
-23 -44 305 0
-23 -44 -305 0
-23 -51 306 0
-23 -51 -306 0
-30 -37 307 0
-30 -37 -307 0
-30 -44 308 0
-30 -44 -308 0
-30 -51 309 0
-30 -51 -309 0
-37 -44 310 0
-37 -44 -310 0
-37 -51 311 0
-37 -51 -311 0
-44 -51 312 0
-44 -51 -312 0
-3 -10 313 0
-3 -10 -313 0
-3 -17 314 0
-3 -17 -314 0
-3 -24 315 0
-3 -24 -315 0
-3 -31 316 0
-3 -31 -316 0
-3 -38 317 0
-3 -38 -317 0
-3 -45 318 0
-3 -45 -318 0
-3 -52 319 0
-3 -52 -319 0
-10 -17 320 0
-10 -17 -320 0
-10 -24 321 0
-10 -24 -321 0
-10 -31 322 0
-10 -31 -322 0
-10 -38 323 0
-10 -38 -323 0
-10 -45 324 0
-10 -45 -324 0
-10 -52 325 0
-10 -52 -325 0
-17 -24 326 0
-17 -24 -326 0
-17 -31 327 0
-17 -31 -327 0
-17 -38 328 0
-17 -38 -328 0
-17 -45 329 0
-17 -45 -329 0
-17 -52 330 0
-17 -52 -330 0
-24 -31 331 0
-24 -31 -331 0
-24 -38 332 0
-24 -38 -332 0
-24 -45 333 0
-24 -45 -333 0
-24 -52 334 0
-24 -52 -334 0
-31 -38 335 0
-31 -38 -335 0
-31 -45 336 0
-31 -45 -336 0
-31 -52 337 0
-31 -52 -337 0
-38 -45 338 0
-38 -45 -338 0
-38 -52 339 0
-38 -52 -339 0
-45 -52 340 0
-45 -52 -340 0
-4 -11 341 0
-4 -11 -341 0
-4 -18 342 0
-4 -18 -342 0
-4 -25 343 0
-4 -25 -343 0
-4 -32 344 0
-4 -32 -344 0
-4 -39 345 0
-4 -39 -345 0
-4 -46 346 0
-4 -46 -346 0
-4 -53 347 0
-4 -53 -347 0
-11 -18 348 0
-11 -18 -348 0
-11 -25 349 0
-11 -25 -349 0
-11 -32 350 0
-11 -32 -350 0
-11 -39 351 0
-11 -39 -351 0
-11 -46 352 0
-11 -46 -352 0
-11 -53 353 0
-11 -53 -353 0
-18 -25 354 0
-18 -25 -354 0
-18 -32 355 0
-18 -32 -355 0
-18 -39 356 0
-18 -39 -356 0
-18 -46 357 0
-18 -46 -357 0
-18 -53 358 0
-18 -53 -358 0
-25 -32 359 0
-25 -32 -359 0
-25 -39 360 0
-25 -39 -360 0
-25 -46 361 0
-25 -46 -361 0
-25 -53 362 0
-25 -53 -362 0
-32 -39 363 0
-32 -39 -363 0
-32 -46 364 0
-32 -46 -364 0
-32 -53 365 0
-32 -53 -365 0
-39 -46 366 0
-39 -46 -366 0
-39 -53 367 0
-39 -53 -367 0
-46 -53 368 0
-46 -53 -368 0
-5 -12 369 0
-5 -12 -369 0
-5 -19 370 0
-5 -19 -370 0
-5 -26 371 0
-5 -26 -371 0
-5 -33 372 0
-5 -33 -372 0
-5 -40 373 0
-5 -40 -373 0
-5 -47 374 0
-5 -47 -374 0
-5 -54 375 0
-5 -54 -375 0
-12 -19 376 0
-12 -19 -376 0
-12 -26 377 0
-12 -26 -377 0
-12 -33 378 0
-12 -33 -378 0
-12 -40 379 0
-12 -40 -379 0
-12 -47 380 0
-12 -47 -380 0
-12 -54 381 0
-12 -54 -381 0
-19 -26 382 0
-19 -26 -382 0
-19 -33 383 0
-19 -33 -383 0
-19 -40 384 0
-19 -40 -384 0
-19 -47 385 0
-19 -47 -385 0
-19 -54 386 0
-19 -54 -386 0
-26 -33 387 0
-26 -33 -387 0
-26 -40 388 0
-26 -40 -388 0
-26 -47 389 0
-26 -47 -389 0
-26 -54 390 0
-26 -54 -390 0
-33 -40 391 0
-33 -40 -391 0
-33 -47 392 0
-33 -47 -392 0
-33 -54 393 0
-33 -54 -393 0
-40 -47 394 0
-40 -47 -394 0
-40 -54 395 0
-40 -54 -395 0
-47 -54 396 0
-47 -54 -396 0
-6 -13 397 0
-6 -13 -397 0
-6 -20 398 0
-6 -20 -398 0
-6 -27 399 0
-6 -27 -399 0
-6 -34 400 0
-6 -34 -400 0
-6 -41 401 0
-6 -41 -401 0
-6 -48 402 0
-6 -48 -402 0
-6 -55 403 0
-6 -55 -403 0
-13 -20 404 0
-13 -20 -404 0
-13 -27 405 0
-13 -27 -405 0
-13 -34 406 0
-13 -34 -406 0
-13 -41 407 0
-13 -41 -407 0
-13 -48 408 0
-13 -48 -408 0
-13 -55 409 0
-13 -55 -409 0
-20 -27 410 0
-20 -27 -410 0
-20 -34 411 0
-20 -34 -411 0
-20 -41 412 0
-20 -41 -412 0
-20 -48 413 0
-20 -48 -413 0
-20 -55 414 0
-20 -55 -414 0
-27 -34 415 0
-27 -34 -415 0
-27 -41 416 0
-27 -41 -416 0
-27 -48 417 0
-27 -48 -417 0
-27 -55 418 0
-27 -55 -418 0
-34 -41 419 0
-34 -41 -419 0
-34 -48 420 0
-34 -48 -420 0
-34 -55 421 0
-34 -55 -421 0
-41 -48 422 0
-41 -48 -422 0
-41 -55 423 0
-41 -55 -423 0
-48 -55 424 0
-48 -55 -424 0
-7 -14 425 0
-7 -14 -425 0
-7 -21 426 0
-7 -21 -426 0
-7 -28 427 0
-7 -28 -427 0
-7 -35 428 0
-7 -35 -428 0
-7 -42 429 0
-7 -42 -429 0
-7 -49 430 0
-7 -49 -430 0
-7 -56 431 0
-7 -56 -431 0
-14 -21 432 0
-14 -21 -432 0
-14 -28 433 0
-14 -28 -433 0
-14 -35 434 0
-14 -35 -434 0
-14 -42 435 0
-14 -42 -435 0
-14 -49 436 0
-14 -49 -436 0
-14 -56 437 0
-14 -56 -437 0
-21 -28 438 0
-21 -28 -438 0
-21 -35 439 0
-21 -35 -439 0
-21 -42 440 0
-21 -42 -440 0
-21 -49 441 0
-21 -49 -441 0
-21 -56 442 0
-21 -56 -442 0
-28 -35 443 0
-28 -35 -443 0
-28 -42 444 0
-28 -42 -444 0
-28 -49 445 0
-28 -49 -445 0
-28 -56 446 0
-28 -56 -446 0
-35 -42 447 0
-35 -42 -447 0
-35 -49 448 0
-35 -49 -448 0
-35 -56 449 0
-35 -56 -449 0
-42 -49 450 0
-42 -49 -450 0
-42 -56 451 0
-42 -56 -451 0
-49 -56 452 0
-49 -56 -452 0
-500 -509 517 0
-544 718 727 0
518 -648 835 0
-539 -650 831 0
-467 664 816 0
623 -689 694 0
749 -789 -827 0
530 604 768 0
503 -570 -685 0
-552 629 772 0
-577 -605 -680 0
620 -717 -760 0
-537 824 -836 0
740 835 836 0
-566 568 -818 0
460 535 -757 0
-497 -518 809 0
608 782 -793 0
563 628 -661 0
492 503 742 0
-486 -681 -809 0
-466 638 -822 0
-467 558 833 0
531 -568 827 0
578 611 744 0
583 -692 -773 0
512 653 778 0
-575 -639 -642 0
623 -777 -796 0
-558 -806 -821 0
537 542 699 0
464 -663 -684 0
-463 651 701 0
517 -611 787 0
483 630 786 0
541 -572 -682 0
-569 594 836 0
-519 675 739 0
546 728 -819 0
578 -662 700 0
531 -540 830 0
470 694 -778 0
-561 -605 -822 0
732 -805 -820 0
-481 598 -807 0
482 -594 -730 0
-598 -718 -744 0
-521 778 -782 0
589 605 -763 0
464 -470 -673 0
-568 584 710 0
569 -774 810 0
-543 -677 689 0
527 554 -744 0
-553 -720 -724 0
481 -747 -754 0
-533 -658 736 0
654 787 800 0
624 -626 771 0
588 -613 819 0
-669 709 732 0
515 -664 772 0
590 -637 -836 0
486 499 660 0
-471 535 -547 0
-519 -608 822 0
758 801 810 0
467 -773 781 0
-510 -593 -732 0
-652 663 -702 0
-510 582 -702 0
-494 534 -789 0
502 534 -572 0
-521 644 -821 0
647 682 -822 0
503 570 594 0
-486 535 754 0
542 -555 801 0
578 701 -785 0
570 680 698 0
-473 -825 -826 0
471 485 763 0
-516 563 663 0
-460 -677 769 0
-674 -747 767 0
575 -738 -795 0
-474 654 -725 0
-453 -458 -483 0
-558 625 760 0
-555 637 -721 0
748 801 804 0
-474 720 821 0
704 -733 -735 0
471 508 -678 0
481 718 -828 0
-486 -697 -712 0
493 -510 757 0
461 -469 622 0
-748 -773 -818 0
494 509 -741 0
685 -735 819 0
528 610 831 0
690 -703 821 0
461 -760 -817 0
-668 -728 752 0
616 -710 754 0
632 743 754 0
592 -600 610 0
-587 -628 -733 0
589 -713 -758 0
552 -652 -754 0
-541 -610 752 0
538 -796 -830 0
-461 542 -773 0
-461 465 -526 0
521 -612 -657 0
-502 -732 -742 0
587 641 794 0
-652 -809 834 0
-499 -567 661 0
464 -494 577 0
651 721 -784 0
456 -496 663 0
532 578 -670 0
633 699 -797 0
-501 -516 -648 0
-460 503 -825 0
-477 596 644 0
560 725 -787 0
-458 483 -559 0
455 -509 -766 0
585 -641 -833 0
-486 487 -740 0
470 -642 749 0
607 -631 638 0
-756 783 833 0
561 -576 -683 0
785 802 -821 0
720 727 750 0
-463 608 -613 0
-629 676 -822 0
-674 -772 779 0
-537 554 -620 0
512 523 -622 0
494 527 -769 0
-514 565 694 0
507 -609 784 0
568 -621 -687 0
787 822 829 0
497 -677 689 0
-460 -481 817 0
454 496 -656 0
481 -507 508 0
-465 486 683 0
470 615 -657 0
575 -805 807 0
593 664 762 0
457 608 -642 0
-480 774 817 0
686 -786 801 0
-488 547 -628 0
484 -731 -787 0
-565 691 795 0
-488 -496 820 0
-621 -708 -826 0
-631 -780 -799 0
-532 -614 749 0
607 621 823 0
535 666 -696 0
724 -757 788 0
517 -575 801 0
-475 -734 -822 0
603 -634 692 0
481 -630 -718 0
-647 687 817 0
-502 641 793 0
522 -682 -833 0
-579 653 746 0
476 -562 586 0
520 641 -815 0
-476 810 836 0
-510 545 623 0
556 592 671 0
519 -609 697 0
485 622 -721 0
472 -670 727 0
588 -599 -771 0
514 768 -778 0
573 -615 -626 0
616 -646 -818 0
655 681 -750 0
-694 -713 796 0
523 600 -773 0
502 -577 736 0
-459 -465 593 0
-477 -557 720 0
502 564 795 0
-556 -716 -729 0
-640 699 790 0
-698 -706 -770 0
520 -589 -726 0
573 759 -776 0
515 566 -603 0
-454 -566 667 0
516 -591 721 0
-571 651 -727 0
783 -801 811 0
-500 -584 706 0
-479 -555 -765 0
710 720 -742 0
-457 624 706 0
520 -527 -770 0
-590 774 -810 0
-530 -599 -705 0
-461 -654 781 0
-553 599 -754 0
-665 -695 717 0
-702 825 826 0
525 -561 -795 0
-654 687 832 0
487 -534 -647 0
472 719 -831 0
-551 554 -775 0
460 -733 816 0
-482 -495 -694 0
577 -626 -805 0
512 -625 -686 0
715 733 738 0
-574 770 805 0
550 703 -795 0
530 701 -708 0
-468 632 -794 0
-674 690 -801 0
822 825 -828 0
698 737 744 0
-633 685 722 0
563 673 -681 0
-690 -794 799 0
-571 -645 -685 0
466 -471 -535 0
-624 -725 -805 0
-668 680 -777 0
-574 -699 -732 0
-619 682 -754 0
-489 514 746 0
456 -738 739 0
-490 493 707 0
482 539 -830 0
552 -637 -674 0
-531 591 652 0
508 -716 829 0
527 548 -616 0
-506 -635 -802 0
520 -524 714 0
-485 682 -692 0
-490 598 -661 0
496 -526 -573 0
538 607 -800 0
-478 -490 501 0
693 721 -819 0
-503 541 -702 0
-603 744 -767 0
-454 575 694 0
-774 784 795 0
497 -696 -785 0
-525 644 683 0
-561 746 -802 0
-636 697 -804 0
559 620 706 0
-479 588 649 0
594 609 -767 0
-593 -631 -718 0
502 694 813 0
526 -575 653 0
706 728 763 0
529 631 -685 0
-650 730 -743 0
585 608 770 0
-482 -506 -520 0
-498 803 -817 0
-524 763 -797 0
464 804 -818 0
-504 -799 813 0
680 -707 -779 0
498 -595 -736 0
-487 -608 -716 0
-631 714 -731 0
625 667 824 0
467 766 830 0
-506 631 -748 0
-603 -665 -668 0
-462 478 -657 0
-595 789 798 0
-664 -670 785 0
685 733 809 0
557 756 -775 0
717 761 -836 0
-719 743 818 0
456 -506 -688 0
-515 622 720 0
-712 714 -835 0
503 579 726 0
-555 -649 754 0
-514 -722 -726 0
464 475 584 0
469 -553 561 0
478 623 -705 0
-464 494 794 0
-539 -614 -757 0
638 -756 -812 0
-508 603 -711 0
-540 593 -625 0
553 -557 739 0
658 720 -763 0
523 -531 -665 0
548 -643 710 0
529 -809 -816 0
-461 -526 -725 0
494 512 -596 0
-551 -565 -688 0
567 -602 731 0
-460 -533 713 0
477 509 -764 0
-547 650 730 0
470 542 807 0
-523 590 -594 0
-554 -616 -721 0
-514 548 -755 0
-519 -601 768 0
-519 608 -807 0
584 604 -639 0
-623 -644 -684 0
-517 -563 688 0
489 829 830 0
-514 -532 533 0
542 683 731 0
578 617 -713 0
639 -743 -791 0
-612 -749 -770 0
-517 -526 -575 0
-565 578 -640 0
657 749 797 0
683 -717 760 0
-510 676 -776 0
-494 -724 -725 0
617 681 789 0
778 -785 -796 0
-535 -549 -676 0
-639 -737 -801 0
477 -618 662 0
-663 819 832 0
492 603 801 0
562 -756 -803 0
478 -618 -679 0
495 -595 -709 0
-677 -698 800 0
470 652 -663 0
-551 -680 730 0
488 -627 -664 0
519 538 717 0
498 -604 -803 0
737 -803 -809 0
-608 623 -684 0
778 783 -788 0
483 -520 -778 0
487 -508 781 0
-521 741 -829 0
558 -592 -752 0
482 698 -813 0
-478 560 -677 0
621 -808 -829 0
491 -689 -738 0
460 -514 713 0
600 -634 647 0
-512 -513 762 0
-659 779 834 0
454 556 561 0
535 -630 -700 0
-462 667 -756 0
-582 -670 729 0
469 -566 -576 0
-460 -551 795 0
614 679 703 0
552 -646 812 0
-553 -578 721 0
-612 746 754 0
-462 725 809 0
-477 -566 783 0
516 583 718 0
470 549 -809 0
462 -709 -746 0
-650 -692 757 0
537 -566 836 0
723 -728 793 0
472 538 -550 0
-511 705 731 0
-643 -743 -820 0
-596 687 808 0
-466 -521 -626 0
-488 -535 -597 0
755 801 815 0
-532 741 780 0
-488 506 575 0
459 469 746 0
606 -791 -807 0
521 -678 807 0
554 -618 -623 0
-579 -671 -709 0
568 -621 -755 0
513 -601 -712 0
-485 -668 820 0
511 757 807 0
502 -613 731 0
-513 576 633 0
528 754 763 0
487 593 -816 0
-551 572 736 0
497 599 827 0
535 -556 -781 0
485 514 -605 0
587 -610 637 0
-468 701 789 0
-724 743 831 0
-453 669 -674 0
-598 710 -757 0
482 489 724 0
585 -586 -635 0
591 593 753 0
516 682 -822 0
-462 675 736 0
-652 -678 701 0
-572 -774 829 0
480 609 -754 0
-459 -593 678 0
-541 -684 824 0
-620 738 -750 0
-558 569 812 0
-521 608 614 0
-535 -709 -755 0
-569 702 -760 0
-623 727 -753 0
590 -618 647 0
599 685 777 0
-461 -516 622 0
482 532 680 0
624 785 822 0
466 -476 684 0
458 711 -761 0
529 -624 -819 0
454 485 614 0
-617 -735 -824 0
-454 -475 580 0
740 -810 -826 0
-517 -670 786 0
-595 648 772 0
480 514 -535 0
541 -544 -657 0
655 676 -797 0
584 -740 -778 0
-492 -523 -691 0
-589 750 791 0
-582 587 -616 0
-591 -615 -743 0
534 -732 807 0
553 -583 -733 0
522 622 651 0
-484 547 762 0
695 -708 775 0
-537 -557 -750 0
-489 745 792 0
-476 646 769 0
599 -748 -805 0
-484 548 -833 0
486 -547 796 0
-529 -675 723 0
-562 605 667 0
746 -771 -836 0
525 653 836 0
482 645 -785 0
591 -682 695 0
620 703 828 0
453 -527 569 0
-524 719 -747 0
552 590 619 0
-530 -702 727 0
-603 -637 682 0
671 -727 750 0
-588 -599 -741 0
639 -681 785 0
689 774 833 0
587 -687 743 0
-472 703 -812 0
-472 -684 -806 0
-605 -721 809 0
-569 -713 -791 0
468 589 770 0
667 722 739 0
-570 -761 788 0
488 669 671 0
-550 627 809 0
-502 -574 -751 0
527 559 666 0
-556 -671 -699 0
455 -622 811 0
-621 634 649 0
476 -529 -761 0
484 -647 -748 0
-499 533 580 0
-509 -594 -713 0
461 583 822 0
659 714 -743 0
-504 -586 782 0
-525 556 827 0
-522 815 -831 0
673 -803 -818 0
456 -663 696 0
-574 671 -710 0
-492 539 -737 0
630 -645 665 0
535 655 -708 0
561 -659 763 0
-581 796 834 0
-662 -699 773 0
-581 -636 655 0
-633 816 821 0
-503 510 732 0
-522 622 811 0
732 750 808 0
497 760 802 0
627 686 -836 0
501 -717 786 0
571 594 -774 0
459 728 -729 0
-521 589 -616 0
-675 712 804 0
639 -730 828 0
-589 -825 -832 0
-592 595 626 0
559 -597 -806 0
-501 -505 -513 0
-609 612 -725 0
679 -717 -778 0
-538 -781 -806 0
-675 692 756 0
-520 561 -592 0
453 -493 734 0
532 717 -802 0
461 -681 788 0
471 -522 530 0
-510 -515 716 0
536 633 -785 0
-526 -692 804 0
532 661 -794 0
-564 565 -730 0
-479 504 -832 0
693 756 -804 0
756 -760 -813 0
-521 -597 -752 0
-609 -647 -714 0
629 -773 -811 0
-499 594 -688 0
648 712 789 0
-476 -526 723 0
605 -676 820 0
710 762 813 0
482 531 710 0
686 -727 737 0
644 700 -792 0
-485 -536 -820 0
-456 -582 -832 0
690 789 834 0
455 479 657 0
465 -476 -737 0
660 -674 743 0
583 -595 -687 0
561 565 -661 0
-463 488 739 0
-599 -643 657 0
-601 -671 709 0
576 675 -807 0
-642 -669 822 0
-610 -807 829 0
526 630 660 0
704 745 749 0
535 586 611 0
-526 677 -801 0
-579 605 -820 0
618 675 -768 0
483 -525 -684 0
552 620 -666 0
-460 -615 769 0
-562 -755 -783 0
-499 689 835 0
-464 -609 -623 0
463 -743 -815 0
514 596 -741 0
521 -709 758 0
531 644 -785 0
455 545 -645 0
504 -589 760 0
557 637 705 0
-589 -625 726 0
540 -565 809 0
577 -641 -789 0
-469 -608 661 0
599 -650 -824 0
529 655 -741 0
518 622 652 0
533 -673 686 0
-616 -747 822 0
516 -594 -662 0
-478 -526 789 0
463 -581 637 0
-501 669 818 0
580 -635 -722 0
570 676 836 0
563 -571 -833 0
511 749 806 0
-525 -609 646 0
534 -631 -687 0
-567 -722 767 0
-474 593 -794 0
-463 798 822 0
464 616 617 0
525 604 -637 0
649 776 826 0
573 610 689 0
-546 749 -791 0
-567 -718 -823 0
-495 745 753 0
466 -534 770 0
501 -690 -763 0
455 -544 -702 0
-485 -671 -827 0
-463 -534 747 0
609 -756 770 0
-475 533 -687 0
-622 721 729 0
479 -742 767 0
-491 -494 580 0
-548 -732 -811 0
-546 680 762 0
-471 671 820 0
-454 495 754 0
-577 -800 -806 0
636 671 -696 0
-496 506 518 0
-478 -515 730 0
-514 574 -649 0
484 620 819 0
-559 -659 -720 0
-454 665 -820 0
466 534 586 0
-509 -689 795 0
-515 626 673 0
-619 740 -753 0
-502 627 733 0
591 -692 -752 0
-642 -684 746 0
558 -568 -705 0
531 -622 822 0
-647 672 -752 0
-599 -682 813 0
685 -809 -832 0
490 -766 810 0
468 -617 -715 0
-467 481 601 0
-464 770 821 0
-618 639 -675 0
472 502 -549 0
-541 630 -835 0
-479 491 598 0
-621 -710 -725 0
512 -541 -793 0
506 -601 -667 0
580 -716 793 0
-472 550 812 0
772 800 -821 0
487 -667 -736 0
-534 685 -802 0
475 701 -823 0
467 623 658 0
523 636 660 0
-500 -666 807 0
458 528 806 0
480 -702 795 0
466 -515 580 0
-507 -725 765 0
708 -787 804 0
461 -625 -827 0
461 482 -604 0
-626 -672 -822 0
462 695 -713 0
583 -612 -774 0
478 486 -805 0
645 677 -689 0
494 -501 677 0
-537 597 -755 0
520 528 746 0
510 560 -758 0
-576 -617 674 0
573 -682 -819 0
-469 -556 -631 0
-502 529 709 0
-570 -754 -810 0
-678 -731 765 0
503 671 749 0
485 -486 -647 0
-476 527 -720 0
-483 -522 -675 0
-571 581 -804 0
-518 -637 833 0
-762 -790 821 0
-492 532 -611 0
-458 -522 530 0
-565 615 700 0
-513 633 -665 0
-570 607 782 0
-560 637 652 0
670 772 -831 0
-459 -731 -810 0
507 665 701 0
-466 492 764 0
-568 765 824 0
-593 787 816 0
-503 -648 -714 0
553 -700 778 0
460 742 -753 0
-492 -603 808 0
-538 -676 -712 0
-500 -545 -605 0
583 -600 -811 0
-470 -726 831 0
530 604 -658 0
-528 728 785 0
-637 -690 802 0
-579 -705 778 0
647 740 821 0
620 -788 -790 0
-454 648 -777 0
567 -714 775 0
-570 671 789 0
-528 766 -799 0
482 765 798 0
-533 740 -813 0
-520 556 691 0
-478 -810 818 0
458 532 794 0
570 -603 -770 0
480 -489 825 0
501 -614 831 0
627 684 835 0
-466 765 806 0
-581 -587 733 0
506 762 830 0
-637 -674 -709 0
-462 -550 759 0
688 689 765 0
-465 648 -767 0
-613 -669 -820 0
644 728 -793 0
-578 -747 803 0
482 539 564 0
-530 -730 739 0
529 558 -646 0
-454 479 -831 0
-552 -636 -772 0
-525 750 -762 0
