c Phase 3 generated performance instance
c family=hidden_pigeonhole
c scale=9
c variant=tune
c noise_percent=0
c expected=UNSATISFIABLE
p cnf 657 1134
-1 -2 73 0
-1 -2 -73 0
-1 -3 74 0
-1 -3 -74 0
-1 -4 75 0
-1 -4 -75 0
-1 -5 76 0
-1 -5 -76 0
-1 -6 77 0
-1 -6 -77 0
-1 -7 78 0
-1 -7 -78 0
-1 -8 79 0
-1 -8 -79 0
-2 -3 80 0
-2 -3 -80 0
-2 -4 81 0
-2 -4 -81 0
-2 -5 82 0
-2 -5 -82 0
-2 -6 83 0
-2 -6 -83 0
-2 -7 84 0
-2 -7 -84 0
-2 -8 85 0
-2 -8 -85 0
-3 -4 86 0
-3 -4 -86 0
-3 -5 87 0
-3 -5 -87 0
-3 -6 88 0
-3 -6 -88 0
-3 -7 89 0
-3 -7 -89 0
-3 -8 90 0
-3 -8 -90 0
-4 -5 91 0
-4 -5 -91 0
-4 -6 92 0
-4 -6 -92 0
-4 -7 93 0
-4 -7 -93 0
-4 -8 94 0
-4 -8 -94 0
-5 -6 95 0
-5 -6 -95 0
-5 -7 96 0
-5 -7 -96 0
-5 -8 97 0
-5 -8 -97 0
-6 -7 98 0
-6 -7 -98 0
-6 -8 99 0
-6 -8 -99 0
-7 -8 100 0
-7 -8 -100 0
1 2 101 0
3 -101 102 0
4 -102 103 0
5 -103 104 0
6 -104 105 0
7 8 -105 0
-9 -10 106 0
-9 -10 -106 0
-9 -11 107 0
-9 -11 -107 0
-9 -12 108 0
-9 -12 -108 0
-9 -13 109 0
-9 -13 -109 0
-9 -14 110 0
-9 -14 -110 0
-9 -15 111 0
-9 -15 -111 0
-9 -16 112 0
-9 -16 -112 0
-10 -11 113 0
-10 -11 -113 0
-10 -12 114 0
-10 -12 -114 0
-10 -13 115 0
-10 -13 -115 0
-10 -14 116 0
-10 -14 -116 0
-10 -15 117 0
-10 -15 -117 0
-10 -16 118 0
-10 -16 -118 0
-11 -12 119 0
-11 -12 -119 0
-11 -13 120 0
-11 -13 -120 0
-11 -14 121 0
-11 -14 -121 0
-11 -15 122 0
-11 -15 -122 0
-11 -16 123 0
-11 -16 -123 0
-12 -13 124 0
-12 -13 -124 0
-12 -14 125 0
-12 -14 -125 0
-12 -15 126 0
-12 -15 -126 0
-12 -16 127 0
-12 -16 -127 0
-13 -14 128 0
-13 -14 -128 0
-13 -15 129 0
-13 -15 -129 0
-13 -16 130 0
-13 -16 -130 0
-14 -15 131 0
-14 -15 -131 0
-14 -16 132 0
-14 -16 -132 0
-15 -16 133 0
-15 -16 -133 0
9 10 134 0
11 -134 135 0
12 -135 136 0
13 -136 137 0
14 -137 138 0
15 16 -138 0
-17 -18 139 0
-17 -18 -139 0
-17 -19 140 0
-17 -19 -140 0
-17 -20 141 0
-17 -20 -141 0
-17 -21 142 0
-17 -21 -142 0
-17 -22 143 0
-17 -22 -143 0
-17 -23 144 0
-17 -23 -144 0
-17 -24 145 0
-17 -24 -145 0
-18 -19 146 0
-18 -19 -146 0
-18 -20 147 0
-18 -20 -147 0
-18 -21 148 0
-18 -21 -148 0
-18 -22 149 0
-18 -22 -149 0
-18 -23 150 0
-18 -23 -150 0
-18 -24 151 0
-18 -24 -151 0
-19 -20 152 0
-19 -20 -152 0
-19 -21 153 0
-19 -21 -153 0
-19 -22 154 0
-19 -22 -154 0
-19 -23 155 0
-19 -23 -155 0
-19 -24 156 0
-19 -24 -156 0
-20 -21 157 0
-20 -21 -157 0
-20 -22 158 0
-20 -22 -158 0
-20 -23 159 0
-20 -23 -159 0
-20 -24 160 0
-20 -24 -160 0
-21 -22 161 0
-21 -22 -161 0
-21 -23 162 0
-21 -23 -162 0
-21 -24 163 0
-21 -24 -163 0
-22 -23 164 0
-22 -23 -164 0
-22 -24 165 0
-22 -24 -165 0
-23 -24 166 0
-23 -24 -166 0
17 18 167 0
19 -167 168 0
20 -168 169 0
21 -169 170 0
22 -170 171 0
23 24 -171 0
-25 -26 172 0
-25 -26 -172 0
-25 -27 173 0
-25 -27 -173 0
-25 -28 174 0
-25 -28 -174 0
-25 -29 175 0
-25 -29 -175 0
-25 -30 176 0
-25 -30 -176 0
-25 -31 177 0
-25 -31 -177 0
-25 -32 178 0
-25 -32 -178 0
-26 -27 179 0
-26 -27 -179 0
-26 -28 180 0
-26 -28 -180 0
-26 -29 181 0
-26 -29 -181 0
-26 -30 182 0
-26 -30 -182 0
-26 -31 183 0
-26 -31 -183 0
-26 -32 184 0
-26 -32 -184 0
-27 -28 185 0
-27 -28 -185 0
-27 -29 186 0
-27 -29 -186 0
-27 -30 187 0
-27 -30 -187 0
-27 -31 188 0
-27 -31 -188 0
-27 -32 189 0
-27 -32 -189 0
-28 -29 190 0
-28 -29 -190 0
-28 -30 191 0
-28 -30 -191 0
-28 -31 192 0
-28 -31 -192 0
-28 -32 193 0
-28 -32 -193 0
-29 -30 194 0
-29 -30 -194 0
-29 -31 195 0
-29 -31 -195 0
-29 -32 196 0
-29 -32 -196 0
-30 -31 197 0
-30 -31 -197 0
-30 -32 198 0
-30 -32 -198 0
-31 -32 199 0
-31 -32 -199 0
25 26 200 0
27 -200 201 0
28 -201 202 0
29 -202 203 0
30 -203 204 0
31 32 -204 0
-33 -34 205 0
-33 -34 -205 0
-33 -35 206 0
-33 -35 -206 0
-33 -36 207 0
-33 -36 -207 0
-33 -37 208 0
-33 -37 -208 0
-33 -38 209 0
-33 -38 -209 0
-33 -39 210 0
-33 -39 -210 0
-33 -40 211 0
-33 -40 -211 0
-34 -35 212 0
-34 -35 -212 0
-34 -36 213 0
-34 -36 -213 0
-34 -37 214 0
-34 -37 -214 0
-34 -38 215 0
-34 -38 -215 0
-34 -39 216 0
-34 -39 -216 0
-34 -40 217 0
-34 -40 -217 0
-35 -36 218 0
-35 -36 -218 0
-35 -37 219 0
-35 -37 -219 0
-35 -38 220 0
-35 -38 -220 0
-35 -39 221 0
-35 -39 -221 0
-35 -40 222 0
-35 -40 -222 0
-36 -37 223 0
-36 -37 -223 0
-36 -38 224 0
-36 -38 -224 0
-36 -39 225 0
-36 -39 -225 0
-36 -40 226 0
-36 -40 -226 0
-37 -38 227 0
-37 -38 -227 0
-37 -39 228 0
-37 -39 -228 0
-37 -40 229 0
-37 -40 -229 0
-38 -39 230 0
-38 -39 -230 0
-38 -40 231 0
-38 -40 -231 0
-39 -40 232 0
-39 -40 -232 0
33 34 233 0
35 -233 234 0
36 -234 235 0
37 -235 236 0
38 -236 237 0
39 40 -237 0
-41 -42 238 0
-41 -42 -238 0
-41 -43 239 0
-41 -43 -239 0
-41 -44 240 0
-41 -44 -240 0
-41 -45 241 0
-41 -45 -241 0
-41 -46 242 0
-41 -46 -242 0
-41 -47 243 0
-41 -47 -243 0
-41 -48 244 0
-41 -48 -244 0
-42 -43 245 0
-42 -43 -245 0
-42 -44 246 0
-42 -44 -246 0
-42 -45 247 0
-42 -45 -247 0
-42 -46 248 0
-42 -46 -248 0
-42 -47 249 0
-42 -47 -249 0
-42 -48 250 0
-42 -48 -250 0
-43 -44 251 0
-43 -44 -251 0
-43 -45 252 0
-43 -45 -252 0
-43 -46 253 0
-43 -46 -253 0
-43 -47 254 0
-43 -47 -254 0
-43 -48 255 0
-43 -48 -255 0
-44 -45 256 0
-44 -45 -256 0
-44 -46 257 0
-44 -46 -257 0
-44 -47 258 0
-44 -47 -258 0
-44 -48 259 0
-44 -48 -259 0
-45 -46 260 0
-45 -46 -260 0
-45 -47 261 0
-45 -47 -261 0
-45 -48 262 0
-45 -48 -262 0
-46 -47 263 0
-46 -47 -263 0
-46 -48 264 0
-46 -48 -264 0
-47 -48 265 0
-47 -48 -265 0
41 42 266 0
43 -266 267 0
44 -267 268 0
45 -268 269 0
46 -269 270 0
47 48 -270 0
-49 -50 271 0
-49 -50 -271 0
-49 -51 272 0
-49 -51 -272 0
-49 -52 273 0
-49 -52 -273 0
-49 -53 274 0
-49 -53 -274 0
-49 -54 275 0
-49 -54 -275 0
-49 -55 276 0
-49 -55 -276 0
-49 -56 277 0
-49 -56 -277 0
-50 -51 278 0
-50 -51 -278 0
-50 -52 279 0
-50 -52 -279 0
-50 -53 280 0
-50 -53 -280 0
-50 -54 281 0
-50 -54 -281 0
-50 -55 282 0
-50 -55 -282 0
-50 -56 283 0
-50 -56 -283 0
-51 -52 284 0
-51 -52 -284 0
-51 -53 285 0
-51 -53 -285 0
-51 -54 286 0
-51 -54 -286 0
-51 -55 287 0
-51 -55 -287 0
-51 -56 288 0
-51 -56 -288 0
-52 -53 289 0
-52 -53 -289 0
-52 -54 290 0
-52 -54 -290 0
-52 -55 291 0
-52 -55 -291 0
-52 -56 292 0
-52 -56 -292 0
-53 -54 293 0
-53 -54 -293 0
-53 -55 294 0
-53 -55 -294 0
-53 -56 295 0
-53 -56 -295 0
-54 -55 296 0
-54 -55 -296 0
-54 -56 297 0
-54 -56 -297 0
-55 -56 298 0
-55 -56 -298 0
49 50 299 0
51 -299 300 0
52 -300 301 0
53 -301 302 0
54 -302 303 0
55 56 -303 0
-57 -58 304 0
-57 -58 -304 0
-57 -59 305 0
-57 -59 -305 0
-57 -60 306 0
-57 -60 -306 0
-57 -61 307 0
-57 -61 -307 0
-57 -62 308 0
-57 -62 -308 0
-57 -63 309 0
-57 -63 -309 0
-57 -64 310 0
-57 -64 -310 0
-58 -59 311 0
-58 -59 -311 0
-58 -60 312 0
-58 -60 -312 0
-58 -61 313 0
-58 -61 -313 0
-58 -62 314 0
-58 -62 -314 0
-58 -63 315 0
-58 -63 -315 0
-58 -64 316 0
-58 -64 -316 0
-59 -60 317 0
-59 -60 -317 0
-59 -61 318 0
-59 -61 -318 0
-59 -62 319 0
-59 -62 -319 0
-59 -63 320 0
-59 -63 -320 0
-59 -64 321 0
-59 -64 -321 0
-60 -61 322 0
-60 -61 -322 0
-60 -62 323 0
-60 -62 -323 0
-60 -63 324 0
-60 -63 -324 0
-60 -64 325 0
-60 -64 -325 0
-61 -62 326 0
-61 -62 -326 0
-61 -63 327 0
-61 -63 -327 0
-61 -64 328 0
-61 -64 -328 0
-62 -63 329 0
-62 -63 -329 0
-62 -64 330 0
-62 -64 -330 0
-63 -64 331 0
-63 -64 -331 0
57 58 332 0
59 -332 333 0
60 -333 334 0
61 -334 335 0
62 -335 336 0
63 64 -336 0
-65 -66 337 0
-65 -66 -337 0
-65 -67 338 0
-65 -67 -338 0
-65 -68 339 0
-65 -68 -339 0
-65 -69 340 0
-65 -69 -340 0
-65 -70 341 0
-65 -70 -341 0
-65 -71 342 0
-65 -71 -342 0
-65 -72 343 0
-65 -72 -343 0
-66 -67 344 0
-66 -67 -344 0
-66 -68 345 0
-66 -68 -345 0
-66 -69 346 0
-66 -69 -346 0
-66 -70 347 0
-66 -70 -347 0
-66 -71 348 0
-66 -71 -348 0
-66 -72 349 0
-66 -72 -349 0
-67 -68 350 0
-67 -68 -350 0
-67 -69 351 0
-67 -69 -351 0
-67 -70 352 0
-67 -70 -352 0
-67 -71 353 0
-67 -71 -353 0
-67 -72 354 0
-67 -72 -354 0
-68 -69 355 0
-68 -69 -355 0
-68 -70 356 0
-68 -70 -356 0
-68 -71 357 0
-68 -71 -357 0
-68 -72 358 0
-68 -72 -358 0
-69 -70 359 0
-69 -70 -359 0
-69 -71 360 0
-69 -71 -360 0
-69 -72 361 0
-69 -72 -361 0
-70 -71 362 0
-70 -71 -362 0
-70 -72 363 0
-70 -72 -363 0
-71 -72 364 0
-71 -72 -364 0
65 66 365 0
67 -365 366 0
68 -366 367 0
69 -367 368 0
70 -368 369 0
71 72 -369 0
-1 -9 370 0
-1 -9 -370 0
-1 -17 371 0
-1 -17 -371 0
-1 -25 372 0
-1 -25 -372 0
-1 -33 373 0
-1 -33 -373 0
-1 -41 374 0
-1 -41 -374 0
-1 -49 375 0
-1 -49 -375 0
-1 -57 376 0
-1 -57 -376 0
-1 -65 377 0
-1 -65 -377 0
-9 -17 378 0
-9 -17 -378 0
-9 -25 379 0
-9 -25 -379 0
-9 -33 380 0
-9 -33 -380 0
-9 -41 381 0
-9 -41 -381 0
-9 -49 382 0
-9 -49 -382 0
-9 -57 383 0
-9 -57 -383 0
-9 -65 384 0
-9 -65 -384 0
-17 -25 385 0
-17 -25 -385 0
-17 -33 386 0
-17 -33 -386 0
-17 -41 387 0
-17 -41 -387 0
-17 -49 388 0
-17 -49 -388 0
-17 -57 389 0
-17 -57 -389 0
-17 -65 390 0
-17 -65 -390 0
-25 -33 391 0
-25 -33 -391 0
-25 -41 392 0
-25 -41 -392 0
-25 -49 393 0
-25 -49 -393 0
-25 -57 394 0
-25 -57 -394 0
-25 -65 395 0
-25 -65 -395 0
-33 -41 396 0
-33 -41 -396 0
-33 -49 397 0
-33 -49 -397 0
-33 -57 398 0
-33 -57 -398 0
-33 -65 399 0
-33 -65 -399 0
-41 -49 400 0
-41 -49 -400 0
-41 -57 401 0
-41 -57 -401 0
-41 -65 402 0
-41 -65 -402 0
-49 -57 403 0
-49 -57 -403 0
-49 -65 404 0
-49 -65 -404 0
-57 -65 405 0
-57 -65 -405 0
-2 -10 406 0
-2 -10 -406 0
-2 -18 407 0
-2 -18 -407 0
-2 -26 408 0
-2 -26 -408 0
-2 -34 409 0
-2 -34 -409 0
-2 -42 410 0
-2 -42 -410 0
-2 -50 411 0
-2 -50 -411 0
-2 -58 412 0
-2 -58 -412 0
-2 -66 413 0
-2 -66 -413 0
-10 -18 414 0
-10 -18 -414 0
-10 -26 415 0
-10 -26 -415 0
-10 -34 416 0
-10 -34 -416 0
-10 -42 417 0
-10 -42 -417 0
-10 -50 418 0
-10 -50 -418 0
-10 -58 419 0
-10 -58 -419 0
-10 -66 420 0
-10 -66 -420 0
-18 -26 421 0
-18 -26 -421 0
-18 -34 422 0
-18 -34 -422 0
-18 -42 423 0
-18 -42 -423 0
-18 -50 424 0
-18 -50 -424 0
-18 -58 425 0
-18 -58 -425 0
-18 -66 426 0
-18 -66 -426 0
-26 -34 427 0
-26 -34 -427 0
-26 -42 428 0
-26 -42 -428 0
-26 -50 429 0
-26 -50 -429 0
-26 -58 430 0
-26 -58 -430 0
-26 -66 431 0
-26 -66 -431 0
-34 -42 432 0
-34 -42 -432 0
-34 -50 433 0
-34 -50 -433 0
-34 -58 434 0
-34 -58 -434 0
-34 -66 435 0
-34 -66 -435 0
-42 -50 436 0
-42 -50 -436 0
-42 -58 437 0
-42 -58 -437 0
-42 -66 438 0
-42 -66 -438 0
-50 -58 439 0
-50 -58 -439 0
-50 -66 440 0
-50 -66 -440 0
-58 -66 441 0
-58 -66 -441 0
-3 -11 442 0
-3 -11 -442 0
-3 -19 443 0
-3 -19 -443 0
-3 -27 444 0
-3 -27 -444 0
-3 -35 445 0
-3 -35 -445 0
-3 -43 446 0
-3 -43 -446 0
-3 -51 447 0
-3 -51 -447 0
-3 -59 448 0
-3 -59 -448 0
-3 -67 449 0
-3 -67 -449 0
-11 -19 450 0
-11 -19 -450 0
-11 -27 451 0
-11 -27 -451 0
-11 -35 452 0
-11 -35 -452 0
-11 -43 453 0
-11 -43 -453 0
-11 -51 454 0
-11 -51 -454 0
-11 -59 455 0
-11 -59 -455 0
-11 -67 456 0
-11 -67 -456 0
-19 -27 457 0
-19 -27 -457 0
-19 -35 458 0
-19 -35 -458 0
-19 -43 459 0
-19 -43 -459 0
-19 -51 460 0
-19 -51 -460 0
-19 -59 461 0
-19 -59 -461 0
-19 -67 462 0
-19 -67 -462 0
-27 -35 463 0
-27 -35 -463 0
-27 -43 464 0
-27 -43 -464 0
-27 -51 465 0
-27 -51 -465 0
-27 -59 466 0
-27 -59 -466 0
-27 -67 467 0
-27 -67 -467 0
-35 -43 468 0
-35 -43 -468 0
-35 -51 469 0
-35 -51 -469 0
-35 -59 470 0
-35 -59 -470 0
-35 -67 471 0
-35 -67 -471 0
-43 -51 472 0
-43 -51 -472 0
-43 -59 473 0
-43 -59 -473 0
-43 -67 474 0
-43 -67 -474 0
-51 -59 475 0
-51 -59 -475 0
-51 -67 476 0
-51 -67 -476 0
-59 -67 477 0
-59 -67 -477 0
-4 -12 478 0
-4 -12 -478 0
-4 -20 479 0
-4 -20 -479 0
-4 -28 480 0
-4 -28 -480 0
-4 -36 481 0
-4 -36 -481 0
-4 -44 482 0
-4 -44 -482 0
-4 -52 483 0
-4 -52 -483 0
-4 -60 484 0
-4 -60 -484 0
-4 -68 485 0
-4 -68 -485 0
-12 -20 486 0
-12 -20 -486 0
-12 -28 487 0
-12 -28 -487 0
-12 -36 488 0
-12 -36 -488 0
-12 -44 489 0
-12 -44 -489 0
-12 -52 490 0
-12 -52 -490 0
-12 -60 491 0
-12 -60 -491 0
-12 -68 492 0
-12 -68 -492 0
-20 -28 493 0
-20 -28 -493 0
-20 -36 494 0
-20 -36 -494 0
-20 -44 495 0
-20 -44 -495 0
-20 -52 496 0
-20 -52 -496 0
-20 -60 497 0
-20 -60 -497 0
-20 -68 498 0
-20 -68 -498 0
-28 -36 499 0
-28 -36 -499 0
-28 -44 500 0
-28 -44 -500 0
-28 -52 501 0
-28 -52 -501 0
-28 -60 502 0
-28 -60 -502 0
-28 -68 503 0
-28 -68 -503 0
-36 -44 504 0
-36 -44 -504 0
-36 -52 505 0
-36 -52 -505 0
-36 -60 506 0
-36 -60 -506 0
-36 -68 507 0
-36 -68 -507 0
-44 -52 508 0
-44 -52 -508 0
-44 -60 509 0
-44 -60 -509 0
-44 -68 510 0
-44 -68 -510 0
-52 -60 511 0
-52 -60 -511 0
-52 -68 512 0
-52 -68 -512 0
-60 -68 513 0
-60 -68 -513 0
-5 -13 514 0
-5 -13 -514 0
-5 -21 515 0
-5 -21 -515 0
-5 -29 516 0
-5 -29 -516 0
-5 -37 517 0
-5 -37 -517 0
-5 -45 518 0
-5 -45 -518 0
-5 -53 519 0
-5 -53 -519 0
-5 -61 520 0
-5 -61 -520 0
-5 -69 521 0
-5 -69 -521 0
-13 -21 522 0
-13 -21 -522 0
-13 -29 523 0
-13 -29 -523 0
-13 -37 524 0
-13 -37 -524 0
-13 -45 525 0
-13 -45 -525 0
-13 -53 526 0
-13 -53 -526 0
-13 -61 527 0
-13 -61 -527 0
-13 -69 528 0
-13 -69 -528 0
-21 -29 529 0
-21 -29 -529 0
-21 -37 530 0
-21 -37 -530 0
-21 -45 531 0
-21 -45 -531 0
-21 -53 532 0
-21 -53 -532 0
-21 -61 533 0
-21 -61 -533 0
-21 -69 534 0
-21 -69 -534 0
-29 -37 535 0
-29 -37 -535 0
-29 -45 536 0
-29 -45 -536 0
-29 -53 537 0
-29 -53 -537 0
-29 -61 538 0
-29 -61 -538 0
-29 -69 539 0
-29 -69 -539 0
-37 -45 540 0
-37 -45 -540 0
-37 -53 541 0
-37 -53 -541 0
-37 -61 542 0
-37 -61 -542 0
-37 -69 543 0
-37 -69 -543 0
-45 -53 544 0
-45 -53 -544 0
-45 -61 545 0
-45 -61 -545 0
-45 -69 546 0
-45 -69 -546 0
-53 -61 547 0
-53 -61 -547 0
-53 -69 548 0
-53 -69 -548 0
-61 -69 549 0
-61 -69 -549 0
-6 -14 550 0
-6 -14 -550 0
-6 -22 551 0
-6 -22 -551 0
-6 -30 552 0
-6 -30 -552 0
-6 -38 553 0
-6 -38 -553 0
-6 -46 554 0
-6 -46 -554 0
-6 -54 555 0
-6 -54 -555 0
-6 -62 556 0
-6 -62 -556 0
-6 -70 557 0
-6 -70 -557 0
-14 -22 558 0
-14 -22 -558 0
-14 -30 559 0
-14 -30 -559 0
-14 -38 560 0
-14 -38 -560 0
-14 -46 561 0
-14 -46 -561 0
-14 -54 562 0
-14 -54 -562 0
-14 -62 563 0
-14 -62 -563 0
-14 -70 564 0
-14 -70 -564 0
-22 -30 565 0
-22 -30 -565 0
-22 -38 566 0
-22 -38 -566 0
-22 -46 567 0
-22 -46 -567 0
-22 -54 568 0
-22 -54 -568 0
-22 -62 569 0
-22 -62 -569 0
-22 -70 570 0
-22 -70 -570 0
-30 -38 571 0
-30 -38 -571 0
-30 -46 572 0
-30 -46 -572 0
-30 -54 573 0
-30 -54 -573 0
-30 -62 574 0
-30 -62 -574 0
-30 -70 575 0
-30 -70 -575 0
-38 -46 576 0
-38 -46 -576 0
-38 -54 577 0
-38 -54 -577 0
-38 -62 578 0
-38 -62 -578 0
-38 -70 579 0
-38 -70 -579 0
-46 -54 580 0
-46 -54 -580 0
-46 -62 581 0
-46 -62 -581 0
-46 -70 582 0
-46 -70 -582 0
-54 -62 583 0
-54 -62 -583 0
-54 -70 584 0
-54 -70 -584 0
-62 -70 585 0
-62 -70 -585 0
-7 -15 586 0
-7 -15 -586 0
-7 -23 587 0
-7 -23 -587 0
-7 -31 588 0
-7 -31 -588 0
-7 -39 589 0
-7 -39 -589 0
-7 -47 590 0
-7 -47 -590 0
-7 -55 591 0
-7 -55 -591 0
-7 -63 592 0
-7 -63 -592 0
-7 -71 593 0
-7 -71 -593 0
-15 -23 594 0
-15 -23 -594 0
-15 -31 595 0
-15 -31 -595 0
-15 -39 596 0
-15 -39 -596 0
-15 -47 597 0
-15 -47 -597 0
-15 -55 598 0
-15 -55 -598 0
-15 -63 599 0
-15 -63 -599 0
-15 -71 600 0
-15 -71 -600 0
-23 -31 601 0
-23 -31 -601 0
-23 -39 602 0
-23 -39 -602 0
-23 -47 603 0
-23 -47 -603 0
-23 -55 604 0
-23 -55 -604 0
-23 -63 605 0
-23 -63 -605 0
-23 -71 606 0
-23 -71 -606 0
-31 -39 607 0
-31 -39 -607 0
-31 -47 608 0
-31 -47 -608 0
-31 -55 609 0
-31 -55 -609 0
-31 -63 610 0
-31 -63 -610 0
-31 -71 611 0
-31 -71 -611 0
-39 -47 612 0
-39 -47 -612 0
-39 -55 613 0
-39 -55 -613 0
-39 -63 614 0
-39 -63 -614 0
-39 -71 615 0
-39 -71 -615 0
-47 -55 616 0
-47 -55 -616 0
-47 -63 617 0
-47 -63 -617 0
-47 -71 618 0
-47 -71 -618 0
-55 -63 619 0
-55 -63 -619 0
-55 -71 620 0
-55 -71 -620 0
-63 -71 621 0
-63 -71 -621 0
-8 -16 622 0
-8 -16 -622 0
-8 -24 623 0
-8 -24 -623 0
-8 -32 624 0
-8 -32 -624 0
-8 -40 625 0
-8 -40 -625 0
-8 -48 626 0
-8 -48 -626 0
-8 -56 627 0
-8 -56 -627 0
-8 -64 628 0
-8 -64 -628 0
-8 -72 629 0
-8 -72 -629 0
-16 -24 630 0
-16 -24 -630 0
-16 -32 631 0
-16 -32 -631 0
-16 -40 632 0
-16 -40 -632 0
-16 -48 633 0
-16 -48 -633 0
-16 -56 634 0
-16 -56 -634 0
-16 -64 635 0
-16 -64 -635 0
-16 -72 636 0
-16 -72 -636 0
-24 -32 637 0
-24 -32 -637 0
-24 -40 638 0
-24 -40 -638 0
-24 -48 639 0
-24 -48 -639 0
-24 -56 640 0
-24 -56 -640 0
-24 -64 641 0
-24 -64 -641 0
-24 -72 642 0
-24 -72 -642 0
-32 -40 643 0
-32 -40 -643 0
-32 -48 644 0
-32 -48 -644 0
-32 -56 645 0
-32 -56 -645 0
-32 -64 646 0
-32 -64 -646 0
-32 -72 647 0
-32 -72 -647 0
-40 -48 648 0
-40 -48 -648 0
-40 -56 649 0
-40 -56 -649 0
-40 -64 650 0
-40 -64 -650 0
-40 -72 651 0
-40 -72 -651 0
-48 -56 652 0
-48 -56 -652 0
-48 -64 653 0
-48 -64 -653 0
-48 -72 654 0
-48 -72 -654 0
-56 -64 655 0
-56 -64 -655 0
-56 -72 656 0
-56 -72 -656 0
-64 -72 657 0
-64 -72 -657 0
