c Phase 3 generated performance instance
c family=hidden_pigeonhole
c scale=9
c variant=tune
c noise_percent=100
c expected=UNSATISFIABLE
p cnf 1224 2268
-1 -2 73 0
-1 -2 -73 0
-1 -3 74 0
-1 -3 -74 0
-1 -4 75 0
-1 -4 -75 0
-1 -5 76 0
-1 -5 -76 0
-1 -6 77 0
-1 -6 -77 0
-1 -7 78 0
-1 -7 -78 0
-1 -8 79 0
-1 -8 -79 0
-2 -3 80 0
-2 -3 -80 0
-2 -4 81 0
-2 -4 -81 0
-2 -5 82 0
-2 -5 -82 0
-2 -6 83 0
-2 -6 -83 0
-2 -7 84 0
-2 -7 -84 0
-2 -8 85 0
-2 -8 -85 0
-3 -4 86 0
-3 -4 -86 0
-3 -5 87 0
-3 -5 -87 0
-3 -6 88 0
-3 -6 -88 0
-3 -7 89 0
-3 -7 -89 0
-3 -8 90 0
-3 -8 -90 0
-4 -5 91 0
-4 -5 -91 0
-4 -6 92 0
-4 -6 -92 0
-4 -7 93 0
-4 -7 -93 0
-4 -8 94 0
-4 -8 -94 0
-5 -6 95 0
-5 -6 -95 0
-5 -7 96 0
-5 -7 -96 0
-5 -8 97 0
-5 -8 -97 0
-6 -7 98 0
-6 -7 -98 0
-6 -8 99 0
-6 -8 -99 0
-7 -8 100 0
-7 -8 -100 0
1 2 101 0
3 -101 102 0
4 -102 103 0
5 -103 104 0
6 -104 105 0
7 8 -105 0
-9 -10 106 0
-9 -10 -106 0
-9 -11 107 0
-9 -11 -107 0
-9 -12 108 0
-9 -12 -108 0
-9 -13 109 0
-9 -13 -109 0
-9 -14 110 0
-9 -14 -110 0
-9 -15 111 0
-9 -15 -111 0
-9 -16 112 0
-9 -16 -112 0
-10 -11 113 0
-10 -11 -113 0
-10 -12 114 0
-10 -12 -114 0
-10 -13 115 0
-10 -13 -115 0
-10 -14 116 0
-10 -14 -116 0
-10 -15 117 0
-10 -15 -117 0
-10 -16 118 0
-10 -16 -118 0
-11 -12 119 0
-11 -12 -119 0
-11 -13 120 0
-11 -13 -120 0
-11 -14 121 0
-11 -14 -121 0
-11 -15 122 0
-11 -15 -122 0
-11 -16 123 0
-11 -16 -123 0
-12 -13 124 0
-12 -13 -124 0
-12 -14 125 0
-12 -14 -125 0
-12 -15 126 0
-12 -15 -126 0
-12 -16 127 0
-12 -16 -127 0
-13 -14 128 0
-13 -14 -128 0
-13 -15 129 0
-13 -15 -129 0
-13 -16 130 0
-13 -16 -130 0
-14 -15 131 0
-14 -15 -131 0
-14 -16 132 0
-14 -16 -132 0
-15 -16 133 0
-15 -16 -133 0
9 10 134 0
11 -134 135 0
12 -135 136 0
13 -136 137 0
14 -137 138 0
15 16 -138 0
-17 -18 139 0
-17 -18 -139 0
-17 -19 140 0
-17 -19 -140 0
-17 -20 141 0
-17 -20 -141 0
-17 -21 142 0
-17 -21 -142 0
-17 -22 143 0
-17 -22 -143 0
-17 -23 144 0
-17 -23 -144 0
-17 -24 145 0
-17 -24 -145 0
-18 -19 146 0
-18 -19 -146 0
-18 -20 147 0
-18 -20 -147 0
-18 -21 148 0
-18 -21 -148 0
-18 -22 149 0
-18 -22 -149 0
-18 -23 150 0
-18 -23 -150 0
-18 -24 151 0
-18 -24 -151 0
-19 -20 152 0
-19 -20 -152 0
-19 -21 153 0
-19 -21 -153 0
-19 -22 154 0
-19 -22 -154 0
-19 -23 155 0
-19 -23 -155 0
-19 -24 156 0
-19 -24 -156 0
-20 -21 157 0
-20 -21 -157 0
-20 -22 158 0
-20 -22 -158 0
-20 -23 159 0
-20 -23 -159 0
-20 -24 160 0
-20 -24 -160 0
-21 -22 161 0
-21 -22 -161 0
-21 -23 162 0
-21 -23 -162 0
-21 -24 163 0
-21 -24 -163 0
-22 -23 164 0
-22 -23 -164 0
-22 -24 165 0
-22 -24 -165 0
-23 -24 166 0
-23 -24 -166 0
17 18 167 0
19 -167 168 0
20 -168 169 0
21 -169 170 0
22 -170 171 0
23 24 -171 0
-25 -26 172 0
-25 -26 -172 0
-25 -27 173 0
-25 -27 -173 0
-25 -28 174 0
-25 -28 -174 0
-25 -29 175 0
-25 -29 -175 0
-25 -30 176 0
-25 -30 -176 0
-25 -31 177 0
-25 -31 -177 0
-25 -32 178 0
-25 -32 -178 0
-26 -27 179 0
-26 -27 -179 0
-26 -28 180 0
-26 -28 -180 0
-26 -29 181 0
-26 -29 -181 0
-26 -30 182 0
-26 -30 -182 0
-26 -31 183 0
-26 -31 -183 0
-26 -32 184 0
-26 -32 -184 0
-27 -28 185 0
-27 -28 -185 0
-27 -29 186 0
-27 -29 -186 0
-27 -30 187 0
-27 -30 -187 0
-27 -31 188 0
-27 -31 -188 0
-27 -32 189 0
-27 -32 -189 0
-28 -29 190 0
-28 -29 -190 0
-28 -30 191 0
-28 -30 -191 0
-28 -31 192 0
-28 -31 -192 0
-28 -32 193 0
-28 -32 -193 0
-29 -30 194 0
-29 -30 -194 0
-29 -31 195 0
-29 -31 -195 0
-29 -32 196 0
-29 -32 -196 0
-30 -31 197 0
-30 -31 -197 0
-30 -32 198 0
-30 -32 -198 0
-31 -32 199 0
-31 -32 -199 0
25 26 200 0
27 -200 201 0
28 -201 202 0
29 -202 203 0
30 -203 204 0
31 32 -204 0
-33 -34 205 0
-33 -34 -205 0
-33 -35 206 0
-33 -35 -206 0
-33 -36 207 0
-33 -36 -207 0
-33 -37 208 0
-33 -37 -208 0
-33 -38 209 0
-33 -38 -209 0
-33 -39 210 0
-33 -39 -210 0
-33 -40 211 0
-33 -40 -211 0
-34 -35 212 0
-34 -35 -212 0
-34 -36 213 0
-34 -36 -213 0
-34 -37 214 0
-34 -37 -214 0
-34 -38 215 0
-34 -38 -215 0
-34 -39 216 0
-34 -39 -216 0
-34 -40 217 0
-34 -40 -217 0
-35 -36 218 0
-35 -36 -218 0
-35 -37 219 0
-35 -37 -219 0
-35 -38 220 0
-35 -38 -220 0
-35 -39 221 0
-35 -39 -221 0
-35 -40 222 0
-35 -40 -222 0
-36 -37 223 0
-36 -37 -223 0
-36 -38 224 0
-36 -38 -224 0
-36 -39 225 0
-36 -39 -225 0
-36 -40 226 0
-36 -40 -226 0
-37 -38 227 0
-37 -38 -227 0
-37 -39 228 0
-37 -39 -228 0
-37 -40 229 0
-37 -40 -229 0
-38 -39 230 0
-38 -39 -230 0
-38 -40 231 0
-38 -40 -231 0
-39 -40 232 0
-39 -40 -232 0
33 34 233 0
35 -233 234 0
36 -234 235 0
37 -235 236 0
38 -236 237 0
39 40 -237 0
-41 -42 238 0
-41 -42 -238 0
-41 -43 239 0
-41 -43 -239 0
-41 -44 240 0
-41 -44 -240 0
-41 -45 241 0
-41 -45 -241 0
-41 -46 242 0
-41 -46 -242 0
-41 -47 243 0
-41 -47 -243 0
-41 -48 244 0
-41 -48 -244 0
-42 -43 245 0
-42 -43 -245 0
-42 -44 246 0
-42 -44 -246 0
-42 -45 247 0
-42 -45 -247 0
-42 -46 248 0
-42 -46 -248 0
-42 -47 249 0
-42 -47 -249 0
-42 -48 250 0
-42 -48 -250 0
-43 -44 251 0
-43 -44 -251 0
-43 -45 252 0
-43 -45 -252 0
-43 -46 253 0
-43 -46 -253 0
-43 -47 254 0
-43 -47 -254 0
-43 -48 255 0
-43 -48 -255 0
-44 -45 256 0
-44 -45 -256 0
-44 -46 257 0
-44 -46 -257 0
-44 -47 258 0
-44 -47 -258 0
-44 -48 259 0
-44 -48 -259 0
-45 -46 260 0
-45 -46 -260 0
-45 -47 261 0
-45 -47 -261 0
-45 -48 262 0
-45 -48 -262 0
-46 -47 263 0
-46 -47 -263 0
-46 -48 264 0
-46 -48 -264 0
-47 -48 265 0
-47 -48 -265 0
41 42 266 0
43 -266 267 0
44 -267 268 0
45 -268 269 0
46 -269 270 0
47 48 -270 0
-49 -50 271 0
-49 -50 -271 0
-49 -51 272 0
-49 -51 -272 0
-49 -52 273 0
-49 -52 -273 0
-49 -53 274 0
-49 -53 -274 0
-49 -54 275 0
-49 -54 -275 0
-49 -55 276 0
-49 -55 -276 0
-49 -56 277 0
-49 -56 -277 0
-50 -51 278 0
-50 -51 -278 0
-50 -52 279 0
-50 -52 -279 0
-50 -53 280 0
-50 -53 -280 0
-50 -54 281 0
-50 -54 -281 0
-50 -55 282 0
-50 -55 -282 0
-50 -56 283 0
-50 -56 -283 0
-51 -52 284 0
-51 -52 -284 0
-51 -53 285 0
-51 -53 -285 0
-51 -54 286 0
-51 -54 -286 0
-51 -55 287 0
-51 -55 -287 0
-51 -56 288 0
-51 -56 -288 0
-52 -53 289 0
-52 -53 -289 0
-52 -54 290 0
-52 -54 -290 0
-52 -55 291 0
-52 -55 -291 0
-52 -56 292 0
-52 -56 -292 0
-53 -54 293 0
-53 -54 -293 0
-53 -55 294 0
-53 -55 -294 0
-53 -56 295 0
-53 -56 -295 0
-54 -55 296 0
-54 -55 -296 0
-54 -56 297 0
-54 -56 -297 0
-55 -56 298 0
-55 -56 -298 0
49 50 299 0
51 -299 300 0
52 -300 301 0
53 -301 302 0
54 -302 303 0
55 56 -303 0
-57 -58 304 0
-57 -58 -304 0
-57 -59 305 0
-57 -59 -305 0
-57 -60 306 0
-57 -60 -306 0
-57 -61 307 0
-57 -61 -307 0
-57 -62 308 0
-57 -62 -308 0
-57 -63 309 0
-57 -63 -309 0
-57 -64 310 0
-57 -64 -310 0
-58 -59 311 0
-58 -59 -311 0
-58 -60 312 0
-58 -60 -312 0
-58 -61 313 0
-58 -61 -313 0
-58 -62 314 0
-58 -62 -314 0
-58 -63 315 0
-58 -63 -315 0
-58 -64 316 0
-58 -64 -316 0
-59 -60 317 0
-59 -60 -317 0
-59 -61 318 0
-59 -61 -318 0
-59 -62 319 0
-59 -62 -319 0
-59 -63 320 0
-59 -63 -320 0
-59 -64 321 0
-59 -64 -321 0
-60 -61 322 0
-60 -61 -322 0
-60 -62 323 0
-60 -62 -323 0
-60 -63 324 0
-60 -63 -324 0
-60 -64 325 0
-60 -64 -325 0
-61 -62 326 0
-61 -62 -326 0
-61 -63 327 0
-61 -63 -327 0
-61 -64 328 0
-61 -64 -328 0
-62 -63 329 0
-62 -63 -329 0
-62 -64 330 0
-62 -64 -330 0
-63 -64 331 0
-63 -64 -331 0
57 58 332 0
59 -332 333 0
60 -333 334 0
61 -334 335 0
62 -335 336 0
63 64 -336 0
-65 -66 337 0
-65 -66 -337 0
-65 -67 338 0
-65 -67 -338 0
-65 -68 339 0
-65 -68 -339 0
-65 -69 340 0
-65 -69 -340 0
-65 -70 341 0
-65 -70 -341 0
-65 -71 342 0
-65 -71 -342 0
-65 -72 343 0
-65 -72 -343 0
-66 -67 344 0
-66 -67 -344 0
-66 -68 345 0
-66 -68 -345 0
-66 -69 346 0
-66 -69 -346 0
-66 -70 347 0
-66 -70 -347 0
-66 -71 348 0
-66 -71 -348 0
-66 -72 349 0
-66 -72 -349 0
-67 -68 350 0
-67 -68 -350 0
-67 -69 351 0
-67 -69 -351 0
-67 -70 352 0
-67 -70 -352 0
-67 -71 353 0
-67 -71 -353 0
-67 -72 354 0
-67 -72 -354 0
-68 -69 355 0
-68 -69 -355 0
-68 -70 356 0
-68 -70 -356 0
-68 -71 357 0
-68 -71 -357 0
-68 -72 358 0
-68 -72 -358 0
-69 -70 359 0
-69 -70 -359 0
-69 -71 360 0
-69 -71 -360 0
-69 -72 361 0
-69 -72 -361 0
-70 -71 362 0
-70 -71 -362 0
-70 -72 363 0
-70 -72 -363 0
-71 -72 364 0
-71 -72 -364 0
65 66 365 0
67 -365 366 0
68 -366 367 0
69 -367 368 0
70 -368 369 0
71 72 -369 0
-1 -9 370 0
-1 -9 -370 0
-1 -17 371 0
-1 -17 -371 0
-1 -25 372 0
-1 -25 -372 0
-1 -33 373 0
-1 -33 -373 0
-1 -41 374 0
-1 -41 -374 0
-1 -49 375 0
-1 -49 -375 0
-1 -57 376 0
-1 -57 -376 0
-1 -65 377 0
-1 -65 -377 0
-9 -17 378 0
-9 -17 -378 0
-9 -25 379 0
-9 -25 -379 0
-9 -33 380 0
-9 -33 -380 0
-9 -41 381 0
-9 -41 -381 0
-9 -49 382 0
-9 -49 -382 0
-9 -57 383 0
-9 -57 -383 0
-9 -65 384 0
-9 -65 -384 0
-17 -25 385 0
-17 -25 -385 0
-17 -33 386 0
-17 -33 -386 0
-17 -41 387 0
-17 -41 -387 0
-17 -49 388 0
-17 -49 -388 0
-17 -57 389 0
-17 -57 -389 0
-17 -65 390 0
-17 -65 -390 0
-25 -33 391 0
-25 -33 -391 0
-25 -41 392 0
-25 -41 -392 0
-25 -49 393 0
-25 -49 -393 0
-25 -57 394 0
-25 -57 -394 0
-25 -65 395 0
-25 -65 -395 0
-33 -41 396 0
-33 -41 -396 0
-33 -49 397 0
-33 -49 -397 0
-33 -57 398 0
-33 -57 -398 0
-33 -65 399 0
-33 -65 -399 0
-41 -49 400 0
-41 -49 -400 0
-41 -57 401 0
-41 -57 -401 0
-41 -65 402 0
-41 -65 -402 0
-49 -57 403 0
-49 -57 -403 0
-49 -65 404 0
-49 -65 -404 0
-57 -65 405 0
-57 -65 -405 0
-2 -10 406 0
-2 -10 -406 0
-2 -18 407 0
-2 -18 -407 0
-2 -26 408 0
-2 -26 -408 0
-2 -34 409 0
-2 -34 -409 0
-2 -42 410 0
-2 -42 -410 0
-2 -50 411 0
-2 -50 -411 0
-2 -58 412 0
-2 -58 -412 0
-2 -66 413 0
-2 -66 -413 0
-10 -18 414 0
-10 -18 -414 0
-10 -26 415 0
-10 -26 -415 0
-10 -34 416 0
-10 -34 -416 0
-10 -42 417 0
-10 -42 -417 0
-10 -50 418 0
-10 -50 -418 0
-10 -58 419 0
-10 -58 -419 0
-10 -66 420 0
-10 -66 -420 0
-18 -26 421 0
-18 -26 -421 0
-18 -34 422 0
-18 -34 -422 0
-18 -42 423 0
-18 -42 -423 0
-18 -50 424 0
-18 -50 -424 0
-18 -58 425 0
-18 -58 -425 0
-18 -66 426 0
-18 -66 -426 0
-26 -34 427 0
-26 -34 -427 0
-26 -42 428 0
-26 -42 -428 0
-26 -50 429 0
-26 -50 -429 0
-26 -58 430 0
-26 -58 -430 0
-26 -66 431 0
-26 -66 -431 0
-34 -42 432 0
-34 -42 -432 0
-34 -50 433 0
-34 -50 -433 0
-34 -58 434 0
-34 -58 -434 0
-34 -66 435 0
-34 -66 -435 0
-42 -50 436 0
-42 -50 -436 0
-42 -58 437 0
-42 -58 -437 0
-42 -66 438 0
-42 -66 -438 0
-50 -58 439 0
-50 -58 -439 0
-50 -66 440 0
-50 -66 -440 0
-58 -66 441 0
-58 -66 -441 0
-3 -11 442 0
-3 -11 -442 0
-3 -19 443 0
-3 -19 -443 0
-3 -27 444 0
-3 -27 -444 0
-3 -35 445 0
-3 -35 -445 0
-3 -43 446 0
-3 -43 -446 0
-3 -51 447 0
-3 -51 -447 0
-3 -59 448 0
-3 -59 -448 0
-3 -67 449 0
-3 -67 -449 0
-11 -19 450 0
-11 -19 -450 0
-11 -27 451 0
-11 -27 -451 0
-11 -35 452 0
-11 -35 -452 0
-11 -43 453 0
-11 -43 -453 0
-11 -51 454 0
-11 -51 -454 0
-11 -59 455 0
-11 -59 -455 0
-11 -67 456 0
-11 -67 -456 0
-19 -27 457 0
-19 -27 -457 0
-19 -35 458 0
-19 -35 -458 0
-19 -43 459 0
-19 -43 -459 0
-19 -51 460 0
-19 -51 -460 0
-19 -59 461 0
-19 -59 -461 0
-19 -67 462 0
-19 -67 -462 0
-27 -35 463 0
-27 -35 -463 0
-27 -43 464 0
-27 -43 -464 0
-27 -51 465 0
-27 -51 -465 0
-27 -59 466 0
-27 -59 -466 0
-27 -67 467 0
-27 -67 -467 0
-35 -43 468 0
-35 -43 -468 0
-35 -51 469 0
-35 -51 -469 0
-35 -59 470 0
-35 -59 -470 0
-35 -67 471 0
-35 -67 -471 0
-43 -51 472 0
-43 -51 -472 0
-43 -59 473 0
-43 -59 -473 0
-43 -67 474 0
-43 -67 -474 0
-51 -59 475 0
-51 -59 -475 0
-51 -67 476 0
-51 -67 -476 0
-59 -67 477 0
-59 -67 -477 0
-4 -12 478 0
-4 -12 -478 0
-4 -20 479 0
-4 -20 -479 0
-4 -28 480 0
-4 -28 -480 0
-4 -36 481 0
-4 -36 -481 0
-4 -44 482 0
-4 -44 -482 0
-4 -52 483 0
-4 -52 -483 0
-4 -60 484 0
-4 -60 -484 0
-4 -68 485 0
-4 -68 -485 0
-12 -20 486 0
-12 -20 -486 0
-12 -28 487 0
-12 -28 -487 0
-12 -36 488 0
-12 -36 -488 0
-12 -44 489 0
-12 -44 -489 0
-12 -52 490 0
-12 -52 -490 0
-12 -60 491 0
-12 -60 -491 0
-12 -68 492 0
-12 -68 -492 0
-20 -28 493 0
-20 -28 -493 0
-20 -36 494 0
-20 -36 -494 0
-20 -44 495 0
-20 -44 -495 0
-20 -52 496 0
-20 -52 -496 0
-20 -60 497 0
-20 -60 -497 0
-20 -68 498 0
-20 -68 -498 0
-28 -36 499 0
-28 -36 -499 0
-28 -44 500 0
-28 -44 -500 0
-28 -52 501 0
-28 -52 -501 0
-28 -60 502 0
-28 -60 -502 0
-28 -68 503 0
-28 -68 -503 0
-36 -44 504 0
-36 -44 -504 0
-36 -52 505 0
-36 -52 -505 0
-36 -60 506 0
-36 -60 -506 0
-36 -68 507 0
-36 -68 -507 0
-44 -52 508 0
-44 -52 -508 0
-44 -60 509 0
-44 -60 -509 0
-44 -68 510 0
-44 -68 -510 0
-52 -60 511 0
-52 -60 -511 0
-52 -68 512 0
-52 -68 -512 0
-60 -68 513 0
-60 -68 -513 0
-5 -13 514 0
-5 -13 -514 0
-5 -21 515 0
-5 -21 -515 0
-5 -29 516 0
-5 -29 -516 0
-5 -37 517 0
-5 -37 -517 0
-5 -45 518 0
-5 -45 -518 0
-5 -53 519 0
-5 -53 -519 0
-5 -61 520 0
-5 -61 -520 0
-5 -69 521 0
-5 -69 -521 0
-13 -21 522 0
-13 -21 -522 0
-13 -29 523 0
-13 -29 -523 0
-13 -37 524 0
-13 -37 -524 0
-13 -45 525 0
-13 -45 -525 0
-13 -53 526 0
-13 -53 -526 0
-13 -61 527 0
-13 -61 -527 0
-13 -69 528 0
-13 -69 -528 0
-21 -29 529 0
-21 -29 -529 0
-21 -37 530 0
-21 -37 -530 0
-21 -45 531 0
-21 -45 -531 0
-21 -53 532 0
-21 -53 -532 0
-21 -61 533 0
-21 -61 -533 0
-21 -69 534 0
-21 -69 -534 0
-29 -37 535 0
-29 -37 -535 0
-29 -45 536 0
-29 -45 -536 0
-29 -53 537 0
-29 -53 -537 0
-29 -61 538 0
-29 -61 -538 0
-29 -69 539 0
-29 -69 -539 0
-37 -45 540 0
-37 -45 -540 0
-37 -53 541 0
-37 -53 -541 0
-37 -61 542 0
-37 -61 -542 0
-37 -69 543 0
-37 -69 -543 0
-45 -53 544 0
-45 -53 -544 0
-45 -61 545 0
-45 -61 -545 0
-45 -69 546 0
-45 -69 -546 0
-53 -61 547 0
-53 -61 -547 0
-53 -69 548 0
-53 -69 -548 0
-61 -69 549 0
-61 -69 -549 0
-6 -14 550 0
-6 -14 -550 0
-6 -22 551 0
-6 -22 -551 0
-6 -30 552 0
-6 -30 -552 0
-6 -38 553 0
-6 -38 -553 0
-6 -46 554 0
-6 -46 -554 0
-6 -54 555 0
-6 -54 -555 0
-6 -62 556 0
-6 -62 -556 0
-6 -70 557 0
-6 -70 -557 0
-14 -22 558 0
-14 -22 -558 0
-14 -30 559 0
-14 -30 -559 0
-14 -38 560 0
-14 -38 -560 0
-14 -46 561 0
-14 -46 -561 0
-14 -54 562 0
-14 -54 -562 0
-14 -62 563 0
-14 -62 -563 0
-14 -70 564 0
-14 -70 -564 0
-22 -30 565 0
-22 -30 -565 0
-22 -38 566 0
-22 -38 -566 0
-22 -46 567 0
-22 -46 -567 0
-22 -54 568 0
-22 -54 -568 0
-22 -62 569 0
-22 -62 -569 0
-22 -70 570 0
-22 -70 -570 0
-30 -38 571 0
-30 -38 -571 0
-30 -46 572 0
-30 -46 -572 0
-30 -54 573 0
-30 -54 -573 0
-30 -62 574 0
-30 -62 -574 0
-30 -70 575 0
-30 -70 -575 0
-38 -46 576 0
-38 -46 -576 0
-38 -54 577 0
-38 -54 -577 0
-38 -62 578 0
-38 -62 -578 0
-38 -70 579 0
-38 -70 -579 0
-46 -54 580 0
-46 -54 -580 0
-46 -62 581 0
-46 -62 -581 0
-46 -70 582 0
-46 -70 -582 0
-54 -62 583 0
-54 -62 -583 0
-54 -70 584 0
-54 -70 -584 0
-62 -70 585 0
-62 -70 -585 0
-7 -15 586 0
-7 -15 -586 0
-7 -23 587 0
-7 -23 -587 0
-7 -31 588 0
-7 -31 -588 0
-7 -39 589 0
-7 -39 -589 0
-7 -47 590 0
-7 -47 -590 0
-7 -55 591 0
-7 -55 -591 0
-7 -63 592 0
-7 -63 -592 0
-7 -71 593 0
-7 -71 -593 0
-15 -23 594 0
-15 -23 -594 0
-15 -31 595 0
-15 -31 -595 0
-15 -39 596 0
-15 -39 -596 0
-15 -47 597 0
-15 -47 -597 0
-15 -55 598 0
-15 -55 -598 0
-15 -63 599 0
-15 -63 -599 0
-15 -71 600 0
-15 -71 -600 0
-23 -31 601 0
-23 -31 -601 0
-23 -39 602 0
-23 -39 -602 0
-23 -47 603 0
-23 -47 -603 0
-23 -55 604 0
-23 -55 -604 0
-23 -63 605 0
-23 -63 -605 0
-23 -71 606 0
-23 -71 -606 0
-31 -39 607 0
-31 -39 -607 0
-31 -47 608 0
-31 -47 -608 0
-31 -55 609 0
-31 -55 -609 0
-31 -63 610 0
-31 -63 -610 0
-31 -71 611 0
-31 -71 -611 0
-39 -47 612 0
-39 -47 -612 0
-39 -55 613 0
-39 -55 -613 0
-39 -63 614 0
-39 -63 -614 0
-39 -71 615 0
-39 -71 -615 0
-47 -55 616 0
-47 -55 -616 0
-47 -63 617 0
-47 -63 -617 0
-47 -71 618 0
-47 -71 -618 0
-55 -63 619 0
-55 -63 -619 0
-55 -71 620 0
-55 -71 -620 0
-63 -71 621 0
-63 -71 -621 0
-8 -16 622 0
-8 -16 -622 0
-8 -24 623 0
-8 -24 -623 0
-8 -32 624 0
-8 -32 -624 0
-8 -40 625 0
-8 -40 -625 0
-8 -48 626 0
-8 -48 -626 0
-8 -56 627 0
-8 -56 -627 0
-8 -64 628 0
-8 -64 -628 0
-8 -72 629 0
-8 -72 -629 0
-16 -24 630 0
-16 -24 -630 0
-16 -32 631 0
-16 -32 -631 0
-16 -40 632 0
-16 -40 -632 0
-16 -48 633 0
-16 -48 -633 0
-16 -56 634 0
-16 -56 -634 0
-16 -64 635 0
-16 -64 -635 0
-16 -72 636 0
-16 -72 -636 0
-24 -32 637 0
-24 -32 -637 0
-24 -40 638 0
-24 -40 -638 0
-24 -48 639 0
-24 -48 -639 0
-24 -56 640 0
-24 -56 -640 0
-24 -64 641 0
-24 -64 -641 0
-24 -72 642 0
-24 -72 -642 0
-32 -40 643 0
-32 -40 -643 0
-32 -48 644 0
-32 -48 -644 0
-32 -56 645 0
-32 -56 -645 0
-32 -64 646 0
-32 -64 -646 0
-32 -72 647 0
-32 -72 -647 0
-40 -48 648 0
-40 -48 -648 0
-40 -56 649 0
-40 -56 -649 0
-40 -64 650 0
-40 -64 -650 0
-40 -72 651 0
-40 -72 -651 0
-48 -56 652 0
-48 -56 -652 0
-48 -64 653 0
-48 -64 -653 0
-48 -72 654 0
-48 -72 -654 0
-56 -64 655 0
-56 -64 -655 0
-56 -72 656 0
-56 -72 -656 0
-64 -72 657 0
-64 -72 -657 0
928 -1045 -1212 0
887 -988 -1090 0
-826 -1013 -1048 0
661 -730 809 0
-773 951 1032 0
-833 957 1110 0
-940 -1124 1188 0
-870 889 -1133 0
796 1034 1125 0
798 -972 1137 0
-842 -1106 1112 0
776 -889 -1034 0
-730 823 -933 0
-886 905 -1046 0
-841 886 1092 0
-1032 -1134 -1160 0
-687 -863 989 0
957 -1140 -1217 0
-743 -888 1171 0
929 -948 -1050 0
-765 789 -1112 0
-928 -936 1091 0
761 -1072 1214 0
-774 -919 1120 0
-813 -1012 -1188 0
980 -1008 -1051 0
827 1050 -1073 0
-803 -819 861 0
-668 853 984 0
-696 907 -949 0
-707 -882 -973 0
-901 1108 1165 0
-741 -890 -1047 0
-744 754 -1009 0
-751 982 -1032 0
679 -926 1219 0
-826 -927 -1141 0
927 -968 -1092 0
-700 883 -1152 0
752 -858 -1076 0
710 761 1097 0
709 -716 -1036 0
-874 986 1028 0
669 933 1161 0
798 1062 -1149 0
-861 1121 1195 0
-810 -1003 -1111 0
680 -1011 -1038 0
-758 912 -1190 0
855 -1097 -1105 0
860 1010 1178 0
-716 -901 -1114 0
-774 -935 -1150 0
-764 -1035 -1190 0
-771 782 -1176 0
748 877 -1209 0
1050 -1070 -1200 0
-684 -963 1095 0
660 1089 1186 0
663 -681 -1059 0
674 772 1061 0
931 1165 1167 0
-692 -743 -1174 0
-696 977 1027 0
743 -837 1021 0
-802 -1079 -1109 0
659 -687 1004 0
886 -980 -1185 0
820 964 1144 0
1036 -1082 -1210 0
-840 -1115 1124 0
-848 1026 1140 0
757 -862 1158 0
-979 -1094 -1194 0
-671 1149 -1174 0
-972 997 -1073 0
-700 -727 -1111 0
-782 832 -1122 0
678 1021 1215 0
-743 -1031 1059 0
-1011 1092 -1117 0
786 -939 -991 0
689 859 1051 0
832 851 -911 0
-761 -847 -979 0
-672 -889 1114 0
-826 -1000 1132 0
-744 761 1046 0
705 -1138 1194 0
-670 -982 -1201 0
662 724 803 0
-662 -798 941 0
880 954 1218 0
-988 1046 -1185 0
-750 905 961 0
-675 892 901 0
-874 -888 -938 0
-786 941 943 0
-957 -1009 1204 0
780 -793 -1076 0
681 -744 827 0
1132 1142 -1161 0
-779 -858 -1148 0
-738 -819 -1017 0
766 -1089 1149 0
866 -1055 1083 0
814 998 -1212 0
-806 -1093 1205 0
712 801 1099 0
-729 -830 877 0
-705 -750 -1203 0
762 -1076 -1149 0
-785 926 -1038 0
663 -772 1142 0
-720 1096 1200 0
725 -970 1172 0
682 -774 1093 0
-708 -876 -975 0
-983 -1047 1108 0
755 1047 1194 0
750 877 1149 0
-842 -1158 1201 0
766 -1208 1221 0
672 939 -953 0
-804 -875 -963 0
-778 -1106 -1123 0
-914 1159 1194 0
984 1009 1116 0
-795 -856 1078 0
-872 1071 -1160 0
-727 -853 -969 0
863 889 1033 0
-882 -933 -1164 0
764 813 893 0
730 755 -788 0
699 751 -1113 0
667 897 1183 0
-736 838 -969 0
-800 913 1185 0
-941 -1057 1067 0
-794 909 1055 0
1070 -1137 -1218 0
1085 1126 -1210 0
-751 -879 1022 0
-942 1086 -1188 0
-921 1039 -1096 0
961 965 1014 0
-787 919 1131 0
-738 -1077 1101 0
689 -1021 -1101 0
-811 -812 -1215 0
-757 -1084 1175 0
987 1113 1168 0
805 994 -1063 0
679 708 -979 0
-659 979 -1087 0
-1048 -1056 1069 0
-695 965 1078 0
667 778 -1019 0
-715 -861 907 0
760 911 -1090 0
736 -1194 1216 0
-704 834 1069 0
732 -1001 1099 0
960 1022 1039 0
697 701 -936 0
822 833 910 0
-709 864 870 0
-819 -1102 -1114 0
910 969 -978 0
-934 955 -958 0
-691 -851 -1049 0
-855 -1101 1118 0
834 1010 -1034 0
749 -914 1139 0
-850 1023 -1140 0
663 809 -1102 0
716 891 -956 0
798 958 994 0
1024 -1101 1182 0
704 -778 832 0
817 970 1001 0
725 -829 -1089 0
668 -905 -1148 0
954 1118 -1147 0
-943 -1142 1214 0
708 924 -978 0
-673 875 -891 0
718 -1140 1162 0
-659 877 1210 0
-757 -946 1113 0
682 766 -1015 0
750 754 -832 0
1063 1067 1111 0
-721 953 -1004 0
-766 860 1152 0
-1072 1075 1081 0
959 -969 -1008 0
826 1092 1176 0
-697 -963 1042 0
862 1105 -1202 0
-927 -1088 -1179 0
728 -850 -1218 0
746 837 -1023 0
688 849 -944 0
-864 1012 1104 0
-965 1042 -1158 0
-755 799 801 0
-730 939 -1138 0
-746 -931 -1004 0
896 970 -1122 0
807 851 1190 0
-770 -965 1170 0
729 896 1213 0
-963 -1121 1219 0
-910 1005 -1204 0
-692 1139 -1142 0
-1040 -1134 1150 0
757 -978 -1190 0
681 -777 -782 0
-793 989 1041 0
717 -796 -846 0
-798 883 -1079 0
-671 -725 -791 0
660 878 1017 0
-796 -802 1114 0
-692 863 935 0
-806 908 -936 0
-896 1042 -1175 0
-766 -1095 -1194 0
-824 -885 -1207 0
-739 761 -920 0
665 -703 -1034 0
-733 790 -947 0
-661 -729 -997 0
839 921 1120 0
871 -919 -998 0
-658 -1047 -1191 0
-922 1078 1201 0
703 740 769 0
-697 -706 898 0
757 -770 825 0
-914 -980 -1173 0
-981 -984 -1181 0
791 852 -1127 0
916 988 1114 0
759 794 -922 0
794 955 991 0
766 -944 1115 0
780 -965 -976 0
726 -1049 -1088 0
661 706 1053 0
-1007 -1144 1204 0
-677 920 932 0
701 -928 1182 0
1059 1132 -1197 0
867 906 1207 0
786 866 -1211 0
-723 -857 1142 0
886 887 -1033 0
-729 -924 -1007 0
-723 1097 -1119 0
-871 1037 -1090 0
707 -816 829 0
-740 896 902 0
833 -861 -1183 0
681 -719 -816 0
663 -715 -1047 0
-841 1022 -1140 0
669 718 -754 0
786 -1108 -1196 0
-1058 -1113 -1211 0
-759 -948 -1060 0
663 932 -1137 0
893 1001 1015 0
-659 -771 913 0
-705 1124 -1172 0
769 -898 908 0
792 854 -1086 0
-760 882 -915 0
681 -1046 1215 0
-676 834 -1123 0
818 893 -1160 0
676 -803 -1024 0
-787 -982 -1177 0
-705 -719 -1100 0
-779 879 -973 0
775 -910 1095 0
767 835 1017 0
-1001 1187 -1206 0
-869 -987 1094 0
857 -1023 -1040 0
-692 -752 -1046 0
-883 -922 1209 0
-1014 1144 1193 0
692 878 953 0
-780 1040 -1140 0
-720 1011 -1158 0
683 -817 1101 0
706 986 1140 0
758 817 -1032 0
-722 -774 -953 0
-672 -697 947 0
-832 -943 1205 0
-818 864 1155 0
-701 -834 887 0
-900 -1112 -1220 0
-734 1033 -1135 0
-1057 1063 -1107 0
663 -825 -1020 0
-782 912 -1075 0
807 1002 1114 0
968 -1009 -1037 0
866 -913 -956 0
985 -993 1074 0
-740 1077 -1138 0
-736 -850 939 0
-969 -1001 -1170 0
842 876 1131 0
874 921 -1169 0
661 -910 1026 0
962 -1027 1105 0
1067 -1134 1135 0
-665 853 1109 0
733 798 -952 0
-740 779 -1085 0
874 -899 1009 0
667 1076 1148 0
-755 -1012 1071 0
-759 992 -1055 0
672 1029 -1193 0
775 808 912 0
-691 -760 958 0
834 873 1047 0
761 -804 970 0
776 -829 -901 0
1035 -1053 1057 0
-749 809 1205 0
1029 1162 1165 0
-699 913 1114 0
969 1014 1189 0
801 924 996 0
838 -879 -1089 0
-905 -997 1176 0
736 -767 -1165 0
781 964 -1207 0
-764 865 970 0
692 -829 -1115 0
834 1011 -1222 0
868 975 1037 0
887 -931 -1212 0
-689 -774 -971 0
-796 -945 -973 0
-735 855 -1164 0
803 -1161 1165 0
699 737 1050 0
697 719 1199 0
-805 806 -988 0
-926 -1014 1054 0
-867 -942 1211 0
1047 1101 -1179 0
968 1048 1221 0
675 -910 -1218 0
910 -1123 1153 0
1012 -1126 -1165 0
-744 811 1062 0
819 -908 1220 0
795 -1107 -1187 0
-976 -982 1224 0
-748 -868 1193 0
-964 1128 1130 0
-694 -916 978 0
814 -832 838 0
-777 -797 1087 0
-723 -899 1157 0
939 1045 1062 0
959 1070 1223 0
725 875 1065 0
-1015 -1156 1213 0
740 870 1001 0
800 827 910 0
693 -940 1075 0
971 -1075 -1214 0
729 934 1177 0
-796 1066 1103 0
-840 -858 1033 0
-792 887 1031 0
-891 893 1138 0
-724 -821 -1092 0
898 -1001 1174 0
1009 -1102 1132 0
931 986 -1150 0
-707 -882 -969 0
927 -1063 -1095 0
-889 976 1054 0
-731 -893 -1160 0
-786 860 -1182 0
699 830 -1085 0
-658 -776 -779 0
-725 -727 922 0
-687 -933 1049 0
700 1016 -1062 0
734 802 1110 0
760 782 -952 0
774 777 -1003 0
773 780 1011 0
931 -1050 1075 0
-1047 -1051 1177 0
-911 912 1117 0
-697 -759 995 0
1041 1068 1094 0
698 921 1006 0
-727 -890 -983 0
-820 927 -1054 0
-668 861 1093 0
883 1126 -1213 0
-856 932 -1113 0
-808 -926 -1081 0
735 -869 1152 0
961 1212 1222 0
668 -833 912 0
855 988 -1167 0
-782 825 -1210 0
674 -886 -891 0
-810 901 -1213 0
805 -830 -1177 0
-834 -1034 -1164 0
-714 -857 1079 0
879 -976 -996 0
904 -1073 1213 0
-820 -932 1155 0
738 -938 -943 0
-699 769 -980 0
-774 -974 -1164 0
988 1054 -1077 0
668 -871 -1134 0
1030 -1038 1148 0
710 -823 -942 0
-659 -1019 -1223 0
770 -963 -1026 0
731 -1168 1172 0
824 1083 -1166 0
828 -878 -1106 0
-1077 1085 -1186 0
697 989 -1043 0
772 -801 -1142 0
1089 1095 -1155 0
802 1021 1208 0
789 -810 1035 0
1040 1211 -1213 0
-946 -1016 -1066 0
-732 795 -898 0
-871 1063 1094 0
915 1021 1038 0
-748 -847 -1028 0
-825 1132 -1214 0
-782 783 1168 0
-872 -874 1224 0
680 713 -801 0
755 1042 -1157 0
678 809 -1189 0
819 -1077 -1217 0
975 -1118 -1208 0
752 887 -1028 0
765 836 -1189 0
664 1079 1090 0
-855 -904 1084 0
782 828 1007 0
-1045 -1106 -1126 0
747 -917 -1160 0
-687 819 1023 0
702 784 1205 0
682 -954 1028 0
-788 1049 1183 0
-988 1158 1192 0
-751 1070 -1177 0
661 -1060 -1107 0
-799 -1006 -1044 0
-707 -933 973 0
-706 785 1067 0
905 -1128 1164 0
-696 755 1067 0
758 -1009 -1038 0
-842 -1147 -1217 0
878 -1005 1029 0
-688 898 1110 0
703 850 1015 0
713 -773 -1202 0
934 -1152 1221 0
704 1053 1181 0
799 881 -1123 0
695 1007 1127 0
-715 940 980 0
701 1090 1119 0
808 1007 1048 0
-721 -1103 -1169 0
804 -899 1165 0
697 880 908 0
-779 914 -958 0
797 -934 -1074 0
1075 -1077 -1148 0
780 918 -1148 0
-1001 -1039 -1068 0
-671 -738 -1029 0
954 1024 1133 0
815 963 1091 0
-768 -805 -964 0
-689 -818 1206 0
801 -1104 -1188 0
-971 -1056 -1081 0
-1190 1207 -1218 0
-693 1037 1116 0
781 790 -795 0
-686 -812 -1127 0
818 1024 -1129 0
781 -833 986 0
677 824 -1052 0
822 -860 1103 0
913 1082 -1210 0
971 1098 1207 0
715 876 1218 0
-831 1106 -1114 0
-1083 -1148 1161 0
-827 1050 1168 0
-760 1093 -1182 0
766 1099 -1127 0
-695 -722 -846 0
1109 -1175 1196 0
-806 -939 -1015 0
782 -794 -1118 0
-872 -885 -1137 0
716 1080 1123 0
785 -1047 -1072 0
858 -971 1012 0
-829 1161 1167 0
-714 982 1175 0
-757 1001 -1037 0
-706 -852 898 0
666 1039 1043 0
-720 792 797 0
-892 1063 1165 0
-701 -766 1083 0
-675 883 -1085 0
864 930 1191 0
-679 883 -906 0
-977 -1028 1116 0
-871 -953 -1196 0
-723 1109 1155 0
-659 -845 871 0
699 757 -1078 0
750 766 811 0
-816 913 -915 0
673 -908 1221 0
-662 -987 1144 0
-956 1010 -1131 0
841 -944 -1148 0
-978 -1156 1206 0
-704 907 1101 0
842 1094 -1200 0
-728 919 -1070 0
754 -1024 -1075 0
-665 -1077 1207 0
719 -905 1020 0
-979 1031 1040 0
722 -899 1157 0
-805 -1030 1073 0
682 -798 917 0
762 770 1195 0
-778 -856 -1149 0
857 1035 -1072 0
-898 961 1099 0
781 -830 -1110 0
-1043 1189 -1223 0
-690 -722 919 0
-743 956 -978 0
-920 -1003 -1103 0
758 773 1040 0
-964 977 -1078 0
-747 757 767 0
-745 -757 1063 0
-930 942 1123 0
-714 -788 1143 0
780 1176 1190 0
-927 985 -1100 0
709 -1016 -1151 0
-875 -1175 -1205 0
780 -985 -1198 0
-868 1187 -1215 0
-815 -1103 1195 0
-682 -1026 -1209 0
-689 768 1069 0
825 -886 -918 0
-855 -970 1021 0
817 -952 1134 0
853 893 956 0
900 -965 -1145 0
875 927 1159 0
-745 972 1115 0
698 -800 1212 0
-974 -1044 -1145 0
-1022 1023 1028 0
910 -1076 1198 0
-720 914 1158 0
-765 -802 943 0
-760 1021 -1024 0
-678 -1132 1206 0
-843 959 1096 0
-660 994 -1081 0
-771 825 -834 0
776 836 -980 0
-703 1086 1184 0
949 -951 -1113 0
734 998 -1085 0
674 883 1151 0
-979 1032 -1190 0
-818 1065 -1177 0
-691 -1010 -1212 0
-789 1064 1135 0
-693 829 -837 0
-765 -1080 -1147 0
-701 797 874 0
-1131 -1167 1189 0
853 1093 1122 0
797 1151 1196 0
-795 -877 961 0
893 897 970 0
-730 -781 -886 0
934 -947 1118 0
-964 965 -1029 0
-809 -1075 1145 0
919 1028 1147 0
754 786 833 0
671 930 1091 0
-815 -824 -983 0
691 -841 946 0
-953 997 -1063 0
750 -1102 -1142 0
-681 786 -814 0
-806 -851 1165 0
-970 -1076 1112 0
670 788 -1124 0
-696 1037 1094 0
838 983 -1006 0
-669 -757 1052 0
864 1039 -1181 0
921 1095 1175 0
696 -889 1124 0
-719 -843 951 0
703 980 1082 0
759 829 1170 0
765 -867 913 0
-668 760 -1147 0
783 938 -1085 0
-695 -861 -879 0
-806 -844 1152 0
676 -752 -1201 0
676 941 -976 0
897 955 1012 0
-694 804 -1148 0
-841 885 1108 0
-849 1001 -1188 0
680 1020 -1063 0
-762 -897 -989 0
-790 -891 -1217 0
817 -829 858 0
-908 -975 -1014 0
-950 960 -1112 0
-824 -1001 -1024 0
903 1092 -1130 0
658 -886 -1053 0
-691 819 -894 0
-856 1089 1125 0
740 -875 -1090 0
692 833 -1107 0
-799 1089 -1216 0
771 -867 1219 0
678 -1057 1177 0
-804 954 -1094 0
-988 -1055 -1142 0
715 -1066 1150 0
751 802 1078 0
-667 -708 1128 0
901 946 1141 0
838 -894 -901 0
816 1011 -1062 0
-724 994 -1040 0
964 -1128 1179 0
700 -785 -1031 0
1014 1072 -1102 0
-710 1032 1182 0
709 -727 1038 0
787 876 955 0
-874 -877 -1094 0
-822 -1048 -1182 0
789 -795 1181 0
-871 911 1130 0
896 -1064 -1193 0
-664 -763 -793 0
895 -995 1130 0
739 855 994 0
-832 891 1176 0
-801 -1025 1032 0
-925 981 -1037 0
811 -1039 1117 0
-747 -939 1023 0
-794 -974 -1133 0
-687 -777 -1042 0
-985 1042 1104 0
-1029 1073 -1088 0
-754 978 -1107 0
1086 1090 1096 0
-1021 1097 1164 0
1033 -1054 1116 0
-949 -1053 1109 0
-833 -943 944 0
810 1013 1148 0
-791 -795 856 0
-888 929 1124 0
675 -887 -921 0
665 890 1035 0
-665 -696 1124 0
-705 -793 1012 0
-659 -757 -1096 0
-803 995 -1062 0
737 -1083 1101 0
-1065 1079 -1184 0
-901 907 -1144 0
815 -907 1107 0
686 -697 -828 0
-846 957 1117 0
-795 917 -1201 0
690 -719 -1196 0
-884 971 -1219 0
909 1038 -1169 0
815 958 1114 0
-823 -995 -1048 0
668 -943 1110 0
-981 988 -1025 0
935 -985 1130 0
-788 -986 -1043 0
-734 -844 -926 0
710 949 -984 0
-988 -1045 1063 0
-754 -954 1023 0
862 896 -1195 0
670 -865 -882 0
-940 1018 -1117 0
-739 752 842 0
-774 -781 -801 0
672 760 -837 0
889 -931 -1125 0
-770 -793 977 0
666 1077 1113 0
737 -806 1109 0
677 -681 1098 0
806 936 1103 0
670 809 955 0
666 1128 -1203 0
-714 862 1058 0
-789 1099 1176 0
-831 880 1045 0
698 974 1008 0
-896 899 936 0
913 -1106 1210 0
-667 846 -1162 0
-662 698 -977 0
-708 837 1176 0
-712 -771 -1145 0
906 -1120 -1209 0
916 1130 1137 0
-1025 -1113 1206 0
732 -937 1183 0
803 -891 -945 0
-854 947 -1124 0
-736 785 1029 0
763 -819 832 0
663 794 890 0
893 983 -1078 0
-886 1057 1166 0
884 -939 976 0
-755 874 1187 0
1047 -1085 -1135 0
-845 910 1161 0
-829 -1022 1101 0
690 -753 -992 0
665 696 1072 0
-748 804 1109 0
-680 889 -893 0
725 921 995 0
689 886 -1147 0
925 -1140 -1158 0
913 1025 1145 0
694 -1042 1114 0
-700 -800 -926 0
674 -821 961 0
-776 -830 928 0
708 -784 -1051 0
797 -872 -1089 0
-966 -1047 1069 0
767 816 1128 0
755 -838 1199 0
812 -897 1058 0
-895 909 -1164 0
-700 908 -981 0
-919 -938 -1088 0
-677 -709 743 0
-691 -901 -1089 0
666 -865 -1162 0
924 -1029 -1151 0
-759 -826 1003 0
-783 -850 993 0
885 -919 1113 0
-916 -973 1203 0
-756 -975 1223 0
688 -861 1122 0
805 1039 1116 0
950 -1134 -1147 0
861 1079 1132 0
746 880 1010 0
724 -822 -1124 0
833 -896 -938 0
-665 970 1160 0
-685 -879 -1138 0
-740 1061 -1170 0
-995 1011 -1160 0
863 947 1042 0
-708 -1203 1219 0
-717 719 1156 0
-977 -1012 1209 0
-721 758 -854 0
-852 -881 1005 0
-731 771 1157 0
-658 -835 985 0
877 -918 1041 0
-923 1006 1042 0
-719 1197 -1217 0
676 -732 1129 0
-677 987 -1161 0
820 -912 -1214 0
-701 770 1205 0
-942 -994 -1127 0
720 1177 -1179 0
664 -794 -1027 0
951 -1109 1184 0
-671 -822 -1150 0
-658 -1002 1124 0
927 -969 -1088 0
765 -826 1090 0
829 1113 -1205 0
1123 1152 1217 0
700 -752 900 0
715 840 939 0
-704 -1179 -1189 0
-804 1044 -1083 0
934 962 1210 0
-822 -924 -947 0
-795 -1070 -1101 0
873 874 893 0
697 946 1100 0
-739 -1091 -1185 0
796 950 1049 0
754 797 -839 0
697 1149 -1189 0
774 -807 1058 0
848 1081 1186 0
-958 1033 1130 0
689 -875 1095 0
-729 -829 -868 0
818 1037 1053 0
699 792 -1165 0
-931 -1066 1219 0
806 1029 1101 0
-864 -1019 -1067 0
952 964 1217 0
684 -800 989 0
-723 830 -902 0
754 764 -1133 0
899 918 1091 0
-729 -797 1163 0
709 1021 1108 0
-819 -852 1131 0
-935 1049 -1162 0
662 -968 -1002 0
667 -750 815 0
-687 1037 1160 0
697 -980 1088 0
-915 1094 -1173 0
872 1058 -1148 0
-904 -929 1120 0
-691 -861 -1099 0
786 802 -925 0
1063 -1080 -1155 0
793 -959 -1021 0
738 -830 -1177 0
-955 985 -1173 0
707 -869 -1188 0
-869 -899 -1065 0
757 -1091 1096 0
833 -876 1165 0
-683 -686 -689 0
912 1125 1145 0
-751 817 1222 0
-795 1033 -1182 0
-912 1105 1167 0
-1010 1157 1164 0
1039 1074 1154 0
898 -902 -1194 0
-855 -1007 -1141 0
743 792 1074 0
-829 851 951 0
770 790 -835 0
-737 -789 -1060 0
-935 -1032 1161 0
-665 1091 1196 0
765 -1039 -1136 0
-1006 -1024 1090 0
-701 -870 1034 0
-736 -758 -830 0
-765 785 940 0
999 1109 1190 0
695 733 998 0
-693 805 -1136 0
-856 863 -892 0
-780 -833 960 0
-704 911 925 0
949 1143 -1177 0
659 988 -1169 0
-745 -760 -1024 0
-711 -721 905 0
-852 -908 1107 0
727 -876 1091 0
-911 -1165 1175 0
-678 -751 1068 0
855 -924 993 0
-955 973 -1167 0
-664 -991 -1125 0
-700 827 -840 0
665 -1034 1211 0
-905 -945 975 0
822 824 1029 0
-742 -992 -1130 0
902 -1073 1191 0
765 -851 -1168 0
735 773 987 0
710 790 850 0
-971 -1098 -1111 0
-698 734 -868 0
984 1127 1161 0
783 -871 -904 0
727 874 1201 0
-658 -748 -752 0
826 -1069 1160 0
-803 832 1138 0
-1081 -1207 -1209 0
-836 -1008 1152 0
-666 770 -907 0
748 -1126 -1154 0
712 954 1129 0
1014 -1039 -1042 0
768 -1047 1165 0
-920 -1069 1173 0
-808 -842 -1193 0
-941 -998 -1136 0
953 -1140 1216 0
-728 977 1065 0
-931 -994 1174 0
-727 794 -1168 0
675 -830 -831 0
-675 -870 -893 0
698 863 1081 0
715 1049 1163 0
698 -907 -943 0
744 -898 1001 0
-712 -815 -1169 0
817 830 1224 0
681 990 1224 0
-815 -877 -1202 0
-785 -923 985 0
758 817 -1022 0
-843 -885 1065 0
-794 -1170 1176 0
721 -764 1058 0
-783 -907 1062 0
971 980 1134 0
-782 1057 -1179 0
-672 922 -1017 0
839 978 1012 0
-787 887 932 0
-661 -697 1078 0
-838 -848 -1111 0
-789 -873 1136 0
725 -1066 -1125 0
-819 -833 -1143 0
818 -870 1040 0
-762 -932 1213 0
973 -1170 -1198 0
664 -877 1032 0
798 1111 1114 0
1084 -1124 1199 0
-742 -830 849 0
-701 710 928 0
669 971 -981 0
762 -799 -1134 0
-670 -886 -920 0
889 -1069 -1209 0
682 -864 1190 0
-829 895 -1102 0
787 1080 -1193 0
-751 857 -1012 0
993 1061 1224 0
874 -946 1127 0
-973 1034 -1189 0
764 -842 934 0
1002 -1016 1198 0
703 709 884 0
890 -1042 1088 0
-897 -933 1020 0
788 932 -1144 0
-667 -841 -936 0
921 1047 -1164 0
731 843 1160 0
948 -1135 1170 0
-662 717 -1030 0
713 -814 868 0
732 831 1198 0
735 1135 1200 0
800 -868 -1224 0
-704 833 -1027 0
849 -953 1101 0
825 988 1179 0
845 -1126 -1134 0
-719 970 -986 0
-700 -787 799 0
-930 -945 1058 0
-774 888 -995 0
1041 -1071 1200 0
753 -894 -933 0
682 692 946 0
-722 1087 1104 0
740 -825 923 0
851 1172 -1188 0
-715 1043 -1068 0
1072 -1148 1151 0
736 -940 -945 0
993 -1025 1211 0
689 -793 -797 0
775 867 -1156 0
822 841 -1027 0
995 1011 1131 0
766 1031 1041 0
-680 975 -1087 0
776 -898 1143 0
-730 836 885 0
-860 875 -1136 0
-741 784 962 0
-706 866 -1212 0
-659 666 682 0
-996 -1116 1199 0
-667 -765 1220 0
699 -761 -1095 0
-684 -700 1214 0
-663 710 1054 0
-793 916 -1210 0
661 950 -998 0
851 -1059 -1084 0
748 932 939 0
-686 -711 835 0
-715 947 1195 0
-899 -1100 -1187 0
-870 -1116 -1206 0
-683 -725 1079 0
763 943 -1095 0
-818 969 1218 0
-1099 -1145 1204 0
871 -898 -989 0
-912 945 1099 0
-660 -1046 -1200 0
1121 1146 1197 0
1068 1131 -1214 0
898 920 -1108 0
-668 -811 -1093 0
695 -874 883 0
696 746 871 0
769 -771 -1120 0
-758 -865 1181 0
751 901 1187 0
-950 -1188 -1219 0
982 -1184 -1196 0
673 1017 1184 0
-1109 -1141 1149 0
-755 828 -1038 0
721 1007 1077 0
-795 979 1203 0
-726 -975 -1218 0
683 -958 1050 0
754 952 -1025 0
667 1090 -1110 0
-804 -1197 1199 0
975 -1110 -1187 0
-876 877 -1047 0
689 -1118 -1200 0
-684 -844 967 0
-738 -1003 1059 0
806 911 -998 0
-773 1021 -1100 0
760 -827 833 0
-970 -1067 -1072 0
896 984 -1168 0
687 844 -927 0
850 -1019 1164 0
688 -699 749 0
810 969 1206 0
663 974 -1057 0
758 923 -931 0
928 -1045 1212 0
-700 -909 -1046 0
-744 929 -988 0
687 888 -1183 0
-751 -852 1066 0
776 -933 -1067 0
853 -948 -1192 0
835 894 946 0
-711 -908 1172 0
-944 -1043 -1203 0
-969 -1141 1183 0
-795 972 -1115 0
-734 -990 1173 0
-771 904 1086 0
899 -1015 -1096 0
-1055 -1172 1188 0
687 702 -899 0
928 993 -994 0
-875 964 -1122 0
688 887 894 0
