c Phase 3 random 3-SAT negative control
c seed=71037
c ratio=4.26
c variant=uniform
c expected=TO_VALIDATE
p cnf 120 511
21 -57 -102 0
-75 -76 -115 0
33 -37 -110 0
-32 -39 110 0
16 -42 66 0
7 9 92 0
-24 51 -65 0
-42 56 -67 0
-62 63 -98 0
-35 -51 119 0
-2 -51 72 0
-33 -42 88 0
30 -42 -102 0
-5 6 -33 0
11 -27 60 0
3 -72 -116 0
-11 -62 103 0
13 19 48 0
19 77 117 0
-27 -45 -87 0
54 77 -106 0
-35 40 77 0
-23 26 108 0
-15 -43 105 0
52 68 107 0
-13 -18 87 0
-51 69 -75 0
-24 44 77 0
-12 -50 -77 0
-78 89 -90 0
5 95 107 0
-21 75 108 0
-26 -108 111 0
-25 44 76 0
51 103 107 0
-6 -52 -114 0
-25 55 93 0
48 -77 83 0
-58 -70 106 0
56 59 -66 0
-42 -53 -113 0
-11 -27 34 0
-22 -83 -89 0
23 -86 -94 0
18 30 -46 0
-3 66 -120 0
15 -20 43 0
29 31 -41 0
17 50 83 0
-5 -26 -49 0
-8 47 64 0
13 -22 -66 0
-60 -75 113 0
-14 93 -98 0
-11 71 -74 0
-37 -69 94 0
7 40 -47 0
21 80 90 0
-57 -67 -115 0
-37 39 -75 0
-27 -87 106 0
10 24 112 0
-16 -28 -51 0
13 -38 -42 0
-41 97 106 0
65 79 107 0
23 51 -92 0
12 29 64 0
22 -57 -76 0
55 61 -104 0
-42 83 106 0
-6 12 -34 0
8 33 -48 0
31 -33 -42 0
28 36 91 0
6 -12 -27 0
11 42 -65 0
11 -51 -118 0
-30 63 -109 0
-5 -85 119 0
-1 27 47 0
11 22 108 0
-9 -64 105 0
33 -82 91 0
-26 71 -113 0
-29 53 116 0
-27 73 97 0
-32 -35 -96 0
-16 27 -118 0
-54 -93 -97 0
-17 26 -113 0
-42 62 116 0
42 96 -99 0
17 -65 117 0
-12 92 -100 0
28 39 70 0
40 -50 69 0
19 -55 95 0
39 -42 72 0
-7 -57 -119 0
17 44 -76 0
-49 56 110 0
61 -62 68 0
-23 104 109 0
-23 -34 63 0
-58 110 116 0
-14 -32 -102 0
80 100 104 0
21 -69 -113 0
18 62 120 0
-9 -19 -53 0
37 -81 115 0
-57 -87 100 0
-59 -77 -90 0
-42 -45 -80 0
-4 -28 53 0
-4 -25 -65 0
-24 33 35 0
-43 -96 118 0
2 -52 67 0
41 81 -116 0
42 -54 -114 0
-12 -34 -114 0
4 10 39 0
5 84 92 0
58 111 -112 0
-18 70 -115 0
7 -80 91 0
-2 11 114 0
-9 -43 74 0
56 67 -110 0
59 -102 -114 0
70 -87 89 0
32 -46 63 0
-35 57 -94 0
-9 -73 118 0
-4 -99 -103 0
39 -75 -104 0
-60 72 -118 0
-83 -92 -94 0
-63 -101 -104 0
-55 78 -102 0
34 -61 -90 0
24 -79 -102 0
25 40 -53 0
-15 -20 -49 0
16 63 -76 0
-15 -23 110 0
-12 61 99 0
-43 71 110 0
92 102 -113 0
4 -17 -28 0
32 -64 87 0
53 74 -75 0
-56 -79 -80 0
-91 99 -111 0
-30 -53 57 0
-45 60 118 0
44 89 -98 0
26 -40 58 0
46 -79 80 0
-9 36 90 0
29 -82 85 0
-2 67 -75 0
35 -73 -82 0
-52 81 -84 0
80 85 114 0
59 -71 -118 0
49 101 104 0
11 96 -104 0
8 -67 96 0
4 28 120 0
75 -90 118 0
6 -13 51 0
-4 -28 55 0
39 89 -116 0
68 77 114 0
5 67 71 0
-20 -35 118 0
-3 -108 120 0
-46 50 -64 0
20 -57 64 0
25 98 -103 0
15 90 -110 0
-21 71 96 0
15 -63 -73 0
-45 99 113 0
8 -44 -114 0
8 -55 -109 0
-2 32 -83 0
-16 -21 71 0
66 98 -120 0
-6 -100 120 0
14 -15 86 0
7 31 -50 0
-53 68 117 0
23 42 108 0
20 64 118 0
60 106 -109 0
78 -100 -114 0
-10 -34 -94 0
-29 -34 -68 0
18 111 114 0
3 11 99 0
-28 46 100 0
-15 64 93 0
20 37 -119 0
25 68 82 0
15 38 102 0
-2 -24 88 0
41 74 87 0
67 83 103 0
1 -6 48 0
37 55 -78 0
4 -78 -81 0
65 66 -117 0
-19 59 71 0
-8 -35 -97 0
-19 106 -107 0
-16 -26 47 0
-4 -56 84 0
77 -78 -89 0
-61 91 -115 0
-54 96 -105 0
-37 -84 -111 0
-13 -103 115 0
-4 30 -108 0
25 74 -109 0
25 -87 113 0
-21 -56 -68 0
21 33 71 0
8 -39 58 0
24 -38 -70 0
-77 -83 107 0
11 51 85 0
39 -69 -97 0
41 61 -75 0
-2 10 -79 0
-31 47 -49 0
58 -67 -91 0
-5 19 82 0
-72 -73 -103 0
30 -70 -97 0
-71 -73 104 0
70 -88 111 0
-54 -81 -100 0
16 -44 54 0
-8 -110 112 0
70 90 102 0
48 50 -103 0
-6 -61 63 0
-14 -31 107 0
-42 54 -112 0
5 12 83 0
12 -15 -111 0
10 -55 -107 0
-32 -61 92 0
16 37 -68 0
-33 -68 115 0
-45 94 -114 0
-23 -61 67 0
-17 -82 89 0
-2 16 -72 0
-48 -70 119 0
-22 34 -57 0
10 -54 -74 0
21 72 -95 0
3 -86 -114 0
26 37 -41 0
13 -99 109 0
2 70 87 0
23 115 -116 0
-6 -92 102 0
29 -38 -116 0
26 -53 -111 0
48 -62 67 0
-5 39 -89 0
13 -49 99 0
13 66 -89 0
-45 -64 -85 0
17 -39 52 0
-36 -76 107 0
7 -9 -26 0
27 58 97 0
79 -93 105 0
-12 -46 -87 0
-15 -42 -106 0
-20 -93 -105 0
-40 48 83 0
12 77 -105 0
19 41 -83 0
2 -106 111 0
9 58 105 0
-49 83 97 0
2 7 117 0
36 -41 110 0
-1 37 110 0
10 107 -110 0
-20 -34 38 0
19 69 73 0
-2 -67 -112 0
-15 56 93 0
36 -52 -77 0
-73 -82 -93 0
76 105 -116 0
6 58 -81 0
-26 -42 -99 0
19 -96 -103 0
-16 36 116 0
-34 49 105 0
2 27 -36 0
30 -55 119 0
69 -77 -78 0
-94 -116 -120 0
-49 53 78 0
-11 -57 104 0
-11 28 99 0
-3 -35 -86 0
16 -17 -45 0
-14 -36 -50 0
-41 -84 98 0
-12 -79 86 0
30 35 -44 0
-7 -58 -63 0
62 72 102 0
54 -65 73 0
-2 -58 -88 0
-13 28 50 0
-30 75 119 0
30 -40 -55 0
-31 -38 50 0
-4 -43 44 0
58 89 -101 0
-14 -76 -109 0
70 84 86 0
-41 -79 108 0
-41 96 -99 0
55 101 110 0
-5 37 43 0
-18 -23 119 0
41 84 -93 0
38 81 93 0
-5 -50 67 0
50 72 110 0
-16 -42 44 0
-16 -84 -91 0
-37 44 -46 0
1 -85 111 0
-2 -36 116 0
29 34 91 0
-53 87 -94 0
-37 57 120 0
-15 -86 -103 0
-22 50 100 0
42 -47 -93 0
-48 70 85 0
60 115 117 0
21 32 -77 0
-93 -105 107 0
19 -111 112 0
-33 -91 -120 0
-6 11 71 0
-56 58 -89 0
4 -98 -114 0
19 -65 -74 0
59 -99 117 0
-23 103 -105 0
-49 72 -92 0
-30 40 69 0
7 -76 -119 0
-7 -16 -55 0
-1 -29 35 0
25 100 101 0
-9 -20 -44 0
25 28 -34 0
3 -76 96 0
45 69 -88 0
48 73 114 0
9 -60 80 0
-33 45 104 0
29 -34 -119 0
76 89 -94 0
-41 59 69 0
-2 -45 96 0
30 66 108 0
17 -99 -120 0
-16 -22 68 0
-22 -29 -104 0
6 -67 -109 0
-8 -29 -120 0
-30 -71 -93 0
-36 -83 101 0
46 -100 -114 0
-8 95 117 0
7 -48 -58 0
14 70 -120 0
-11 21 117 0
-16 72 -118 0
-91 -96 101 0
30 -45 -86 0
28 68 -107 0
52 60 74 0
-22 -40 -98 0
11 26 102 0
29 -54 79 0
-51 -92 93 0
29 36 63 0
3 20 -86 0
-74 -82 106 0
-2 -89 91 0
38 -43 110 0
5 21 -95 0
98 103 -108 0
-23 -76 96 0
-25 -76 99 0
-16 -53 67 0
14 29 36 0
-4 42 81 0
-27 -78 -92 0
-54 66 -84 0
-6 24 61 0
36 -59 -117 0
2 60 -61 0
-14 82 -86 0
51 -103 106 0
-58 -81 -118 0
9 -45 51 0
-5 -51 112 0
64 75 83 0
24 34 -48 0
33 39 51 0
3 17 63 0
55 -77 -96 0
19 -25 120 0
18 80 96 0
-41 56 89 0
18 93 -117 0
-17 -62 -97 0
-1 -44 92 0
-71 -87 -112 0
-25 -90 -119 0
-81 89 119 0
-34 -60 -87 0
-6 77 -96 0
-25 -90 119 0
21 27 -102 0
65 75 -113 0
32 -52 101 0
-16 30 -51 0
69 80 -115 0
5 -13 106 0
17 37 -58 0
-53 -88 -118 0
46 85 101 0
88 97 -106 0
5 86 -100 0
-59 -83 -91 0
-70 86 -98 0
-13 -51 -71 0
-1 85 120 0
43 79 -84 0
-50 62 83 0
-30 -48 -86 0
-37 62 92 0
19 -49 84 0
35 65 98 0
-6 -81 99 0
62 64 106 0
1 18 -116 0
9 -99 -100 0
-2 -27 -78 0
30 81 99 0
9 -44 -58 0
49 81 110 0
-14 62 -95 0
-41 52 92 0
-76 102 -108 0
54 71 92 0
9 73 -116 0
-6 -54 -90 0
-43 -52 -117 0
-40 65 -76 0
44 -46 92 0
-2 -54 117 0
-7 17 -96 0
76 97 103 0
37 -85 101 0
-48 71 118 0
-37 94 -102 0
3 -69 87 0
-38 82 -115 0
38 -49 100 0
12 43 59 0
45 46 -84 0
-27 48 93 0
-16 27 -30 0
19 25 110 0
43 -69 -119 0
63 -117 118 0
55 67 75 0
-12 -46 88 0
-22 95 -119 0
-10 32 64 0
-19 45 93 0
20 100 114 0
6 17 52 0
37 -65 88 0
-24 -80 -97 0
11 -87 -88 0
38 -89 -108 0
-7 79 111 0
