c Phase 3 random 3-SAT negative control
c seed=71038
c ratio=4.26
c variant=uniform
c expected=TO_VALIDATE
p cnf 300 1278
-51 -104 287 0
17 -146 159 0
-39 136 -247 0
153 179 -247 0
151 152 200 0
21 -214 -258 0
13 27 147 0
134 172 -194 0
-29 -262 -283 0
-47 98 135 0
58 -147 -226 0
72 197 207 0
38 -150 297 0
79 253 -286 0
-169 -173 250 0
62 142 -156 0
-49 176 -270 0
176 208 -228 0
32 -84 220 0
35 -100 -118 0
76 -261 287 0
-120 183 204 0
-164 258 278 0
17 -198 250 0
-64 -166 291 0
-59 -89 235 0
-57 200 213 0
76 206 -284 0
168 183 253 0
97 -196 222 0
-31 54 -297 0
3 125 -226 0
58 171 300 0
88 121 294 0
-123 181 -218 0
27 181 -239 0
7 91 143 0
-73 97 -199 0
193 -271 278 0
55 -127 -288 0
-198 209 284 0
80 249 -291 0
32 -53 282 0
55 -170 -206 0
-9 -73 263 0
-59 68 221 0
63 235 264 0
-2 -64 -274 0
-33 161 -195 0
99 -209 -237 0
-238 -253 285 0
-123 255 -266 0
77 -101 -282 0
84 -147 259 0
23 -71 121 0
103 -183 193 0
49 -146 235 0
-113 228 -285 0
99 145 300 0
8 -123 295 0
10 -86 -108 0
119 -175 -203 0
-108 -164 -291 0
-150 178 228 0
-91 -184 293 0
62 -155 -170 0
-29 -90 281 0
-9 -123 -204 0
-15 -41 258 0
-29 -132 205 0
15 105 128 0
-62 79 -160 0
-8 52 -231 0
-93 112 196 0
62 92 235 0
7 -94 -157 0
31 239 -277 0
140 163 -236 0
-117 -128 -233 0
-169 199 -292 0
175 211 298 0
-123 135 198 0
48 196 -279 0
33 81 133 0
-128 216 -232 0
16 127 -170 0
-84 -114 -216 0
115 -228 -240 0
-26 98 -106 0
-139 -173 234 0
-89 -188 277 0
141 265 290 0
2 122 131 0
-124 -156 275 0
-61 -110 -233 0
-40 224 266 0
45 -135 -300 0
-37 60 117 0
52 155 -261 0
-111 135 -210 0
-5 -113 169 0
-100 -117 273 0
37 -221 -293 0
91 -132 -292 0
34 -90 -231 0
80 81 -205 0
200 -203 -232 0
-132 189 -219 0
63 -153 294 0
-184 -276 -292 0
71 -119 -178 0
37 82 215 0
66 -82 207 0
-71 248 273 0
-6 138 258 0
-29 44 -169 0
92 219 -224 0
34 116 -202 0
174 -175 -179 0
52 54 258 0
-91 179 -290 0
87 129 -162 0
-17 -135 -180 0
77 142 -247 0
9 -178 -274 0
-4 -112 269 0
-130 -145 -271 0
-85 -118 285 0
-153 187 284 0
105 -168 -283 0
-49 -197 211 0
160 -215 -242 0
135 234 266 0
17 -194 -199 0
-44 -147 178 0
-59 -188 -226 0
10 132 241 0
157 -232 236 0
66 -81 211 0
-45 -263 -277 0
19 -28 190 0
12 -89 181 0
-18 -25 165 0
46 -113 288 0
-46 -239 273 0
71 -100 108 0
170 200 -285 0
88 164 -253 0
132 -148 -173 0
-53 154 -254 0
-56 216 289 0
47 -211 289 0
-193 194 -197 0
-45 194 273 0
139 -174 -199 0
-144 149 -209 0
68 -113 -154 0
-87 -175 -259 0
-36 72 275 0
69 107 -129 0
73 92 -240 0
-148 -156 183 0
-25 26 199 0
41 -161 216 0
-191 208 -210 0
193 -231 293 0
-31 55 159 0
40 49 -254 0
62 -132 228 0
-63 -199 253 0
75 -145 254 0
-21 -60 78 0
58 188 -269 0
-29 -60 297 0
-26 118 180 0
-133 -136 -142 0
55 225 -269 0
55 117 241 0
-195 -240 272 0
135 -171 -269 0
-12 89 -136 0
144 -186 -225 0
-128 -156 199 0
41 219 -267 0
-40 -130 -236 0
27 -101 -256 0
7 9 123 0
-71 169 174 0
-51 83 -102 0
-89 -169 -188 0
-63 76 -148 0
-28 -109 125 0
109 257 296 0
-29 81 200 0
-4 111 -218 0
58 -80 -294 0
83 -254 -263 0
-66 -89 218 0
25 283 -294 0
179 -222 238 0
184 -186 -259 0
161 205 -255 0
25 102 256 0
-147 -174 -279 0
-142 -182 286 0
75 150 224 0
99 118 144 0
2 -26 -38 0
-52 -60 -114 0
24 -166 202 0
73 76 292 0
-43 -102 234 0
82 -210 262 0
-38 -205 -269 0
-51 88 116 0
130 -252 282 0
1 55 -158 0
-153 -166 229 0
-122 267 285 0
151 152 242 0
75 116 147 0
-35 -183 221 0
-9 -147 269 0
-165 172 -237 0
107 -195 -217 0
11 -145 -203 0
122 -144 194 0
39 66 -110 0
24 -144 266 0
-76 79 84 0
-52 -114 201 0
16 -46 300 0
100 -110 -124 0
-58 -83 294 0
176 270 297 0
-47 95 171 0
7 -95 -210 0
91 -143 -234 0
-97 -147 191 0
-65 -124 -281 0
-161 174 248 0
7 98 -165 0
20 -53 97 0
70 235 -274 0
-87 -183 -261 0
21 55 -192 0
-62 -264 -267 0
51 145 292 0
-21 -45 104 0
170 -260 -291 0
207 269 -286 0
-7 -198 -279 0
60 -84 -178 0
-12 17 170 0
36 -58 115 0
79 -82 116 0
-48 -105 -298 0
-37 132 261 0
-45 183 -212 0
130 132 223 0
153 -226 244 0
-58 -136 233 0
-29 -252 -286 0
-5 -82 -164 0
9 -84 242 0
3 -55 -143 0
66 157 -269 0
55 -167 -199 0
9 -78 -173 0
128 -233 -270 0
62 -209 -216 0
7 52 248 0
-11 192 218 0
203 -247 276 0
-103 -150 -270 0
23 72 -270 0
28 -53 257 0
79 177 -211 0
-116 -132 174 0
-2 -277 288 0
177 187 293 0
-42 176 179 0
-78 -103 -196 0
-103 -125 184 0
111 -223 229 0
-245 248 262 0
9 -139 190 0
47 150 -259 0
113 -163 275 0
48 -63 168 0
-59 -185 -196 0
-16 210 236 0
-27 -37 299 0
-34 -138 -210 0
-153 156 -245 0
-23 140 -247 0
-14 -194 292 0
10 -79 -127 0
-225 -226 -227 0
-74 -237 259 0
169 -198 -220 0
-26 67 149 0
98 130 -256 0
33 -133 -226 0
95 -190 215 0
256 276 -295 0
-84 106 110 0
-13 209 -242 0
-130 -171 -181 0
180 -206 252 0
174 -269 -285 0
54 -73 211 0
112 175 205 0
45 199 205 0
-30 119 233 0
-90 110 -189 0
1 103 293 0
88 -203 -294 0
-178 266 -270 0
186 220 -247 0
155 -227 -229 0
-131 -297 -298 0
235 250 258 0
43 146 297 0
119 172 -216 0
22 -151 185 0
-165 202 -284 0
-7 170 -258 0
138 -160 -224 0
-104 -191 -208 0
-77 -87 141 0
-29 160 -231 0
20 158 -289 0
-55 146 238 0
25 -70 292 0
24 245 269 0
-45 62 -104 0
-76 153 206 0
-18 -201 -212 0
72 -223 257 0
-63 259 284 0
212 -227 245 0
-26 -94 -134 0
-98 182 249 0
62 165 -205 0
2 190 -256 0
-21 -49 196 0
79 90 215 0
-2 -39 144 0
-82 -221 -282 0
-109 -190 288 0
-54 203 221 0
64 116 -190 0
2 230 261 0
19 22 251 0
49 -155 -277 0
29 83 -227 0
-8 -47 186 0
-82 170 -228 0
117 137 -255 0
148 168 -284 0
35 122 -190 0
-231 280 -288 0
-76 142 143 0
62 112 131 0
113 -250 299 0
-136 -201 203 0
-34 224 255 0
-90 -221 292 0
40 152 -244 0
150 152 -276 0
12 -143 -217 0
-151 -179 295 0
8 -175 -282 0
-39 -137 236 0
-32 199 223 0
-85 -119 -177 0
115 -184 219 0
112 -194 295 0
22 -39 -63 0
47 93 -231 0
-74 101 221 0
-59 -142 189 0
-182 196 -261 0
-218 -233 -300 0
190 206 226 0
207 210 287 0
86 -153 268 0
-104 -197 229 0
-126 231 294 0
36 -91 117 0
-115 -139 153 0
178 -232 -266 0
-37 199 285 0
43 -92 164 0
70 -252 -292 0
-17 -216 -273 0
-63 -109 -217 0
-137 -187 -287 0
-65 70 -268 0
65 227 252 0
89 174 -205 0
121 -170 -231 0
-25 -235 273 0
-84 -221 247 0
-24 82 141 0
-29 -136 165 0
-44 -164 211 0
205 -221 -258 0
31 38 84 0
-83 -151 219 0
-12 84 -277 0
-208 212 219 0
-157 -221 230 0
152 -211 266 0
-119 214 -240 0
-126 -180 -231 0
5 -120 -177 0
-57 205 252 0
-184 190 300 0
140 -165 -289 0
60 -82 232 0
-90 167 225 0
-133 143 216 0
110 159 295 0
100 241 281 0
-135 -139 -145 0
-82 -117 -279 0
134 -156 -286 0
181 214 229 0
14 52 -278 0
82 186 -239 0
-45 69 -282 0
106 -211 -290 0
-141 -200 275 0
-34 228 265 0
101 -202 236 0
98 133 259 0
42 -262 -288 0
-125 -176 200 0
-78 208 -280 0
-37 -68 -200 0
-109 -121 -201 0
71 -235 299 0
-31 54 -271 0
-28 29 264 0
-46 89 -97 0
30 -158 -214 0
-26 121 172 0
-11 -157 -263 0
59 -86 97 0
-53 -116 -241 0
104 162 241 0
-19 -298 -299 0
-25 -56 205 0
-12 238 296 0
16 51 -208 0
-104 171 -207 0
3 -90 201 0
4 -20 -169 0
57 -96 124 0
159 256 279 0
-104 128 172 0
-48 -243 252 0
60 283 -287 0
-157 -186 292 0
152 222 300 0
54 -113 218 0
75 -85 -113 0
91 94 -229 0
-9 -12 160 0
129 -167 266 0
89 -285 289 0
89 -164 185 0
-50 -270 -287 0
-87 -262 -280 0
-2 -80 254 0
-118 -173 -295 0
-117 173 231 0
124 -196 -255 0
37 128 186 0
-87 90 281 0
98 -100 272 0
-75 170 -200 0
-167 -255 -296 0
93 -249 -277 0
2 -149 -297 0
-48 -159 219 0
-151 -153 -245 0
62 -203 -224 0
33 68 -245 0
-176 -207 264 0
-88 -118 -219 0
119 153 -204 0
-15 -70 121 0
11 149 -161 0
-133 -151 266 0
158 200 -226 0
127 139 248 0
43 97 -210 0
-129 130 -199 0
7 -222 -223 0
-82 115 207 0
56 57 -183 0
-47 86 205 0
-78 -162 270 0
-207 -270 284 0
71 -157 -217 0
60 84 210 0
173 264 285 0
-164 244 -279 0
-130 204 213 0
-44 93 -101 0
-103 154 241 0
88 -205 -209 0
151 -226 -284 0
65 139 201 0
-30 181 247 0
-25 70 -120 0
-152 170 -217 0
48 -148 -300 0
-100 -218 247 0
-1 167 -271 0
38 -107 146 0
84 207 -275 0
10 -202 -254 0
120 181 -252 0
-44 221 271 0
-2 -66 -205 0
-144 -236 272 0
141 252 254 0
-150 -223 227 0
196 -199 -271 0
-43 257 -291 0
48 -140 204 0
-79 -191 299 0
154 219 272 0
9 86 243 0
-69 103 -195 0
-7 47 -94 0
8 74 256 0
8 -136 189 0
-84 -251 252 0
116 -234 -245 0
-73 -227 236 0
74 -170 -292 0
113 151 -264 0
-54 -93 -105 0
1 -170 253 0
10 -117 152 0
95 168 -233 0
146 182 -195 0
-121 -138 -182 0
-9 195 214 0
-11 184 220 0
47 -60 -276 0
-166 224 -278 0
1 54 -158 0
27 -40 -265 0
230 -247 284 0
76 -101 -242 0
-21 -39 -281 0
8 -39 116 0
-7 -146 -169 0
10 91 109 0
83 101 213 0
157 169 260 0
132 -196 -205 0
193 -250 253 0
189 209 -278 0
-24 36 190 0
-67 124 180 0
-69 -153 270 0
-83 -106 191 0
31 39 161 0
-79 117 -276 0
-30 218 -244 0
-13 -122 -173 0
-186 220 -222 0
45 108 142 0
-75 84 210 0
-194 -224 -230 0
-13 74 -266 0
77 -278 -298 0
50 198 -289 0
-105 259 -279 0
9 -78 291 0
136 139 -157 0
-27 -98 215 0
-86 -212 267 0
83 199 -254 0
16 -118 -143 0
65 85 142 0
-6 208 256 0
-57 69 252 0
112 -162 -229 0
84 110 -261 0
32 -192 285 0
-27 -199 -209 0
17 -33 -159 0
-46 -156 -170 0
-9 -187 -199 0
-31 60 156 0
-27 119 206 0
-17 -268 294 0
-23 56 287 0
77 -112 298 0
-36 230 -246 0
38 -197 273 0
-54 190 -197 0
13 -100 -149 0
15 68 81 0
-103 -152 -260 0
99 -156 -196 0
-83 141 191 0
-44 -118 214 0
82 97 -255 0
85 226 -236 0
184 212 300 0
-52 -225 -229 0
61 128 197 0
37 -145 208 0
154 185 241 0
47 172 236 0
188 216 -263 0
57 79 -104 0
-29 76 206 0
-83 96 108 0
-102 115 161 0
69 -130 -158 0
41 214 -271 0
44 -139 175 0
23 -163 -260 0
-24 61 -139 0
-137 274 -300 0
-18 32 130 0
132 138 -242 0
147 187 205 0
-137 256 268 0
147 182 -294 0
-2 97 -188 0
-157 -255 -279 0
4 254 284 0
109 174 -260 0
-123 -139 230 0
-192 249 -285 0
-23 81 242 0
-114 -203 300 0
-10 157 204 0
242 262 263 0
-125 -250 -267 0
-44 203 219 0
4 -13 274 0
-57 231 -263 0
-84 -214 254 0
46 -247 -250 0
-34 169 -281 0
-18 92 -107 0
112 284 293 0
3 -231 -238 0
-116 117 264 0
-126 -167 180 0
-191 215 230 0
-29 120 281 0
-95 -146 -194 0
84 -138 278 0
82 170 -202 0
-214 228 286 0
134 -150 246 0
86 100 192 0
81 93 241 0
130 -154 240 0
72 132 289 0
47 -51 -297 0
82 -139 221 0
21 248 259 0
121 179 204 0
131 255 -289 0
-158 205 -262 0
-26 89 -292 0
-99 -209 -264 0
168 -216 286 0
101 148 -203 0
141 154 -156 0
35 -111 -148 0
233 -235 -246 0
39 84 -96 0
6 117 150 0
59 -220 -226 0
183 268 277 0
211 -233 251 0
78 -133 -243 0
67 -211 -270 0
50 243 -264 0
-158 172 -237 0
27 -42 232 0
-56 -119 235 0
21 82 -191 0
44 80 97 0
13 158 -249 0
-49 -75 214 0
34 68 209 0
-148 -166 -274 0
65 173 -174 0
-124 -129 -149 0
96 248 294 0
-108 -144 221 0
-16 -94 -190 0
221 240 -262 0
-78 164 229 0
14 58 -233 0
-18 -58 144 0
-69 87 -207 0
-50 -213 294 0
51 -91 114 0
-48 -193 253 0
-33 212 280 0
5 -12 300 0
128 224 273 0
-113 178 -297 0
-66 94 -227 0
-81 118 192 0
206 -208 -291 0
10 107 -296 0
115 -215 -276 0
12 84 -296 0
216 218 233 0
132 -142 -232 0
-83 -115 -209 0
-66 89 241 0
-73 75 171 0
101 129 197 0
27 130 151 0
23 -96 180 0
-31 74 -147 0
-2 -42 -173 0
22 90 -227 0
-56 92 -192 0
-73 99 -278 0
-8 -71 196 0
99 -208 -244 0
225 242 -247 0
207 -217 246 0
-8 -220 -294 0
-116 169 -285 0
42 86 127 0
131 -185 203 0
-11 -110 -287 0
-184 -224 -273 0
-3 -35 253 0
-4 27 278 0
-33 -207 235 0
-40 -68 268 0
2 -211 -225 0
81 132 -275 0
-99 110 -182 0
159 -185 269 0
-50 -96 -244 0
14 -144 -158 0
-204 243 264 0
5 234 -267 0
-19 -50 182 0
95 -223 -263 0
100 164 201 0
-53 91 169 0
-60 78 159 0
-122 -155 264 0
-104 153 -286 0
44 -208 -284 0
-16 -209 -215 0
95 -101 -225 0
75 158 193 0
-55 174 -210 0
-137 -152 -287 0
-145 -171 -271 0
-240 275 289 0
167 -176 -243 0
33 189 204 0
-5 194 -291 0
67 105 125 0
96 113 120 0
-8 -222 -278 0
-69 -141 159 0
-13 30 263 0
102 180 -222 0
-14 -130 198 0
50 54 189 0
-4 207 -214 0
38 -73 -222 0
-82 -153 189 0
40 -252 -265 0
81 -172 -255 0
-53 57 -249 0
20 112 249 0
189 -240 -297 0
-166 191 209 0
-221 -259 266 0
-24 244 -269 0
65 -195 251 0
39 236 259 0
-35 -37 199 0
145 -240 242 0
-100 -265 -278 0
-94 -124 212 0
-39 83 291 0
98 -200 -239 0
-78 -118 -264 0
-91 155 -289 0
-98 -161 -298 0
59 -103 264 0
47 -86 263 0
-10 -166 -225 0
51 -138 248 0
50 132 -183 0
59 -85 260 0
-169 -213 246 0
-48 156 292 0
-36 -43 -265 0
60 -68 171 0
146 213 298 0
-67 -183 -209 0
-19 21 -135 0
-5 -114 -207 0
-129 -216 -227 0
60 -88 172 0
19 64 291 0
-69 184 222 0
-59 69 227 0
-44 75 -169 0
87 144 298 0
-37 50 61 0
205 243 -288 0
150 281 289 0
5 -96 234 0
-42 216 267 0
57 -58 247 0
41 204 207 0
92 147 -295 0
196 -281 -285 0
-11 126 -167 0
23 -133 -170 0
26 43 67 0
-28 210 234 0
14 44 247 0
-96 -247 -279 0
-51 -157 -164 0
50 51 -135 0
106 -146 -174 0
-71 215 292 0
-36 -175 -177 0
-30 -96 -210 0
-36 77 -140 0
11 146 298 0
162 276 292 0
23 -267 -275 0
-15 89 -193 0
-137 -154 280 0
89 168 253 0
-117 203 -271 0
-162 252 -286 0
85 -109 -122 0
-200 206 292 0
-35 -78 -86 0
219 -229 279 0
-208 -214 -288 0
-65 -147 -235 0
-11 37 41 0
76 -88 -281 0
116 123 241 0
17 44 298 0
2 -8 -300 0
18 -79 122 0
120 -136 -260 0
50 160 206 0
-9 50 154 0
57 -183 216 0
86 144 -158 0
43 111 187 0
-181 241 -298 0
-120 236 -281 0
85 223 245 0
-118 225 -244 0
-93 258 -284 0
146 -163 252 0
155 260 -272 0
-20 -77 287 0
106 -231 -293 0
-66 -120 -173 0
48 154 268 0
-83 198 -266 0
-108 -202 210 0
-56 -266 -279 0
-103 189 -281 0
-46 210 -263 0
128 -176 207 0
-129 171 -267 0
125 -153 216 0
-12 21 108 0
-24 -31 -208 0
161 -184 230 0
72 185 215 0
-27 -213 266 0
170 210 260 0
99 -112 -196 0
52 101 -203 0
-9 185 -276 0
42 -164 -184 0
168 -271 296 0
-111 232 -256 0
27 114 -267 0
-15 -238 283 0
-97 163 -264 0
-45 237 -252 0
60 -106 -129 0
-162 -224 279 0
-262 269 -284 0
-47 -74 -284 0
-61 81 -114 0
-35 78 -184 0
48 -270 272 0
-27 -31 -175 0
57 -96 287 0
-29 136 -249 0
76 -117 -160 0
-26 -161 -251 0
123 -219 -257 0
88 102 -193 0
10 -269 -287 0
-61 105 -184 0
70 -90 248 0
29 99 245 0
-11 116 -241 0
7 -25 46 0
81 96 186 0
111 -140 -153 0
-48 -116 -283 0
91 120 -196 0
199 -226 290 0
-21 175 -184 0
-65 -77 -283 0
-22 192 -297 0
88 -236 259 0
82 -104 191 0
-1 49 187 0
10 201 300 0
63 -161 184 0
103 -121 -200 0
-73 113 -268 0
-95 -288 300 0
-23 49 189 0
23 -207 214 0
43 222 -296 0
-117 -167 295 0
-24 -208 -218 0
-11 14 -284 0
-81 191 -225 0
113 -191 265 0
-121 -182 189 0
133 144 -207 0
-124 264 -294 0
96 -112 220 0
87 -255 -266 0
-117 -244 281 0
82 -128 152 0
-141 -195 262 0
-18 -124 190 0
-46 -133 -292 0
-19 -87 269 0
54 -225 -229 0
24 -133 -153 0
-57 115 175 0
82 -182 -246 0
17 125 177 0
-61 105 173 0
82 91 285 0
-113 157 244 0
-137 141 210 0
-12 -160 216 0
47 98 -205 0
102 -132 178 0
-117 120 278 0
1 -13 242 0
33 -105 273 0
189 267 287 0
14 -107 -204 0
9 -12 289 0
116 -180 -267 0
3 128 197 0
-10 154 -215 0
-31 133 140 0
76 -109 209 0
145 165 -223 0
-1 -56 187 0
-104 -249 273 0
73 -105 254 0
157 -273 -284 0
85 213 236 0
-24 -112 236 0
155 196 288 0
58 188 -275 0
217 -255 295 0
-151 -199 277 0
-111 -139 213 0
53 152 222 0
-32 -46 51 0
45 -111 158 0
-14 -60 97 0
-89 223 -278 0
100 169 296 0
-143 144 290 0
22 -65 -156 0
23 98 115 0
-47 -163 179 0
-43 113 169 0
-85 104 -272 0
64 130 -213 0
-124 174 186 0
71 181 -245 0
59 267 291 0
4 -113 212 0
53 147 291 0
138 -182 204 0
83 231 282 0
5 47 -158 0
-31 -187 -243 0
52 -177 -186 0
29 74 184 0
49 -228 295 0
130 189 -240 0
-4 81 -267 0
87 157 -249 0
-7 -55 251 0
15 -53 -288 0
4 122 -226 0
3 45 229 0
-195 212 -219 0
14 37 213 0
72 239 257 0
20 -34 253 0
-184 234 277 0
106 -176 248 0
13 42 -241 0
-53 73 -136 0
92 134 147 0
-71 108 229 0
23 -99 163 0
69 -133 -282 0
31 -96 -219 0
37 54 -120 0
-21 238 300 0
19 -201 232 0
62 -90 279 0
156 216 -232 0
57 -179 225 0
94 150 289 0
61 -64 97 0
-24 -224 -297 0
-90 251 -299 0
118 267 -293 0
-51 -234 -239 0
70 -116 123 0
89 128 220 0
145 -240 269 0
-163 -232 -289 0
-44 -58 -133 0
22 -60 -114 0
-39 -123 -209 0
-33 152 -162 0
110 -188 287 0
77 142 284 0
-25 -186 238 0
-88 264 282 0
34 47 183 0
-42 -126 173 0
50 242 248 0
75 181 268 0
-30 92 -190 0
-10 151 234 0
-98 177 286 0
48 -108 143 0
-33 -96 171 0
-144 146 -177 0
-31 135 290 0
229 -256 268 0
85 234 300 0
59 70 -295 0
97 144 -172 0
-24 237 -271 0
19 -117 169 0
21 -85 88 0
-39 88 113 0
101 256 283 0
27 132 -272 0
41 50 -233 0
55 62 -109 0
151 226 298 0
-69 172 -211 0
54 151 195 0
-208 -258 275 0
1 70 142 0
-65 -129 -223 0
-103 208 261 0
-50 88 -202 0
-8 25 -284 0
-30 158 242 0
139 153 238 0
-130 180 291 0
-67 228 280 0
-77 -107 -177 0
-68 -81 -156 0
-22 -110 190 0
14 137 -276 0
-98 -139 -208 0
102 270 295 0
24 80 -133 0
121 163 -298 0
14 -62 157 0
-17 44 245 0
-76 -107 165 0
-2 -173 -229 0
140 172 -277 0
86 -219 295 0
-99 -140 263 0
179 -189 252 0
29 -162 213 0
-48 -66 -183 0
33 -105 197 0
-78 -170 -238 0
67 -79 183 0
-101 -110 131 0
-6 88 -276 0
-85 -131 253 0
23 34 152 0
102 147 260 0
-55 -105 -255 0
-186 222 -297 0
-17 226 -271 0
-151 -234 -254 0
-21 60 -145 0
-223 -284 -297 0
39 -69 160 0
93 -204 216 0
-32 -72 -78 0
-195 -231 238 0
-142 241 -252 0
43 -112 118 0
-168 -189 -241 0
174 243 -253 0
-2 124 -230 0
-51 97 -279 0
-95 260 297 0
45 -117 149 0
92 130 -268 0
-42 56 -287 0
-106 107 -218 0
67 -131 -182 0
-50 -58 197 0
46 257 -272 0
-163 201 227 0
28 90 252 0
-6 -100 137 0
51 271 290 0
-14 -69 296 0
-15 111 -178 0
-197 198 274 0
61 -86 -227 0
-110 182 -193 0
-39 94 224 0
-31 214 271 0
88 -103 -190 0
122 126 168 0
-70 177 261 0
-57 -215 -267 0
-6 -153 253 0
-61 -174 191 0
-24 246 267 0
-241 242 246 0
176 182 218 0
-24 -91 286 0
40 166 -179 0
25 -197 -257 0
15 -27 33 0
69 -86 -237 0
64 -123 -229 0
-109 -195 210 0
8 101 261 0
33 -95 -130 0
35 -57 -204 0
-39 -143 -288 0
-24 47 -86 0
-8 -177 227 0
-272 -293 -299 0
-70 106 241 0
41 129 159 0
83 132 -292 0
20 -158 -243 0
-65 -188 286 0
81 -203 215 0
17 -110 254 0
-26 -67 190 0
-24 58 299 0
62 151 -236 0
-106 -108 242 0
-6 220 -297 0
166 197 214 0
3 -105 195 0
-34 -67 223 0
117 -197 -282 0
-48 213 -270 0
59 -190 -219 0
103 172 -216 0
102 -223 261 0
-167 -176 -228 0
-7 99 158 0
-5 -148 -200 0
-77 -95 -247 0
-66 150 253 0
-69 -218 -255 0
-70 173 203 0
-67 87 -190 0
-118 145 -246 0
76 -132 294 0
142 -173 280 0
124 -194 -234 0
-58 149 -209 0
-7 15 -31 0
126 204 -252 0
-39 -122 250 0
6 -169 -186 0
65 122 -295 0
198 232 264 0
65 -169 -300 0
-182 210 -227 0
104 -296 -297 0
2 -50 130 0
39 53 118 0
54 -104 -231 0
110 237 257 0
55 129 179 0
34 -225 -253 0
-79 -152 293 0
9 -150 -174 0
-43 95 292 0
57 -85 223 0
140 179 -253 0
-73 -89 -131 0
-70 -75 -247 0
-69 -76 176 0
-122 -197 249 0
-10 220 288 0
74 181 197 0
5 128 -213 0
-101 -122 196 0
-135 171 -239 0
-13 -217 264 0
76 124 -196 0
-47 -98 282 0
-46 -146 267 0
-10 -35 180 0
-76 107 166 0
20 -132 225 0
-106 -112 -184 0
6 -59 280 0
-91 162 -172 0
-87 -158 -280 0
-35 142 277 0
99 239 258 0
-60 191 -195 0
-10 146 244 0
4 -16 243 0
-93 -121 272 0
4 23 204 0
243 259 -271 0
-67 -203 221 0
8 142 -146 0
-55 -182 -193 0
36 59 91 0
75 -143 231 0
