c Phase 3 random 3-SAT negative control
c seed=71039
c ratio=4.26
c variant=uniform
c expected=TO_VALIDATE
p cnf 600 2556
-166 -170 244 0
233 -256 433 0
-159 -174 259 0
286 -289 -450 0
-389 486 -599 0
108 366 -441 0
117 -322 -470 0
-333 365 481 0
479 -487 -517 0
-54 69 -436 0
-80 -209 272 0
82 -110 -421 0
-213 355 -487 0
-91 -456 -533 0
136 -417 -596 0
-11 21 -201 0
9 -332 442 0
-239 -298 -541 0
-181 -214 442 0
-133 228 -446 0
-97 -264 -385 0
415 -446 448 0
110 226 -266 0
16 286 -597 0
54 119 258 0
21 416 -489 0
32 -248 -552 0
-120 -497 -541 0
196 -432 504 0
299 433 487 0
-189 -340 367 0
-226 238 -395 0
328 334 482 0
80 495 -577 0
205 -379 590 0
1 -373 -453 0
-156 399 435 0
85 -330 -454 0
16 429 473 0
-232 -479 567 0
90 -333 -397 0
222 358 502 0
277 -359 425 0
95 526 -573 0
129 521 584 0
195 231 -350 0
-69 175 -448 0
-52 186 -592 0
-63 494 567 0
-39 389 591 0
84 -148 -304 0
-184 -471 472 0
-444 533 546 0
-137 -504 -576 0
161 -198 496 0
-114 362 512 0
228 -326 507 0
127 129 -407 0
-322 476 477 0
270 -412 -593 0
88 100 -487 0
15 -338 -543 0
46 -59 118 0
304 -437 -520 0
-262 309 -353 0
-44 -254 -474 0
-125 -251 372 0
-248 -284 -567 0
251 445 573 0
-218 381 -488 0
104 -220 -222 0
-21 355 -544 0
-116 194 296 0
153 284 515 0
-230 -392 572 0
43 515 -576 0
-31 437 489 0
-91 372 -468 0
-167 -325 468 0
-13 -444 454 0
-149 352 549 0
-121 -306 -529 0
37 145 549 0
-127 353 -359 0
563 -567 597 0
312 -475 -559 0
9 -320 326 0
-116 195 -436 0
168 462 -563 0
88 326 -541 0
134 -238 565 0
-182 -228 -317 0
125 -387 416 0
-410 473 484 0
-561 -570 595 0
-126 348 587 0
1 -32 -186 0
254 -304 454 0
-8 -286 574 0
-6 209 335 0
186 297 490 0
-92 -212 476 0
-62 -186 -306 0
55 70 73 0
-214 -301 -570 0
-68 -76 498 0
76 465 -551 0
146 350 470 0
434 513 518 0
370 -449 -521 0
125 -202 -304 0
-53 206 435 0
-98 335 560 0
88 457 514 0
89 -202 422 0
252 -529 -555 0
-198 -346 -422 0
-131 -329 -574 0
31 -106 -494 0
-415 529 589 0
25 -244 -415 0
251 405 -547 0
-241 -419 -437 0
354 -581 600 0
-112 -262 -579 0
-122 -446 495 0
-11 43 -78 0
-177 262 516 0
117 -171 -462 0
-153 -266 -294 0
265 339 424 0
90 202 -567 0
205 455 -467 0
319 -368 430 0
-101 -174 -324 0
137 361 -442 0
-47 -248 501 0
-72 77 -356 0
-199 544 -559 0
-41 53 -585 0
129 177 279 0
336 490 -587 0
100 376 -427 0
-185 259 -565 0
157 229 549 0
61 233 -325 0
-310 343 596 0
-128 131 213 0
-103 -448 -539 0
-402 433 -578 0
-104 -304 -578 0
-158 217 591 0
-368 432 559 0
97 -195 325 0
-52 -215 -337 0
206 -563 598 0
-64 -255 -477 0
-29 169 187 0
-87 105 111 0
-394 418 -441 0
260 303 546 0
3 -429 434 0
84 -311 587 0
314 -435 -533 0
-133 -437 -560 0
-45 103 351 0
184 377 472 0
64 406 488 0
57 72 176 0
119 -228 272 0
-212 304 554 0
-369 -536 -580 0
379 436 582 0
269 -468 491 0
122 477 -531 0
166 -363 -450 0
-385 401 -538 0
70 -136 243 0
-241 266 571 0
51 -74 -293 0
46 377 -576 0
-371 -483 573 0
6 292 -536 0
-92 103 108 0
-7 -107 138 0
-324 418 -433 0
-318 546 -585 0
-20 77 -314 0
151 255 444 0
235 273 435 0
80 271 507 0
-312 519 -545 0
-182 -408 -412 0
77 338 -342 0
73 -343 -433 0
195 -417 -549 0
-50 -366 531 0
228 -234 588 0
-71 165 196 0
-68 -98 353 0
-118 -265 -421 0
-292 -314 554 0
-126 145 253 0
293 305 -395 0
102 -105 226 0
74 -412 -489 0
-125 -328 -470 0
-14 85 241 0
-14 271 -368 0
-29 -149 -366 0
-145 173 368 0
-36 -196 330 0
-154 307 371 0
10 12 -382 0
71 189 581 0
-30 -288 -461 0
159 -167 -579 0
-80 307 -429 0
-126 -280 -436 0
-287 452 516 0
-82 -303 -548 0
-181 -314 -385 0
219 -439 -549 0
296 348 415 0
32 -125 -256 0
267 -389 493 0
-402 569 -577 0
96 -148 391 0
179 242 274 0
352 -540 -573 0
-206 508 -595 0
248 399 -420 0
-41 -99 104 0
-337 442 522 0
177 -257 -261 0
48 -137 -457 0
-218 -358 394 0
-81 362 552 0
29 242 563 0
-131 230 -364 0
-52 -275 448 0
70 -109 531 0
329 -448 511 0
215 -545 -598 0
122 245 574 0
26 -68 -517 0
-388 410 498 0
51 247 436 0
269 -443 -551 0
134 -177 -531 0
-222 -408 560 0
-134 360 -479 0
-71 -91 126 0
-192 -237 299 0
11 116 -281 0
-173 252 -381 0
-128 320 -406 0
-44 263 598 0
147 -401 -412 0
120 419 560 0
231 508 532 0
-27 178 -282 0
174 409 467 0
119 -144 -568 0
447 -450 516 0
-51 -213 502 0
253 271 -534 0
-182 463 539 0
88 -283 -375 0
-240 389 -517 0
23 -115 170 0
-186 265 -403 0
66 -122 139 0
97 -382 -393 0
375 425 -513 0
86 -520 583 0
-179 -243 -344 0
107 498 548 0
-158 349 -539 0
-105 -127 588 0
297 -483 565 0
-131 410 -499 0
14 -263 303 0
59 92 -342 0
-89 -318 -556 0
189 367 -467 0
-116 200 289 0
-218 277 -498 0
72 196 408 0
18 50 468 0
-13 135 199 0
-102 -360 -415 0
300 314 -436 0
158 -565 579 0
127 -243 -385 0
47 -353 534 0
194 258 412 0
12 59 -271 0
233 -485 -583 0
336 -375 -508 0
244 -380 461 0
113 -166 173 0
-157 541 559 0
9 -395 -521 0
-113 -250 522 0
-64 -433 541 0
-283 470 -494 0
-70 -93 404 0
-447 494 508 0
-149 -363 589 0
-37 50 -398 0
-5 457 544 0
444 -485 525 0
-81 180 -190 0
86 -89 -301 0
281 442 596 0
89 -458 545 0
480 -590 -595 0
-207 288 -367 0
237 -453 -469 0
202 -242 288 0
115 171 -487 0
-69 121 484 0
-224 281 -488 0
13 -373 419 0
60 -70 322 0
277 -491 -567 0
-72 309 379 0
3 357 457 0
-376 -540 573 0
9 -123 -568 0
-26 -457 -481 0
-170 -368 421 0
39 154 -193 0
263 -344 409 0
-219 300 -592 0
104 -437 569 0
20 502 -530 0
94 478 521 0
192 270 -519 0
149 -365 403 0
70 -317 -537 0
-35 -319 342 0
264 325 351 0
518 -542 -551 0
59 -189 364 0
165 -386 -568 0
171 230 -454 0
236 -376 539 0
3 -72 -255 0
85 206 -260 0
32 350 534 0
37 93 597 0
124 -499 555 0
474 -486 521 0
9 -207 294 0
152 -518 582 0
15 161 -421 0
103 318 -350 0
-189 -230 459 0
-180 -565 -574 0
380 -428 527 0
226 269 -483 0
-118 -128 -326 0
-241 -348 552 0
57 -419 -509 0
10 -99 393 0
111 -240 434 0
25 156 336 0
-249 -526 575 0
-46 -247 299 0
234 -325 416 0
-326 -328 331 0
-13 383 -514 0
348 -463 510 0
289 502 505 0
-146 -201 509 0
-347 -486 -502 0
312 405 -536 0
223 365 -535 0
250 364 446 0
-179 -206 -244 0
395 -424 486 0
-253 511 -541 0
209 384 -436 0
414 451 -566 0
345 426 -536 0
-175 246 369 0
113 -398 599 0
-321 455 -586 0
-305 -324 -579 0
2 -155 376 0
428 -464 -516 0
-25 222 -229 0
-301 475 551 0
281 -292 -520 0
-24 -377 -575 0
-126 186 -360 0
-251 469 511 0
-57 -127 -207 0
286 -405 -476 0
25 -148 -554 0
-77 -125 -396 0
59 397 -537 0
-73 -263 -575 0
-39 -98 -478 0
-385 405 -576 0
-365 554 572 0
-225 283 -559 0
270 -548 574 0
35 -75 486 0
84 334 470 0
-107 187 489 0
-228 479 -540 0
406 -453 -560 0
-146 207 -244 0
-60 -439 -494 0
41 -344 468 0
29 -148 498 0
-30 -114 -192 0
251 -542 543 0
-123 312 -501 0
133 377 475 0
178 -309 507 0
52 -192 -468 0
98 -313 353 0
-425 -548 574 0
-66 -117 -497 0
163 -293 -312 0
-74 -199 -525 0
84 -505 -585 0
29 295 342 0
158 194 309 0
-153 435 -458 0
38 83 311 0
64 106 520 0
-103 115 -280 0
-45 -59 -281 0
-324 528 -545 0
75 -222 363 0
-399 507 525 0
166 -320 396 0
148 -280 521 0
440 -483 -563 0
55 -248 290 0
125 229 421 0
-158 364 -584 0
-350 -464 -474 0
48 -232 -280 0
154 336 451 0
-7 -442 509 0
283 497 -570 0
328 442 450 0
-283 -488 -597 0
161 -278 445 0
62 79 110 0
353 405 586 0
182 261 -472 0
-104 -186 -491 0
-32 60 116 0
29 363 -551 0
-343 393 -461 0
-54 -153 549 0
-161 179 361 0
373 397 546 0
390 -425 -592 0
-110 -257 424 0
-90 -445 -486 0
-104 -128 -139 0
47 -369 428 0
-75 -146 293 0
-140 188 -263 0
22 53 -104 0
-98 -109 151 0
11 -196 600 0
-153 275 509 0
309 -464 549 0
137 -276 -494 0
-18 -438 535 0
99 -195 342 0
65 -132 -384 0
62 -108 -239 0
-71 -420 -564 0
-82 398 438 0
-104 -170 521 0
2 -56 -508 0
-54 -559 578 0
219 -259 -320 0
-23 138 -343 0
-56 -384 549 0
193 -218 -303 0
-140 395 439 0
36 -137 200 0
-238 -282 -516 0
-188 -304 -436 0
-97 501 559 0
229 -510 546 0
-30 -95 201 0
-176 483 -559 0
115 193 564 0
1 353 451 0
-324 -395 -483 0
124 367 -439 0
5 -77 -596 0
-62 331 582 0
314 345 525 0
205 354 530 0
125 -176 -348 0
218 -360 -556 0
-10 -208 430 0
-170 -305 330 0
131 325 -481 0
60 -100 567 0
-51 -142 -205 0
-91 256 322 0
-409 -474 509 0
197 -503 -587 0
40 -104 121 0
8 14 -409 0
11 347 422 0
-76 155 215 0
351 -444 513 0
-56 -335 393 0
-196 -203 -269 0
157 -208 282 0
-429 497 -531 0
-64 -289 511 0
25 370 -495 0
75 -334 -389 0
216 -405 557 0
-246 -452 -471 0
125 311 -415 0
-155 -465 -523 0
331 -349 -372 0
31 -288 -566 0
248 -294 -539 0
125 -185 -500 0
-261 -313 -346 0
200 -331 528 0
265 -293 442 0
93 -383 471 0
-5 -439 447 0
-68 491 596 0
74 138 -264 0
441 -472 -484 0
-164 483 -597 0
10 -396 590 0
440 -505 551 0
-389 520 566 0
-256 265 293 0
146 190 -277 0
26 431 -563 0
-154 228 -497 0
510 -529 584 0
338 348 566 0
-267 -563 586 0
243 -321 -504 0
-124 171 -376 0
39 257 -412 0
289 397 -548 0
-4 -8 -313 0
262 460 525 0
-268 304 493 0
23 -163 462 0
-98 -162 -226 0
145 -481 -486 0
-44 -188 409 0
26 -239 336 0
443 487 -496 0
-390 -418 428 0
244 -332 -599 0
273 448 -545 0
248 -462 -590 0
29 -222 247 0
1 -45 547 0
-2 -365 -405 0
-130 136 509 0
103 -150 174 0
-77 124 191 0
-241 438 598 0
225 -536 -598 0
-93 335 -490 0
64 -490 -509 0
262 -409 -483 0
10 -399 540 0
136 369 528 0
226 -349 541 0
221 312 462 0
473 -561 -586 0
129 -251 481 0
-208 394 478 0
96 296 319 0
-91 373 442 0
-174 457 583 0
-118 -306 483 0
-420 422 -429 0
-103 314 -523 0
121 -365 372 0
36 -505 -571 0
209 226 377 0
151 533 -581 0
-50 403 -418 0
-59 -142 257 0
168 -178 -508 0
-55 -166 -543 0
157 250 -329 0
-128 -277 -323 0
-103 171 -578 0
98 -156 -405 0
-177 -221 -561 0
-119 125 406 0
-411 -452 598 0
-81 200 -410 0
-145 364 -423 0
-163 289 453 0
107 -175 505 0
-297 371 538 0
221 -285 -334 0
-49 -336 -341 0
174 -213 -421 0
129 -172 -234 0
45 194 -282 0
25 252 -558 0
-37 278 311 0
-2 -339 -562 0
-4 -186 -316 0
309 -414 -483 0
229 346 361 0
41 118 -151 0
-263 -276 -460 0
195 -444 457 0
50 -207 -218 0
-3 -371 588 0
-105 -513 -521 0
4 -169 589 0
286 415 -470 0
311 408 -531 0
-49 182 473 0
290 317 -554 0
-414 -471 -474 0
409 -473 -520 0
-175 -218 403 0
172 -235 -303 0
23 102 -134 0
66 -316 -454 0
-27 271 -458 0
-150 292 583 0
471 -501 584 0
-34 344 -544 0
-81 203 474 0
182 301 384 0
71 -445 -554 0
226 425 514 0
335 456 571 0
160 -421 -553 0
97 -212 532 0
163 -486 526 0
-345 -525 541 0
254 -471 -553 0
-69 345 -509 0
83 402 -533 0
-26 -73 148 0
104 287 -554 0
306 -414 -594 0
-128 203 -481 0
35 -429 -538 0
-227 -442 479 0
-165 -496 572 0
128 -239 -436 0
6 -160 246 0
-152 325 369 0
3 340 -503 0
213 -368 -518 0
-154 -376 550 0
40 123 471 0
-209 307 385 0
56 -150 512 0
-136 295 454 0
123 -168 420 0
152 221 372 0
274 -391 -420 0
70 150 170 0
80 -254 -535 0
205 221 586 0
-27 392 -476 0
89 -125 -311 0
-303 401 443 0
307 328 414 0
-149 165 228 0
-246 -316 558 0
57 -246 530 0
195 -328 462 0
303 426 446 0
-109 -305 -500 0
309 -462 470 0
-283 -309 -361 0
52 134 -334 0
148 516 -525 0
195 -258 390 0
-490 572 -589 0
56 116 -191 0
-233 286 -581 0
141 236 -464 0
88 -333 582 0
-90 -91 455 0
84 98 323 0
-173 -228 -544 0
-58 425 -588 0
-194 -211 348 0
-99 -243 501 0
154 218 -560 0
184 570 585 0
-2 -271 -485 0
-376 382 -503 0
-98 239 491 0
-75 235 385 0
21 -514 550 0
-17 43 438 0
5 -333 399 0
246 381 550 0
164 229 383 0
47 219 414 0
328 -392 539 0
-121 330 573 0
-107 -123 -566 0
217 -483 584 0
-206 -211 -551 0
135 -327 358 0
78 198 379 0
-73 74 577 0
376 461 580 0
-187 552 599 0
-169 -377 -490 0
61 -346 -548 0
-302 361 -597 0
6 138 -522 0
99 -126 -544 0
28 -488 541 0
249 -369 569 0
19 253 276 0
130 242 506 0
-137 215 -346 0
194 244 495 0
-300 361 -552 0
-215 399 -507 0
-99 -106 255 0
129 -442 -566 0
247 -265 454 0
211 387 -454 0
80 -291 348 0
-9 315 -597 0
-69 -153 -544 0
-106 -196 483 0
54 -379 458 0
-203 472 517 0
14 -15 66 0
5 -238 -512 0
-194 -210 -351 0
-43 -206 254 0
399 503 -551 0
-36 -72 -213 0
40 117 -521 0
-124 423 -538 0
-313 408 -496 0
-191 -205 -551 0
60 67 -73 0
-116 -186 380 0
-159 -266 397 0
-84 -116 511 0
-60 -400 422 0
-225 -258 587 0
53 -64 -429 0
-89 103 435 0
-375 473 -557 0
-311 369 440 0
70 -175 335 0
171 220 377 0
-53 311 -327 0
50 248 -330 0
-204 259 388 0
316 -351 461 0
-218 284 334 0
332 462 -554 0
278 -356 446 0
206 339 346 0
-106 478 540 0
-14 144 516 0
172 -310 339 0
-44 -244 -308 0
254 -334 -464 0
-242 248 569 0
-85 90 -274 0
358 -374 445 0
45 -148 574 0
-137 454 583 0
349 426 525 0
-236 374 450 0
-126 -209 507 0
346 402 554 0
52 131 -363 0
58 197 550 0
354 -542 564 0
-303 367 -489 0
28 122 -475 0
-16 439 460 0
68 185 365 0
-120 157 516 0
-404 -490 -594 0
-22 -250 -412 0
119 -158 -479 0
29 -393 -459 0
-9 -254 -379 0
-142 311 -351 0
-115 268 539 0
-72 447 454 0
64 359 -379 0
-184 428 525 0
-67 270 519 0
8 125 332 0
120 304 -571 0
34 -55 -308 0
-48 210 500 0
70 114 502 0
79 -122 585 0
6 111 216 0
230 -374 541 0
-97 228 332 0
127 -404 598 0
-61 240 -575 0
-10 -524 -584 0
-66 -106 -164 0
211 343 491 0
83 -279 292 0
55 261 -429 0
214 264 292 0
419 523 533 0
-110 -146 149 0
81 -140 -385 0
175 -327 -495 0
352 -419 -525 0
-64 -134 -144 0
-297 395 555 0
105 -249 -341 0
397 -433 -565 0
149 -169 208 0
10 496 562 0
124 389 419 0
-91 477 578 0
129 -141 -513 0
191 -295 512 0
39 -76 -301 0
25 -184 -277 0
88 366 -583 0
-385 488 -503 0
-141 240 -507 0
-56 -302 474 0
512 587 -592 0
-41 90 -110 0
248 -412 -580 0
-195 324 381 0
8 -136 141 0
390 475 564 0
-203 229 340 0
391 505 580 0
-13 -183 -328 0
72 -307 342 0
50 239 -397 0
-58 -370 535 0
-57 432 454 0
228 -394 416 0
-12 -118 546 0
-41 456 470 0
-372 448 560 0
73 135 -380 0
109 228 -333 0
134 363 -579 0
-23 113 -202 0
225 260 566 0
-227 288 -494 0
154 366 511 0
-388 436 582 0
-156 -196 269 0
30 260 270 0
128 233 -282 0
110 394 -561 0
35 -341 -367 0
279 346 484 0
198 -324 -490 0
289 305 327 0
25 163 -175 0
122 -447 -475 0
-44 101 -116 0
-264 -351 595 0
402 -422 -425 0
-3 -238 -498 0
83 90 -277 0
-366 460 474 0
-150 163 -484 0
24 371 -471 0
-247 -354 550 0
-96 -187 529 0
58 -107 -172 0
5 -260 -357 0
-20 -231 312 0
52 207 339 0
-7 -271 -569 0
46 -157 220 0
-167 339 421 0
-84 91 324 0
34 518 578 0
25 -97 279 0
-270 361 -600 0
116 181 -192 0
-304 322 -349 0
-94 406 596 0
-102 -187 -313 0
-196 -202 -265 0
-86 -366 -434 0
14 -52 -530 0
-110 -542 573 0
73 -277 -550 0
-258 -509 533 0
297 -322 -409 0
-16 -263 -359 0
-78 -137 -557 0
495 -500 528 0
-6 -179 -540 0
268 331 578 0
234 -314 446 0
33 81 -414 0
89 -257 -591 0
138 382 415 0
-175 228 -402 0
-181 275 489 0
-251 -277 -508 0
-401 438 521 0
127 381 421 0
-112 -183 294 0
40 292 -411 0
9 245 402 0
198 393 -583 0
97 -517 538 0
-30 218 502 0
71 -175 354 0
38 79 162 0
-229 256 302 0
-189 225 -233 0
-108 -186 -342 0
-96 -464 -564 0
109 -213 -447 0
29 40 -358 0
-401 416 -575 0
248 356 -591 0
362 -435 -564 0
270 -310 -566 0
-334 465 589 0
60 -79 -147 0
-61 -535 543 0
-232 425 465 0
-108 -467 -541 0
190 371 -486 0
37 -42 585 0
55 -448 468 0
9 79 -88 0
289 -444 467 0
7 89 -349 0
61 161 -598 0
-137 315 -561 0
52 -316 -398 0
146 -183 467 0
42 132 234 0
-73 109 232 0
-193 -525 -578 0
-255 -399 401 0
31 -555 591 0
-16 -48 458 0
180 -220 -329 0
251 478 -501 0
-106 -439 -548 0
38 -126 -148 0
-289 -365 425 0
-99 -104 559 0
-168 470 -521 0
48 -307 384 0
-151 208 -265 0
338 503 527 0
-171 -353 527 0
6 367 -419 0
-55 -148 -431 0
-53 -266 340 0
49 144 539 0
-15 -70 595 0
461 -526 527 0
159 289 -411 0
63 186 -363 0
-407 -445 -561 0
34 -178 402 0
-237 447 -508 0
30 166 404 0
210 336 450 0
-252 419 -504 0
106 -134 405 0
-409 417 479 0
79 145 -314 0
116 296 410 0
281 -436 590 0
-147 242 -598 0
-60 -181 -458 0
-2 -103 312 0
133 351 485 0
358 401 -525 0
-9 -114 -521 0
-138 -168 501 0
-4 -454 517 0
-203 294 -541 0
-337 353 599 0
299 -352 427 0
-183 -509 598 0
-40 61 450 0
47 -80 -569 0
25 120 -218 0
112 -135 511 0
-355 -432 -538 0
101 -104 -528 0
-191 473 595 0
50 -476 581 0
-114 -311 -347 0
-133 -160 496 0
63 -98 -507 0
-1 -466 -539 0
13 -259 -308 0
-238 314 -396 0
299 319 446 0
-321 -403 595 0
84 -90 531 0
85 161 564 0
-20 198 408 0
-293 394 -551 0
-46 -96 -462 0
-311 502 -522 0
-358 373 451 0
-155 -447 527 0
-284 -289 584 0
47 -321 547 0
158 160 566 0
-11 89 488 0
493 -528 -539 0
-422 -436 478 0
98 -309 443 0
-333 -517 566 0
48 -95 -282 0
-447 484 521 0
36 -46 128 0
399 -510 -594 0
68 287 427 0
94 -433 -495 0
-96 128 -574 0
-14 551 -600 0
9 80 -534 0
-60 203 -232 0
167 525 531 0
58 -307 492 0
-224 -463 -536 0
-52 -355 551 0
131 276 -534 0
-284 -458 577 0
-20 96 -539 0
-70 429 563 0
92 304 444 0
-7 -36 571 0
-81 -301 348 0
-141 -524 555 0
286 -292 -380 0
-56 -220 -255 0
125 310 582 0
291 524 -583 0
-177 417 -490 0
28 -109 -551 0
-78 -196 257 0
-56 110 194 0
62 149 -507 0
-122 -364 371 0
143 -309 463 0
-182 193 491 0
479 -497 -514 0
-50 -201 374 0
8 -168 517 0
-35 -88 146 0
-40 159 551 0
-285 485 532 0
24 -154 -278 0
395 443 -481 0
134 -165 -536 0
-9 229 449 0
-209 233 357 0
-117 495 -509 0
124 -307 -412 0
265 -279 446 0
-41 172 290 0
204 -234 -365 0
55 -232 463 0
269 345 -431 0
-50 -93 -556 0
-2 274 416 0
18 -379 -449 0
-243 481 -503 0
-64 -219 -473 0
-119 258 516 0
-10 -529 554 0
133 258 -586 0
56 73 536 0
200 -245 -434 0
171 288 -562 0
-13 65 -182 0
-139 465 560 0
-67 -81 501 0
28 159 289 0
-226 408 -592 0
26 95 -421 0
278 304 -530 0
-65 -193 583 0
262 279 -572 0
-286 -410 -427 0
-126 -358 -540 0
-209 249 -369 0
-12 239 -320 0
104 150 341 0
-59 -259 -428 0
-164 -323 355 0
72 156 -459 0
-29 211 318 0
-16 195 -265 0
-51 169 -419 0
77 211 540 0
234 -273 473 0
-24 342 -405 0
78 -307 363 0
-234 377 -502 0
201 309 -582 0
-63 -119 439 0
-50 -449 573 0
-42 199 543 0
82 -259 582 0
-21 -78 186 0
155 -366 -577 0
305 402 411 0
49 -90 361 0
-130 -198 228 0
-406 -437 -532 0
391 411 -541 0
149 -222 357 0
159 -326 329 0
87 -208 586 0
189 -258 -468 0
54 -269 394 0
26 347 -500 0
-93 347 -554 0
21 236 555 0
175 -219 370 0
-103 -190 -346 0
11 -286 -574 0
-137 339 488 0
120 325 339 0
81 117 -165 0
-200 459 589 0
175 -222 -482 0
272 383 -503 0
224 -248 378 0
265 -384 -416 0
82 -174 564 0
-220 245 337 0
-200 207 -558 0
196 362 -527 0
59 278 418 0
-145 259 -337 0
-113 -226 -373 0
2 253 -294 0
-273 471 -482 0
33 219 280 0
-177 297 557 0
171 -206 410 0
-1 -187 -274 0
25 26 -442 0
-6 -249 -567 0
250 -387 451 0
313 334 -426 0
-16 -356 443 0
-81 118 -122 0
-28 -243 343 0
-190 -273 418 0
-330 -371 487 0
-210 320 -353 0
-324 -415 -578 0
184 -438 504 0
-127 390 -501 0
-10 -155 -498 0
-29 -130 -583 0
77 -263 360 0
229 521 543 0
33 -96 265 0
10 126 -584 0
-19 263 -550 0
48 301 -517 0
-89 -153 509 0
-53 107 245 0
389 -452 -558 0
21 -308 -422 0
-45 -460 544 0
116 436 501 0
124 585 597 0
128 -181 -208 0
108 -330 372 0
-386 427 477 0
-143 215 266 0
109 -435 556 0
-321 483 -503 0
-145 191 -508 0
-106 216 -334 0
-82 -286 -515 0
83 401 437 0
236 279 -513 0
-87 -455 567 0
329 -512 -517 0
-74 -208 256 0
197 -326 -566 0
67 165 -314 0
-1 -94 516 0
-431 -433 553 0
-70 439 -476 0
-172 368 -518 0
200 383 508 0
-126 -535 543 0
150 500 523 0
-94 -170 373 0
180 -459 490 0
-53 -409 417 0
-93 -216 398 0
504 522 543 0
-307 -355 -498 0
12 382 561 0
17 -392 492 0
5 143 151 0
17 266 -363 0
-94 -124 -497 0
134 288 -345 0
193 -346 -414 0
137 -164 194 0
-147 -233 -414 0
-179 -245 -360 0
-122 -151 -383 0
-111 288 466 0
-400 -425 -557 0
38 -171 -272 0
38 -190 -344 0
-274 353 -488 0
257 -271 -489 0
63 -300 -366 0
-139 -177 552 0
53 -68 297 0
213 -318 364 0
-98 124 138 0
210 -338 -399 0
-190 -316 566 0
20 144 -291 0
124 -383 -550 0
-10 -417 521 0
-67 456 -592 0
32 -203 -412 0
99 -223 -410 0
11 187 369 0
-64 73 263 0
90 -417 -502 0
-64 165 -555 0
96 -215 -536 0
-131 -385 -421 0
7 97 396 0
-45 -210 521 0
106 199 -597 0
310 424 -489 0
-330 -345 -587 0
193 -284 -327 0
-206 342 -360 0
-160 439 -473 0
-74 -306 502 0
-118 400 415 0
-28 -169 -310 0
-24 94 -206 0
-55 -136 -363 0
-119 -364 541 0
1 37 -230 0
225 255 582 0
-100 -402 533 0
-149 -152 -462 0
-104 167 -551 0
-459 475 -594 0
-110 186 -453 0
-149 489 -529 0
-382 538 -570 0
196 -280 -321 0
-8 -282 -519 0
-277 -319 447 0
-3 -123 153 0
197 346 401 0
58 -83 574 0
-88 -352 -425 0
82 -110 -396 0
-50 -259 -401 0
-162 -269 -332 0
298 -519 568 0
417 -431 564 0
-284 -300 -357 0
-131 224 -275 0
-332 -344 -527 0
-196 -396 -425 0
-128 203 546 0
-77 80 235 0
-195 367 503 0
96 242 514 0
-246 -315 390 0
-196 284 -495 0
54 342 527 0
316 -355 -388 0
-28 -253 374 0
-64 -310 419 0
125 -378 -548 0
-194 -329 -565 0
30 -158 463 0
251 -292 -365 0
2 -454 -504 0
-70 304 -344 0
99 393 398 0
-20 151 -454 0
295 -518 578 0
-83 -242 -274 0
248 -297 -561 0
-64 200 202 0
69 198 -370 0
-60 168 -221 0
-418 427 498 0
271 -453 457 0
1 -141 -337 0
145 332 -466 0
-61 104 215 0
101 185 -238 0
104 320 -504 0
15 -88 186 0
-19 -157 475 0
-133 -326 541 0
121 429 447 0
448 -450 538 0
-250 -576 597 0
1 -363 -385 0
54 -350 438 0
-342 440 -454 0
-38 -46 440 0
-20 -450 592 0
-347 353 493 0
-41 -99 123 0
-19 229 445 0
-208 232 -582 0
127 236 511 0
-57 326 -470 0
-273 -380 495 0
-34 -419 430 0
-82 -334 -501 0
210 -354 -579 0
-92 -98 431 0
25 -444 511 0
-31 416 597 0
-28 173 -270 0
-41 472 593 0
102 -329 -334 0
-37 -290 450 0
69 337 517 0
-278 -359 414 0
-295 475 -533 0
-61 274 -415 0
-109 179 211 0
49 -145 246 0
-97 -434 -487 0
31 -183 518 0
-156 265 -456 0
383 -405 -584 0
-4 -348 -432 0
-263 399 -518 0
8 -116 550 0
88 476 597 0
-154 -270 497 0
10 -199 -439 0
-75 -214 -469 0
-269 343 545 0
-105 -146 -352 0
74 -105 189 0
113 529 591 0
173 -471 -566 0
44 -78 315 0
35 300 550 0
321 387 578 0
-141 -361 -534 0
30 32 283 0
-86 258 -486 0
-81 113 199 0
-99 348 -472 0
-254 -351 -425 0
56 -339 401 0
-190 -326 595 0
-2 468 504 0
-362 527 587 0
180 -292 377 0
124 -125 582 0
261 -345 -588 0
138 203 -250 0
10 -401 -539 0
-339 -396 -590 0
-53 250 280 0
-457 -465 504 0
-71 85 -420 0
225 -327 -468 0
108 227 -268 0
147 148 375 0
287 -363 -366 0
169 385 -547 0
25 304 -494 0
295 -487 -592 0
32 338 -595 0
5 -144 -228 0
63 -71 -571 0
154 -357 495 0
119 -132 -249 0
-203 -345 412 0
-211 -222 252 0
419 -569 598 0
-15 276 -440 0
252 410 452 0
-34 -129 -237 0
230 -448 495 0
-301 -357 -449 0
127 -276 -446 0
287 350 -404 0
-88 121 -391 0
24 -63 -389 0
43 -214 -583 0
-19 439 -504 0
-189 -250 -289 0
351 -357 -494 0
-447 -476 552 0
-318 326 549 0
291 303 -364 0
-102 390 -542 0
-343 445 -475 0
-4 97 -494 0
35 82 -357 0
-152 239 -457 0
-199 -372 -476 0
145 243 -316 0
151 206 511 0
225 463 534 0
180 196 463 0
-193 303 -390 0
-32 -203 404 0
59 88 -581 0
28 -364 -401 0
-57 131 291 0
-138 165 -522 0
85 -151 214 0
67 -107 313 0
91 216 -241 0
-401 -425 -489 0
-145 -479 540 0
-94 311 521 0
229 -421 -506 0
-80 305 575 0
87 353 560 0
92 -357 559 0
-115 -282 502 0
324 377 -444 0
135 190 -337 0
122 -393 480 0
-334 348 401 0
122 189 -366 0
-15 -283 374 0
357 443 582 0
-17 119 -208 0
-260 325 573 0
39 95 -418 0
42 -243 358 0
234 371 541 0
-110 -194 -207 0
34 35 403 0
-158 293 441 0
-25 -484 -507 0
-155 -202 254 0
-224 -267 -542 0
434 444 519 0
83 219 -470 0
-17 -63 -64 0
-235 402 492 0
-86 -129 188 0
238 -277 395 0
3 -79 540 0
256 329 -472 0
-52 -73 532 0
-242 -437 -486 0
488 -491 573 0
47 -233 275 0
-158 278 552 0
316 515 521 0
36 128 -221 0
39 238 -314 0
105 198 -489 0
-30 -78 168 0
-61 105 255 0
7 -142 -358 0
-169 392 409 0
-32 311 -358 0
-182 455 522 0
-84 -315 -381 0
-104 346 -443 0
232 -414 420 0
-7 60 356 0
133 145 216 0
-126 140 -273 0
-177 294 -310 0
170 317 -504 0
-10 -33 480 0
-72 138 269 0
188 -334 346 0
20 -38 -332 0
85 -331 582 0
246 263 454 0
-54 529 -551 0
-190 -198 -298 0
293 448 -482 0
-7 -34 -48 0
-60 317 337 0
-192 -307 -460 0
-82 -400 516 0
17 79 -422 0
214 -361 -571 0
-155 -298 489 0
-223 -404 -411 0
-100 234 391 0
263 319 450 0
3 247 -455 0
368 376 -532 0
39 -453 495 0
-303 320 449 0
-9 -46 166 0
-81 -339 493 0
-383 501 -534 0
197 -365 -414 0
-136 565 -575 0
-120 127 -222 0
419 -526 -559 0
542 -564 585 0
-161 378 569 0
-197 584 -600 0
279 438 516 0
183 267 -586 0
270 -296 -482 0
-64 -523 549 0
123 -287 533 0
-31 292 552 0
-376 -531 532 0
-48 -148 -482 0
-37 194 596 0
275 332 -582 0
110 395 -540 0
8 -110 -372 0
-173 426 -462 0
-250 -484 -581 0
-164 -277 352 0
-31 254 -392 0
-247 258 504 0
11 447 -474 0
-463 488 -514 0
-357 392 -495 0
75 -79 -457 0
-52 -73 -231 0
352 -508 -600 0
189 -223 390 0
-39 75 410 0
47 300 538 0
-434 469 476 0
-205 257 394 0
125 211 -410 0
20 182 474 0
327 -340 501 0
-115 365 435 0
-12 -316 -384 0
-67 -174 -253 0
-130 312 481 0
1 269 501 0
180 362 -440 0
2 188 -398 0
-266 -414 566 0
-82 -382 497 0
5 106 -269 0
52 -349 416 0
59 -437 490 0
-36 -256 462 0
-157 172 -432 0
308 358 472 0
-300 325 533 0
301 420 581 0
-97 -418 446 0
46 190 -238 0
106 -407 515 0
-67 444 480 0
31 178 419 0
30 197 520 0
-240 -351 572 0
-73 343 -424 0
347 -355 -487 0
103 194 420 0
129 -237 -249 0
-200 -350 496 0
302 -432 -440 0
-254 -402 -544 0
-117 209 292 0
-461 -520 526 0
-62 197 342 0
60 -69 -415 0
263 541 598 0
212 -302 330 0
-355 557 568 0
-142 -214 -228 0
304 -319 -359 0
-204 245 346 0
-175 387 -561 0
-244 495 -529 0
297 508 -593 0
296 -535 -588 0
-133 161 355 0
-221 398 560 0
-388 406 545 0
-59 -272 320 0
-136 451 -544 0
-250 -498 -543 0
106 -259 -545 0
113 -198 413 0
-43 202 204 0
-214 352 567 0
-426 -434 -570 0
-156 347 -544 0
215 -442 -536 0
-37 77 -94 0
90 270 -542 0
-224 475 -543 0
198 -403 -581 0
-265 -305 -510 0
-8 -361 -448 0
-2 241 328 0
-102 -186 458 0
-6 204 -518 0
111 -349 -385 0
131 221 -352 0
-184 450 467 0
-42 63 542 0
29 344 349 0
-82 -464 -575 0
434 568 579 0
-52 93 -499 0
30 139 593 0
145 -208 -404 0
-240 -317 556 0
-357 525 -533 0
23 431 528 0
72 446 -569 0
-43 449 -493 0
-99 -114 324 0
51 -72 -590 0
97 232 303 0
28 180 206 0
153 241 548 0
262 443 -483 0
-212 -256 -443 0
-232 250 -555 0
-8 -546 -581 0
385 392 395 0
-203 243 -517 0
39 -105 -494 0
131 -263 490 0
-202 -451 -523 0
305 399 -406 0
-208 -315 355 0
-178 479 -493 0
-69 -249 -430 0
61 -176 -347 0
-510 530 -572 0
-36 -412 464 0
-71 -214 -473 0
-43 145 -211 0
-426 543 -593 0
168 370 -459 0
-366 -393 599 0
-156 -583 -589 0
232 474 -523 0
545 591 -599 0
-152 -166 471 0
-272 298 -523 0
272 -299 596 0
17 -306 -314 0
40 -197 -512 0
-72 150 173 0
-257 281 -459 0
113 -224 -412 0
117 255 -478 0
91 288 -582 0
257 -427 -467 0
16 -130 586 0
-159 353 510 0
-272 335 502 0
-55 -525 558 0
148 -196 -582 0
-87 -136 417 0
-43 290 523 0
21 -57 -513 0
463 -473 480 0
-23 -43 271 0
14 -149 193 0
-4 284 537 0
25 -177 469 0
33 -286 -389 0
-127 289 530 0
-103 -338 -593 0
302 327 -407 0
221 -455 -533 0
-194 -219 -531 0
69 194 362 0
81 156 -368 0
-19 -103 -285 0
178 -315 -464 0
96 -157 -558 0
-42 -166 -463 0
54 -82 307 0
127 -392 512 0
95 -183 -284 0
60 100 420 0
412 414 -560 0
161 175 363 0
-83 -506 535 0
191 241 -280 0
397 -488 -500 0
-37 194 278 0
-150 -203 -520 0
-37 226 -365 0
369 380 494 0
-189 -470 522 0
-25 416 -476 0
43 50 188 0
187 199 -516 0
-151 -481 518 0
-287 -507 575 0
40 -363 -572 0
-94 325 570 0
142 270 499 0
315 -406 -534 0
31 83 -559 0
68 126 378 0
-254 -560 578 0
298 358 534 0
131 -383 573 0
-36 -42 337 0
263 301 -351 0
-77 -110 -295 0
188 -218 -535 0
56 65 541 0
126 194 558 0
-406 -451 587 0
-338 -363 511 0
-505 527 566 0
97 -309 368 0
50 -482 547 0
-329 -532 -583 0
118 -165 286 0
341 -342 539 0
47 58 420 0
125 -291 498 0
29 429 -582 0
-365 521 577 0
196 233 237 0
207 237 583 0
-33 543 549 0
-349 555 -580 0
332 -412 -432 0
-12 226 467 0
121 -330 -561 0
-210 -414 429 0
-280 -547 -578 0
-131 209 -371 0
420 429 -470 0
-67 394 550 0
-33 -269 545 0
14 265 339 0
73 283 -443 0
2 66 -445 0
52 -391 -444 0
-331 341 457 0
-73 -214 -429 0
-117 160 -368 0
90 -284 -329 0
-31 -47 501 0
-195 358 -486 0
-180 -313 -516 0
80 -165 523 0
98 -310 -559 0
52 220 403 0
-202 537 591 0
17 170 -360 0
78 -446 -538 0
-34 254 -485 0
-86 543 -570 0
320 363 -578 0
-225 412 -565 0
-27 115 563 0
55 64 151 0
201 -501 505 0
-256 -481 -543 0
39 262 463 0
365 -422 -579 0
-14 363 -438 0
-136 -182 -248 0
150 234 335 0
-182 430 -548 0
473 -510 -593 0
7 -14 -41 0
88 224 323 0
291 394 -574 0
-192 -387 -435 0
221 -448 -526 0
151 344 -410 0
-36 145 230 0
-70 143 -561 0
21 -109 -529 0
94 105 263 0
191 -203 -299 0
211 236 -321 0
-61 -141 -207 0
164 -214 399 0
-364 -567 -599 0
192 206 238 0
28 -139 -420 0
12 67 400 0
394 449 -594 0
214 -330 564 0
-174 -428 -506 0
39 184 204 0
-305 -363 -446 0
289 526 -566 0
-92 -245 440 0
-28 -108 -158 0
293 -395 -590 0
290 327 -441 0
106 146 -289 0
78 -440 -510 0
40 -60 363 0
108 -511 -591 0
13 -177 357 0
-48 -510 573 0
-16 -387 483 0
-126 131 -300 0
-100 340 -402 0
36 -134 171 0
-14 171 552 0
-191 -281 427 0
-425 -441 545 0
-39 451 -570 0
52 382 408 0
153 -281 581 0
-24 -209 260 0
33 -240 -450 0
275 -388 -572 0
160 -455 527 0
-161 298 -570 0
-144 -501 -520 0
29 420 559 0
111 -549 -580 0
-121 -338 360 0
-279 367 458 0
296 -360 -425 0
230 -231 583 0
104 131 236 0
-260 430 518 0
-203 -246 311 0
-139 -164 279 0
106 257 -307 0
-151 -348 -481 0
-29 317 557 0
216 499 524 0
113 -208 210 0
203 264 -352 0
104 215 497 0
117 -251 -586 0
15 -401 490 0
-103 527 579 0
-18 -313 511 0
-112 265 405 0
60 252 539 0
-123 -283 -554 0
149 -262 534 0
-19 133 563 0
-74 -241 532 0
365 -485 526 0
-181 -417 558 0
166 316 -455 0
3 -268 528 0
-360 -382 545 0
-421 513 514 0
-359 -374 -444 0
-154 -249 312 0
-31 -152 366 0
133 -287 353 0
98 -169 479 0
-210 -211 257 0
-395 449 567 0
-361 396 446 0
-50 131 -475 0
-397 442 464 0
-265 -440 455 0
-189 361 433 0
209 -423 586 0
35 124 527 0
43 -113 -488 0
11 -236 -584 0
357 445 -493 0
405 444 -544 0
-405 443 -562 0
241 402 543 0
87 -163 293 0
-353 486 528 0
-119 -223 -346 0
-41 -268 385 0
117 172 -535 0
22 172 -274 0
491 -529 -549 0
9 138 312 0
-138 -250 -478 0
134 260 598 0
-252 473 517 0
431 458 511 0
223 -349 -414 0
390 515 -567 0
-107 514 -557 0
-288 -348 -403 0
64 -254 -440 0
-26 -478 -548 0
245 430 -563 0
103 237 397 0
-221 233 260 0
-84 -411 -466 0
-23 125 -178 0
59 178 300 0
66 97 478 0
-102 -181 -259 0
-248 316 -378 0
28 189 599 0
16 -277 393 0
-522 -529 544 0
-180 -252 344 0
43 364 490 0
12 43 -208 0
-49 -201 275 0
-75 170 -200 0
-8 -139 378 0
7 536 540 0
-329 351 -459 0
-23 271 -424 0
102 -373 401 0
-117 165 -415 0
-90 -220 539 0
-40 -171 -328 0
-355 377 -495 0
219 394 426 0
-18 94 412 0
-270 -331 -515 0
203 211 349 0
77 108 345 0
-305 -466 544 0
-108 -122 588 0
7 326 -505 0
47 88 337 0
487 549 580 0
-214 336 -541 0
202 341 -446 0
-54 149 -433 0
-235 260 268 0
-97 140 -516 0
17 37 202 0
-181 420 463 0
101 -116 539 0
-44 270 -337 0
95 568 -599 0
47 -460 -505 0
246 -472 562 0
229 365 -449 0
-192 538 567 0
170 302 -595 0
23 335 -336 0
174 504 534 0
433 -505 570 0
328 -431 -516 0
-19 53 435 0
-91 153 586 0
169 321 326 0
-372 541 -546 0
124 358 400 0
120 -437 583 0
24 -95 306 0
-91 286 -548 0
105 441 538 0
125 -316 -463 0
63 -169 -197 0
-76 314 482 0
-129 180 454 0
-85 132 538 0
-208 -216 360 0
148 -332 -389 0
-209 255 -379 0
-5 253 -532 0
-133 167 -366 0
-87 216 -256 0
-398 -572 -596 0
143 156 -199 0
454 460 519 0
-1 -142 487 0
238 -420 -427 0
-62 -143 595 0
-325 -516 -557 0
525 -564 570 0
-74 -173 251 0
1 505 -542 0
390 -461 533 0
-53 269 449 0
22 -64 -548 0
-149 -206 483 0
-188 -309 313 0
-83 226 -304 0
178 180 -510 0
-330 -343 432 0
137 -140 527 0
7 102 -285 0
-4 166 -249 0
-276 339 598 0
-198 312 595 0
-144 -426 504 0
-390 -572 592 0
292 374 383 0
-10 -406 481 0
271 -461 565 0
26 -155 297 0
209 -330 -402 0
352 541 597 0
-38 -373 -596 0
-96 -458 462 0
86 97 266 0
145 325 -424 0
9 -38 493 0
310 457 -514 0
36 -585 599 0
-29 -52 -214 0
17 -153 -159 0
-156 -193 -504 0
-197 496 527 0
55 -148 453 0
-375 -392 406 0
80 318 -571 0
458 545 583 0
-180 -302 424 0
-17 -140 -375 0
-64 -368 -526 0
353 426 -492 0
-122 -173 511 0
223 565 576 0
271 -291 446 0
-97 -293 -567 0
-68 90 341 0
98 187 388 0
200 -263 -376 0
-203 444 460 0
-63 530 -579 0
-260 -398 -444 0
20 -85 -270 0
-169 174 -383 0
118 -345 463 0
38 428 -558 0
172 369 599 0
-152 181 -433 0
-194 -396 537 0
22 163 -595 0
-206 -331 594 0
-112 189 -372 0
-82 128 592 0
248 424 -431 0
-31 -301 -350 0
-257 352 484 0
-211 580 -588 0
31 -104 -146 0
1 480 -545 0
73 -378 -395 0
-36 -116 193 0
-116 199 -327 0
13 -56 553 0
403 -419 551 0
-64 194 582 0
-159 -257 -382 0
-319 -438 -579 0
-23 203 -539 0
-20 198 569 0
-117 296 -569 0
33 -195 -594 0
23 130 -420 0
-299 -467 -529 0
169 220 366 0
132 136 -568 0
38 -401 -470 0
76 89 286 0
197 337 463 0
-43 -48 -454 0
278 -327 439 0
-20 258 -357 0
17 261 465 0
-10 -22 -544 0
38 78 441 0
279 -545 -555 0
264 -448 511 0
297 367 -413 0
-183 198 -515 0
-41 -376 -504 0
55 -301 -516 0
143 -186 -547 0
281 -336 -513 0
29 -252 298 0
-228 333 502 0
-278 -344 446 0
-60 180 -333 0
5 -29 423 0
-194 -226 -232 0
43 375 450 0
80 161 -256 0
-38 421 -465 0
61 -226 560 0
137 -432 -469 0
-355 434 -587 0
-83 -164 -196 0
326 -495 567 0
70 -106 509 0
-133 139 331 0
-278 -529 -575 0
-31 419 -595 0
-41 233 453 0
-10 323 585 0
1 -284 472 0
-32 295 304 0
-77 105 132 0
-81 89 570 0
80 425 -551 0
1 37 304 0
-71 369 -524 0
318 337 -404 0
401 -465 -546 0
164 -191 -560 0
-395 434 447 0
-8 56 -396 0
-3 -339 -451 0
88 243 -593 0
-211 458 595 0
-236 -440 478 0
-52 -243 -480 0
-224 270 -454 0
44 52 -259 0
-180 222 -434 0
368 393 592 0
-339 -416 493 0
97 216 558 0
78 -334 -461 0
15 488 -524 0
-363 -416 569 0
50 -503 585 0
119 -582 598 0
315 -492 500 0
-169 459 -478 0
147 383 -560 0
-72 -441 -554 0
-119 280 494 0
4 27 -215 0
37 -455 -581 0
43 -396 -593 0
-295 426 520 0
-163 -443 -544 0
147 -277 412 0
-110 220 240 0
-274 535 -543 0
276 -332 394 0
66 -138 416 0
33 120 568 0
94 -407 -574 0
-210 359 -409 0
13 65 369 0
197 -207 -252 0
65 250 -570 0
51 -368 467 0
-211 -234 -389 0
-168 415 -574 0
196 529 -592 0
19 -72 -194 0
303 -508 -538 0
-107 -353 374 0
-126 246 420 0
-220 261 473 0
66 386 -434 0
223 314 348 0
84 -122 186 0
-117 -164 -282 0
17 64 320 0
369 -374 435 0
237 -248 455 0
-164 422 -431 0
236 -258 -597 0
275 -327 -410 0
173 246 527 0
-391 -450 -500 0
-78 -232 -523 0
-247 385 543 0
-196 -222 448 0
-16 475 -575 0
-209 -286 -296 0
164 -587 599 0
395 540 -573 0
68 251 -288 0
68 -336 509 0
-6 -48 -82 0
-112 -228 260 0
248 -258 -559 0
-453 -461 469 0
10 -83 -414 0
188 209 -392 0
-59 495 -502 0
-397 505 -528 0
-291 350 -584 0
-8 324 525 0
386 466 493 0
30 -399 -511 0
266 -269 -599 0
12 -147 497 0
-23 121 -186 0
302 -547 579 0
199 -312 -317 0
-35 -344 -592 0
38 435 -507 0
-231 -253 289 0
108 -307 450 0
-314 454 -483 0
42 233 455 0
62 -101 409 0
-134 243 333 0
25 -343 541 0
44 -197 -508 0
63 -340 -443 0
97 -341 362 0
-135 259 578 0
224 328 -498 0
-102 -382 -565 0
-294 335 409 0
-227 -267 -485 0
-19 -276 -463 0
-45 -484 -556 0
252 -457 598 0
499 -565 580 0
-323 -454 582 0
-273 -294 -592 0
-446 497 579 0
-253 -395 -466 0
192 442 -453 0
134 312 358 0
-121 -166 521 0
200 -440 554 0
114 -135 327 0
-27 -403 584 0
-59 413 -485 0
-127 271 515 0
134 439 -547 0
-416 452 576 0
273 -324 509 0
-333 -571 585 0
10 -148 529 0
58 173 239 0
233 306 -357 0
-229 -471 582 0
-144 311 -368 0
63 94 -599 0
-37 -81 225 0
339 -526 -532 0
67 -110 -230 0
63 -233 -240 0
289 468 597 0
194 -437 -533 0
94 -297 480 0
-82 -238 500 0
183 -543 577 0
-97 -166 -581 0
205 404 510 0
-195 349 -500 0
163 -316 -565 0
-207 481 -557 0
187 311 -509 0
-74 209 464 0
-13 -148 400 0
-168 289 -526 0
-11 -44 -107 0
398 -427 -545 0
-173 -300 -454 0
-96 195 -293 0
-157 -223 -558 0
111 -185 -426 0
-307 464 558 0
-143 284 -290 0
-19 38 215 0
-55 -354 -422 0
120 -207 -559 0
-95 -159 -284 0
201 342 533 0
-102 196 548 0
262 -357 -498 0
290 403 591 0
50 -183 -476 0
-32 -273 351 0
103 381 -456 0
163 -299 -317 0
362 410 447 0
209 483 -595 0
393 -427 519 0
-131 -242 -363 0
4 -558 -590 0
150 -435 -572 0
107 329 339 0
-20 -50 509 0
78 -404 529 0
137 -147 -543 0
76 -130 562 0
74 357 -417 0
198 -249 426 0
-368 485 554 0
-38 250 514 0
-48 136 352 0
-257 293 -561 0
-10 -312 -543 0
-160 -523 -574 0
-270 -274 -390 0
196 482 552 0
-75 -266 -474 0
146 172 -575 0
-147 148 227 0
242 -434 -590 0
151 -304 -560 0
-67 -323 568 0
-53 -346 -454 0
-77 265 430 0
49 135 -381 0
-209 507 599 0
-132 -195 395 0
1 -180 490 0
-487 512 -595 0
162 -259 457 0
232 254 505 0
-153 -410 -446 0
152 -286 -313 0
299 339 410 0
4 65 131 0
-424 -443 -541 0
-474 -501 570 0
-7 395 -464 0
-11 303 516 0
-125 -205 415 0
123 328 335 0
-201 -224 263 0
14 -310 570 0
-61 300 -354 0
132 -399 597 0
-90 150 304 0
-9 328 -386 0
-123 -319 560 0
-129 -195 -346 0
-239 -375 -392 0
-464 -529 531 0
-3 61 537 0
-5 384 -600 0
-25 -201 -599 0
-212 -228 549 0
149 257 525 0
121 -332 501 0
63 -153 404 0
60 281 -581 0
-82 -98 206 0
77 287 -369 0
56 -461 -473 0
-32 -33 554 0
177 230 573 0
-130 -133 569 0
43 297 -497 0
-282 352 -355 0
-160 -533 585 0
179 190 458 0
-284 304 363 0
200 -228 -409 0
155 -180 -412 0
46 -353 479 0
-67 -323 464 0
-357 -478 -500 0
-302 -362 443 0
257 -285 -416 0
-184 -202 332 0
99 -103 -121 0
-328 366 519 0
-76 -140 223 0
-16 -500 -542 0
347 -487 551 0
62 96 515 0
72 -171 332 0
-219 253 362 0
-28 -49 463 0
89 247 -523 0
184 -249 -438 0
239 453 -590 0
29 125 -523 0
69 -117 209 0
-248 334 -440 0
-263 375 -576 0
135 -144 -360 0
3 342 -452 0
-21 153 543 0
-190 -310 453 0
425 482 -534 0
-20 -55 -295 0
394 -517 -561 0
-51 -456 -548 0
-154 -281 -574 0
-5 -142 552 0
286 528 -533 0
103 225 -287 0
-160 -277 327 0
-28 -381 -530 0
-61 338 440 0
-139 -355 -581 0
39 113 -454 0
46 266 -548 0
-22 347 -443 0
-116 286 563 0
-98 560 -571 0
149 178 378 0
332 -433 488 0
56 -216 -433 0
280 -329 593 0
236 260 570 0
-249 329 -414 0
-30 289 -354 0
-24 -27 353 0
47 393 454 0
16 -49 -269 0
-117 358 483 0
128 425 -569 0
-45 206 -600 0
-203 -534 -545 0
72 -159 -475 0
5 -117 480 0
-428 461 -478 0
6 -90 529 0
403 -433 505 0
-77 312 579 0
-67 213 -414 0
42 -65 565 0
-307 -468 592 0
-158 258 -563 0
-98 -248 347 0
75 -140 227 0
255 -317 451 0
-70 -340 372 0
33 -255 265 0
134 -171 462 0
52 266 -368 0
-85 -145 326 0
-5 -187 249 0
-42 -125 -246 0
109 -173 314 0
-20 490 537 0
-151 444 565 0
166 -416 -465 0
1 -48 352 0
-272 -385 -555 0
116 -230 303 0
-64 -273 -593 0
-87 -379 544 0
210 466 -562 0
-44 -96 504 0
-341 -358 -563 0
-2 -177 461 0
-16 481 560 0
127 -227 440 0
182 252 363 0
-386 415 -461 0
-191 -474 -584 0
-255 444 588 0
312 -436 -544 0
24 214 598 0
130 160 -497 0
107 -155 292 0
314 -320 -487 0
153 189 -502 0
-114 350 368 0
136 531 -563 0
133 -484 -512 0
34 50 -130 0
407 411 -542 0
185 -231 268 0
212 -383 577 0
343 497 -573 0
-275 492 -586 0
-32 -222 -268 0
58 223 421 0
220 -275 439 0
-266 504 530 0
-45 247 586 0
-29 191 -270 0
-88 -150 -537 0
25 261 280 0
53 202 398 0
-1 163 -338 0
57 296 469 0
90 191 512 0
276 312 443 0
-31 -228 321 0
273 531 592 0
-51 -103 358 0
-8 -513 -584 0
-16 260 479 0
-104 -197 -544 0
118 -245 474 0
-158 179 -369 0
21 -181 205 0
117 221 -406 0
418 519 -588 0
35 -69 -202 0
-171 -210 528 0
233 411 564 0
378 426 464 0
248 258 513 0
-28 -237 -551 0
163 225 -444 0
62 -384 -497 0
-475 -571 586 0
113 -196 -447 0
120 250 537 0
-240 265 -410 0
-137 -316 336 0
8 485 557 0
240 -266 432 0
