c Phase 3 generated performance instance
c family=overlapping_hall_violation
c scale=8
c variant=boundary_low
c noise_percent=0
c expected=UNSATISFIABLE
p cnf 144 1097
-1 -2 0
-1 -3 0
-1 -4 0
-1 -5 0
-1 -6 0
-1 -7 0
-1 -8 0
-2 -3 0
-2 -4 0
-2 -5 0
-2 -6 0
-2 -7 0
-2 -8 0
-3 -4 0
-3 -5 0
-3 -6 0
-3 -7 0
-3 -8 0
-4 -5 0
-4 -6 0
-4 -7 0
-4 -8 0
-5 -6 0
-5 -7 0
-5 -8 0
-6 -7 0
-6 -8 0
-7 -8 0
1 2 3 4 5 6 7 8 0
-9 -10 0
-9 -11 0
-9 -12 0
-9 -13 0
-9 -14 0
-9 -15 0
-9 -16 0
-10 -11 0
-10 -12 0
-10 -13 0
-10 -14 0
-10 -15 0
-10 -16 0
-11 -12 0
-11 -13 0
-11 -14 0
-11 -15 0
-11 -16 0
-12 -13 0
-12 -14 0
-12 -15 0
-12 -16 0
-13 -14 0
-13 -15 0
-13 -16 0
-14 -15 0
-14 -16 0
-15 -16 0
9 10 11 12 13 14 15 16 0
-17 -18 0
-17 -19 0
-17 -20 0
-17 -21 0
-17 -22 0
-17 -23 0
-17 -24 0
-18 -19 0
-18 -20 0
-18 -21 0
-18 -22 0
-18 -23 0
-18 -24 0
-19 -20 0
-19 -21 0
-19 -22 0
-19 -23 0
-19 -24 0
-20 -21 0
-20 -22 0
-20 -23 0
-20 -24 0
-21 -22 0
-21 -23 0
-21 -24 0
-22 -23 0
-22 -24 0
-23 -24 0
17 18 19 20 21 22 23 24 0
-25 -26 0
-25 -27 0
-25 -28 0
-25 -29 0
-25 -30 0
-25 -31 0
-25 -32 0
-26 -27 0
-26 -28 0
-26 -29 0
-26 -30 0
-26 -31 0
-26 -32 0
-27 -28 0
-27 -29 0
-27 -30 0
-27 -31 0
-27 -32 0
-28 -29 0
-28 -30 0
-28 -31 0
-28 -32 0
-29 -30 0
-29 -31 0
-29 -32 0
-30 -31 0
-30 -32 0
-31 -32 0
25 26 27 28 29 30 31 32 0
-33 -34 0
-33 -35 0
-33 -36 0
-33 -37 0
-33 -38 0
-33 -39 0
-33 -40 0
-34 -35 0
-34 -36 0
-34 -37 0
-34 -38 0
-34 -39 0
-34 -40 0
-35 -36 0
-35 -37 0
-35 -38 0
-35 -39 0
-35 -40 0
-36 -37 0
-36 -38 0
-36 -39 0
-36 -40 0
-37 -38 0
-37 -39 0
-37 -40 0
-38 -39 0
-38 -40 0
-39 -40 0
33 34 35 36 37 38 39 40 0
-41 -42 0
-41 -43 0
-41 -44 0
-41 -45 0
-41 -46 0
-41 -47 0
-41 -48 0
-42 -43 0
-42 -44 0
-42 -45 0
-42 -46 0
-42 -47 0
-42 -48 0
-43 -44 0
-43 -45 0
-43 -46 0
-43 -47 0
-43 -48 0
-44 -45 0
-44 -46 0
-44 -47 0
-44 -48 0
-45 -46 0
-45 -47 0
-45 -48 0
-46 -47 0
-46 -48 0
-47 -48 0
41 42 43 44 45 46 47 48 0
-49 -50 0
-49 -51 0
-49 -52 0
-49 -53 0
-49 -54 0
-49 -55 0
-49 -56 0
-50 -51 0
-50 -52 0
-50 -53 0
-50 -54 0
-50 -55 0
-50 -56 0
-51 -52 0
-51 -53 0
-51 -54 0
-51 -55 0
-51 -56 0
-52 -53 0
-52 -54 0
-52 -55 0
-52 -56 0
-53 -54 0
-53 -55 0
-53 -56 0
-54 -55 0
-54 -56 0
-55 -56 0
49 50 51 52 53 54 55 56 0
-57 -58 0
-57 -59 0
-57 -60 0
-57 -61 0
-57 -62 0
-57 -63 0
-57 -64 0
-58 -59 0
-58 -60 0
-58 -61 0
-58 -62 0
-58 -63 0
-58 -64 0
-59 -60 0
-59 -61 0
-59 -62 0
-59 -63 0
-59 -64 0
-60 -61 0
-60 -62 0
-60 -63 0
-60 -64 0
-61 -62 0
-61 -63 0
-61 -64 0
-62 -63 0
-62 -64 0
-63 -64 0
57 58 59 60 61 62 63 64 0
-65 -66 0
-65 -67 0
-65 -68 0
-65 -69 0
-65 -70 0
-65 -71 0
-65 -72 0
-66 -67 0
-66 -68 0
-66 -69 0
-66 -70 0
-66 -71 0
-66 -72 0
-67 -68 0
-67 -69 0
-67 -70 0
-67 -71 0
-67 -72 0
-68 -69 0
-68 -70 0
-68 -71 0
-68 -72 0
-69 -70 0
-69 -71 0
-69 -72 0
-70 -71 0
-70 -72 0
-71 -72 0
65 66 67 68 69 70 71 72 0
-73 -74 0
-73 -75 0
-73 -76 0
-73 -77 0
-73 -78 0
-73 -79 0
-73 -80 0
-73 -81 0
-74 -75 0
-74 -76 0
-74 -77 0
-74 -78 0
-74 -79 0
-74 -80 0
-74 -81 0
-75 -76 0
-75 -77 0
-75 -78 0
-75 -79 0
-75 -80 0
-75 -81 0
-76 -77 0
-76 -78 0
-76 -79 0
-76 -80 0
-76 -81 0
-77 -78 0
-77 -79 0
-77 -80 0
-77 -81 0
-78 -79 0
-78 -80 0
-78 -81 0
-79 -80 0
-79 -81 0
-80 -81 0
73 74 75 76 77 78 79 80 81 0
-82 -83 0
-82 -84 0
-82 -85 0
-82 -86 0
-82 -87 0
-82 -88 0
-82 -89 0
-82 -90 0
-83 -84 0
-83 -85 0
-83 -86 0
-83 -87 0
-83 -88 0
-83 -89 0
-83 -90 0
-84 -85 0
-84 -86 0
-84 -87 0
-84 -88 0
-84 -89 0
-84 -90 0
-85 -86 0
-85 -87 0
-85 -88 0
-85 -89 0
-85 -90 0
-86 -87 0
-86 -88 0
-86 -89 0
-86 -90 0
-87 -88 0
-87 -89 0
-87 -90 0
-88 -89 0
-88 -90 0
-89 -90 0
82 83 84 85 86 87 88 89 90 0
-91 -92 0
-91 -93 0
-91 -94 0
-91 -95 0
-91 -96 0
-91 -97 0
-91 -98 0
-91 -99 0
-92 -93 0
-92 -94 0
-92 -95 0
-92 -96 0
-92 -97 0
-92 -98 0
-92 -99 0
-93 -94 0
-93 -95 0
-93 -96 0
-93 -97 0
-93 -98 0
-93 -99 0
-94 -95 0
-94 -96 0
-94 -97 0
-94 -98 0
-94 -99 0
-95 -96 0
-95 -97 0
-95 -98 0
-95 -99 0
-96 -97 0
-96 -98 0
-96 -99 0
-97 -98 0
-97 -99 0
-98 -99 0
91 92 93 94 95 96 97 98 99 0
-100 -101 0
-100 -102 0
-100 -103 0
-100 -104 0
-100 -105 0
-100 -106 0
-100 -107 0
-100 -108 0
-101 -102 0
-101 -103 0
-101 -104 0
-101 -105 0
-101 -106 0
-101 -107 0
-101 -108 0
-102 -103 0
-102 -104 0
-102 -105 0
-102 -106 0
-102 -107 0
-102 -108 0
-103 -104 0
-103 -105 0
-103 -106 0
-103 -107 0
-103 -108 0
-104 -105 0
-104 -106 0
-104 -107 0
-104 -108 0
-105 -106 0
-105 -107 0
-105 -108 0
-106 -107 0
-106 -108 0
-107 -108 0
100 101 102 103 104 105 106 107 108 0
-109 -110 0
-109 -111 0
-109 -112 0
-109 -113 0
-109 -114 0
-109 -115 0
-109 -116 0
-109 -117 0
-110 -111 0
-110 -112 0
-110 -113 0
-110 -114 0
-110 -115 0
-110 -116 0
-110 -117 0
-111 -112 0
-111 -113 0
-111 -114 0
-111 -115 0
-111 -116 0
-111 -117 0
-112 -113 0
-112 -114 0
-112 -115 0
-112 -116 0
-112 -117 0
-113 -114 0
-113 -115 0
-113 -116 0
-113 -117 0
-114 -115 0
-114 -116 0
-114 -117 0
-115 -116 0
-115 -117 0
-116 -117 0
109 110 111 112 113 114 115 116 117 0
-118 -119 0
-118 -120 0
-118 -121 0
-118 -122 0
-118 -123 0
-118 -124 0
-118 -125 0
-118 -126 0
-119 -120 0
-119 -121 0
-119 -122 0
-119 -123 0
-119 -124 0
-119 -125 0
-119 -126 0
-120 -121 0
-120 -122 0
-120 -123 0
-120 -124 0
-120 -125 0
-120 -126 0
-121 -122 0
-121 -123 0
-121 -124 0
-121 -125 0
-121 -126 0
-122 -123 0
-122 -124 0
-122 -125 0
-122 -126 0
-123 -124 0
-123 -125 0
-123 -126 0
-124 -125 0
-124 -126 0
-125 -126 0
118 119 120 121 122 123 124 125 126 0
-127 -128 0
-127 -129 0
-127 -130 0
-127 -131 0
-127 -132 0
-127 -133 0
-127 -134 0
-127 -135 0
-128 -129 0
-128 -130 0
-128 -131 0
-128 -132 0
-128 -133 0
-128 -134 0
-128 -135 0
-129 -130 0
-129 -131 0
-129 -132 0
-129 -133 0
-129 -134 0
-129 -135 0
-130 -131 0
-130 -132 0
-130 -133 0
-130 -134 0
-130 -135 0
-131 -132 0
-131 -133 0
-131 -134 0
-131 -135 0
-132 -133 0
-132 -134 0
-132 -135 0
-133 -134 0
-133 -135 0
-134 -135 0
127 128 129 130 131 132 133 134 135 0
-136 -137 0
-136 -138 0
-136 -139 0
-136 -140 0
-136 -141 0
-136 -142 0
-136 -143 0
-136 -144 0
-137 -138 0
-137 -139 0
-137 -140 0
-137 -141 0
-137 -142 0
-137 -143 0
-137 -144 0
-138 -139 0
-138 -140 0
-138 -141 0
-138 -142 0
-138 -143 0
-138 -144 0
-139 -140 0
-139 -141 0
-139 -142 0
-139 -143 0
-139 -144 0
-140 -141 0
-140 -142 0
-140 -143 0
-140 -144 0
-141 -142 0
-141 -143 0
-141 -144 0
-142 -143 0
-142 -144 0
-143 -144 0
136 137 138 139 140 141 142 143 144 0
-1 -9 0
-1 -17 0
-1 -25 0
-1 -33 0
-1 -41 0
-1 -49 0
-1 -57 0
-1 -65 0
-9 -17 0
-9 -25 0
-9 -33 0
-9 -41 0
-9 -49 0
-9 -57 0
-9 -65 0
-17 -25 0
-17 -33 0
-17 -41 0
-17 -49 0
-17 -57 0
-17 -65 0
-25 -33 0
-25 -41 0
-25 -49 0
-25 -57 0
-25 -65 0
-33 -41 0
-33 -49 0
-33 -57 0
-33 -65 0
-41 -49 0
-41 -57 0
-41 -65 0
-49 -57 0
-49 -65 0
-57 -65 0
-2 -10 0
-2 -18 0
-2 -26 0
-2 -34 0
-2 -42 0
-2 -50 0
-2 -58 0
-2 -66 0
-10 -18 0
-10 -26 0
-10 -34 0
-10 -42 0
-10 -50 0
-10 -58 0
-10 -66 0
-18 -26 0
-18 -34 0
-18 -42 0
-18 -50 0
-18 -58 0
-18 -66 0
-26 -34 0
-26 -42 0
-26 -50 0
-26 -58 0
-26 -66 0
-34 -42 0
-34 -50 0
-34 -58 0
-34 -66 0
-42 -50 0
-42 -58 0
-42 -66 0
-50 -58 0
-50 -66 0
-58 -66 0
-3 -11 0
-3 -19 0
-3 -27 0
-3 -35 0
-3 -43 0
-3 -51 0
-3 -59 0
-3 -67 0
-11 -19 0
-11 -27 0
-11 -35 0
-11 -43 0
-11 -51 0
-11 -59 0
-11 -67 0
-19 -27 0
-19 -35 0
-19 -43 0
-19 -51 0
-19 -59 0
-19 -67 0
-27 -35 0
-27 -43 0
-27 -51 0
-27 -59 0
-27 -67 0
-35 -43 0
-35 -51 0
-35 -59 0
-35 -67 0
-43 -51 0
-43 -59 0
-43 -67 0
-51 -59 0
-51 -67 0
-59 -67 0
-4 -12 0
-4 -20 0
-4 -28 0
-4 -36 0
-4 -44 0
-4 -52 0
-4 -60 0
-4 -68 0
-12 -20 0
-12 -28 0
-12 -36 0
-12 -44 0
-12 -52 0
-12 -60 0
-12 -68 0
-20 -28 0
-20 -36 0
-20 -44 0
-20 -52 0
-20 -60 0
-20 -68 0
-28 -36 0
-28 -44 0
-28 -52 0
-28 -60 0
-28 -68 0
-36 -44 0
-36 -52 0
-36 -60 0
-36 -68 0
-44 -52 0
-44 -60 0
-44 -68 0
-52 -60 0
-52 -68 0
-60 -68 0
-5 -13 0
-5 -21 0
-5 -29 0
-5 -37 0
-5 -45 0
-5 -53 0
-5 -61 0
-5 -69 0
-13 -21 0
-13 -29 0
-13 -37 0
-13 -45 0
-13 -53 0
-13 -61 0
-13 -69 0
-21 -29 0
-21 -37 0
-21 -45 0
-21 -53 0
-21 -61 0
-21 -69 0
-29 -37 0
-29 -45 0
-29 -53 0
-29 -61 0
-29 -69 0
-37 -45 0
-37 -53 0
-37 -61 0
-37 -69 0
-45 -53 0
-45 -61 0
-45 -69 0
-53 -61 0
-53 -69 0
-61 -69 0
-6 -14 0
-6 -22 0
-6 -30 0
-6 -38 0
-6 -46 0
-6 -54 0
-6 -62 0
-6 -70 0
-14 -22 0
-14 -30 0
-14 -38 0
-14 -46 0
-14 -54 0
-14 -62 0
-14 -70 0
-22 -30 0
-22 -38 0
-22 -46 0
-22 -54 0
-22 -62 0
-22 -70 0
-30 -38 0
-30 -46 0
-30 -54 0
-30 -62 0
-30 -70 0
-38 -46 0
-38 -54 0
-38 -62 0
-38 -70 0
-46 -54 0
-46 -62 0
-46 -70 0
-54 -62 0
-54 -70 0
-62 -70 0
-7 -15 0
-7 -23 0
-7 -31 0
-7 -39 0
-7 -47 0
-7 -55 0
-7 -63 0
-7 -71 0
-15 -23 0
-15 -31 0
-15 -39 0
-15 -47 0
-15 -55 0
-15 -63 0
-15 -71 0
-23 -31 0
-23 -39 0
-23 -47 0
-23 -55 0
-23 -63 0
-23 -71 0
-31 -39 0
-31 -47 0
-31 -55 0
-31 -63 0
-31 -71 0
-39 -47 0
-39 -55 0
-39 -63 0
-39 -71 0
-47 -55 0
-47 -63 0
-47 -71 0
-55 -63 0
-55 -71 0
-63 -71 0
-8 -16 0
-8 -24 0
-8 -32 0
-8 -40 0
-8 -48 0
-8 -56 0
-8 -64 0
-8 -72 0
-16 -24 0
-16 -32 0
-16 -40 0
-16 -48 0
-16 -56 0
-16 -64 0
-16 -72 0
-24 -32 0
-24 -40 0
-24 -48 0
-24 -56 0
-24 -64 0
-24 -72 0
-32 -40 0
-32 -48 0
-32 -56 0
-32 -64 0
-32 -72 0
-40 -48 0
-40 -56 0
-40 -64 0
-40 -72 0
-48 -56 0
-48 -64 0
-48 -72 0
-56 -64 0
-56 -72 0
-64 -72 0
-73 -82 0
-73 -91 0
-73 -100 0
-73 -109 0
-73 -118 0
-73 -127 0
-73 -136 0
-82 -91 0
-82 -100 0
-82 -109 0
-82 -118 0
-82 -127 0
-82 -136 0
-91 -100 0
-91 -109 0
-91 -118 0
-91 -127 0
-91 -136 0
-100 -109 0
-100 -118 0
-100 -127 0
-100 -136 0
-109 -118 0
-109 -127 0
-109 -136 0
-118 -127 0
-118 -136 0
-127 -136 0
-74 -83 0
-74 -92 0
-74 -101 0
-74 -110 0
-74 -119 0
-74 -128 0
-74 -137 0
-83 -92 0
-83 -101 0
-83 -110 0
-83 -119 0
-83 -128 0
-83 -137 0
-92 -101 0
-92 -110 0
-92 -119 0
-92 -128 0
-92 -137 0
-101 -110 0
-101 -119 0
-101 -128 0
-101 -137 0
-110 -119 0
-110 -128 0
-110 -137 0
-119 -128 0
-119 -137 0
-128 -137 0
-75 -84 0
-75 -93 0
-75 -102 0
-75 -111 0
-75 -120 0
-75 -129 0
-75 -138 0
-84 -93 0
-84 -102 0
-84 -111 0
-84 -120 0
-84 -129 0
-84 -138 0
-93 -102 0
-93 -111 0
-93 -120 0
-93 -129 0
-93 -138 0
-102 -111 0
-102 -120 0
-102 -129 0
-102 -138 0
-111 -120 0
-111 -129 0
-111 -138 0
-120 -129 0
-120 -138 0
-129 -138 0
-76 -85 0
-76 -94 0
-76 -103 0
-76 -112 0
-76 -121 0
-76 -130 0
-76 -139 0
-85 -94 0
-85 -103 0
-85 -112 0
-85 -121 0
-85 -130 0
-85 -139 0
-94 -103 0
-94 -112 0
-94 -121 0
-94 -130 0
-94 -139 0
-103 -112 0
-103 -121 0
-103 -130 0
-103 -139 0
-112 -121 0
-112 -130 0
-112 -139 0
-121 -130 0
-121 -139 0
-130 -139 0
-77 -86 0
-77 -95 0
-77 -104 0
-77 -113 0
-77 -122 0
-77 -131 0
-77 -140 0
-86 -95 0
-86 -104 0
-86 -113 0
-86 -122 0
-86 -131 0
-86 -140 0
-95 -104 0
-95 -113 0
-95 -122 0
-95 -131 0
-95 -140 0
-104 -113 0
-104 -122 0
-104 -131 0
-104 -140 0
-113 -122 0
-113 -131 0
-113 -140 0
-122 -131 0
-122 -140 0
-131 -140 0
-78 -87 0
-78 -96 0
-78 -105 0
-78 -114 0
-78 -123 0
-78 -132 0
-78 -141 0
-87 -96 0
-87 -105 0
-87 -114 0
-87 -123 0
-87 -132 0
-87 -141 0
-96 -105 0
-96 -114 0
-96 -123 0
-96 -132 0
-96 -141 0
-105 -114 0
-105 -123 0
-105 -132 0
-105 -141 0
-114 -123 0
-114 -132 0
-114 -141 0
-123 -132 0
-123 -141 0
-132 -141 0
-79 -88 0
-79 -97 0
-79 -106 0
-79 -115 0
-79 -124 0
-79 -133 0
-79 -142 0
-88 -97 0
-88 -106 0
-88 -115 0
-88 -124 0
-88 -133 0
-88 -142 0
-97 -106 0
-97 -115 0
-97 -124 0
-97 -133 0
-97 -142 0
-106 -115 0
-106 -124 0
-106 -133 0
-106 -142 0
-115 -124 0
-115 -133 0
-115 -142 0
-124 -133 0
-124 -142 0
-133 -142 0
-80 -89 0
-80 -98 0
-80 -107 0
-80 -116 0
-80 -125 0
-80 -134 0
-80 -143 0
-89 -98 0
-89 -107 0
-89 -116 0
-89 -125 0
-89 -134 0
-89 -143 0
-98 -107 0
-98 -116 0
-98 -125 0
-98 -134 0
-98 -143 0
-107 -116 0
-107 -125 0
-107 -134 0
-107 -143 0
-116 -125 0
-116 -134 0
-116 -143 0
-125 -134 0
-125 -143 0
-134 -143 0
-81 -90 0
-81 -99 0
-81 -108 0
-81 -117 0
-81 -126 0
-81 -135 0
-81 -144 0
-90 -99 0
-90 -108 0
-90 -117 0
-90 -126 0
-90 -135 0
-90 -144 0
-99 -108 0
-99 -117 0
-99 -126 0
-99 -135 0
-99 -144 0
-108 -117 0
-108 -126 0
-108 -135 0
-108 -144 0
-117 -126 0
-117 -135 0
-117 -144 0
-126 -135 0
-126 -144 0
-135 -144 0
