c Phase 3 generated performance instance
c family=capacity2_violation
c scale=5
c variant=boundary_low
c noise_percent=0
c expected=UNSATISFIABLE
p cnf 55 946
-1 -2 0
-1 -3 0
-1 -4 0
-1 -5 0
-2 -3 0
-2 -4 0
-2 -5 0
-3 -4 0
-3 -5 0
-4 -5 0
1 2 3 4 5 0
-6 -7 0
-6 -8 0
-6 -9 0
-6 -10 0
-7 -8 0
-7 -9 0
-7 -10 0
-8 -9 0
-8 -10 0
-9 -10 0
6 7 8 9 10 0
-11 -12 0
-11 -13 0
-11 -14 0
-11 -15 0
-12 -13 0
-12 -14 0
-12 -15 0
-13 -14 0
-13 -15 0
-14 -15 0
11 12 13 14 15 0
-16 -17 0
-16 -18 0
-16 -19 0
-16 -20 0
-17 -18 0
-17 -19 0
-17 -20 0
-18 -19 0
-18 -20 0
-19 -20 0
16 17 18 19 20 0
-21 -22 0
-21 -23 0
-21 -24 0
-21 -25 0
-22 -23 0
-22 -24 0
-22 -25 0
-23 -24 0
-23 -25 0
-24 -25 0
21 22 23 24 25 0
-26 -27 0
-26 -28 0
-26 -29 0
-26 -30 0
-27 -28 0
-27 -29 0
-27 -30 0
-28 -29 0
-28 -30 0
-29 -30 0
26 27 28 29 30 0
-31 -32 0
-31 -33 0
-31 -34 0
-31 -35 0
-32 -33 0
-32 -34 0
-32 -35 0
-33 -34 0
-33 -35 0
-34 -35 0
31 32 33 34 35 0
-36 -37 0
-36 -38 0
-36 -39 0
-36 -40 0
-37 -38 0
-37 -39 0
-37 -40 0
-38 -39 0
-38 -40 0
-39 -40 0
36 37 38 39 40 0
-41 -42 0
-41 -43 0
-41 -44 0
-41 -45 0
-42 -43 0
-42 -44 0
-42 -45 0
-43 -44 0
-43 -45 0
-44 -45 0
41 42 43 44 45 0
-46 -47 0
-46 -48 0
-46 -49 0
-46 -50 0
-47 -48 0
-47 -49 0
-47 -50 0
-48 -49 0
-48 -50 0
-49 -50 0
46 47 48 49 50 0
-51 -52 0
-51 -53 0
-51 -54 0
-51 -55 0
-52 -53 0
-52 -54 0
-52 -55 0
-53 -54 0
-53 -55 0
-54 -55 0
51 52 53 54 55 0
-1 -6 -11 0
-1 -6 -16 0
-1 -6 -21 0
-1 -6 -26 0
-1 -6 -31 0
-1 -6 -36 0
-1 -6 -41 0
-1 -6 -46 0
-1 -6 -51 0
-1 -11 -16 0
-1 -11 -21 0
-1 -11 -26 0
-1 -11 -31 0
-1 -11 -36 0
-1 -11 -41 0
-1 -11 -46 0
-1 -11 -51 0
-1 -16 -21 0
-1 -16 -26 0
-1 -16 -31 0
-1 -16 -36 0
-1 -16 -41 0
-1 -16 -46 0
-1 -16 -51 0
-1 -21 -26 0
-1 -21 -31 0
-1 -21 -36 0
-1 -21 -41 0
-1 -21 -46 0
-1 -21 -51 0
-1 -26 -31 0
-1 -26 -36 0
-1 -26 -41 0
-1 -26 -46 0
-1 -26 -51 0
-1 -31 -36 0
-1 -31 -41 0
-1 -31 -46 0
-1 -31 -51 0
-1 -36 -41 0
-1 -36 -46 0
-1 -36 -51 0
-1 -41 -46 0
-1 -41 -51 0
-1 -46 -51 0
-6 -11 -16 0
-6 -11 -21 0
-6 -11 -26 0
-6 -11 -31 0
-6 -11 -36 0
-6 -11 -41 0
-6 -11 -46 0
-6 -11 -51 0
-6 -16 -21 0
-6 -16 -26 0
-6 -16 -31 0
-6 -16 -36 0
-6 -16 -41 0
-6 -16 -46 0
-6 -16 -51 0
-6 -21 -26 0
-6 -21 -31 0
-6 -21 -36 0
-6 -21 -41 0
-6 -21 -46 0
-6 -21 -51 0
-6 -26 -31 0
-6 -26 -36 0
-6 -26 -41 0
-6 -26 -46 0
-6 -26 -51 0
-6 -31 -36 0
-6 -31 -41 0
-6 -31 -46 0
-6 -31 -51 0
-6 -36 -41 0
-6 -36 -46 0
-6 -36 -51 0
-6 -41 -46 0
-6 -41 -51 0
-6 -46 -51 0
-11 -16 -21 0
-11 -16 -26 0
-11 -16 -31 0
-11 -16 -36 0
-11 -16 -41 0
-11 -16 -46 0
-11 -16 -51 0
-11 -21 -26 0
-11 -21 -31 0
-11 -21 -36 0
-11 -21 -41 0
-11 -21 -46 0
-11 -21 -51 0
-11 -26 -31 0
-11 -26 -36 0
-11 -26 -41 0
-11 -26 -46 0
-11 -26 -51 0
-11 -31 -36 0
-11 -31 -41 0
-11 -31 -46 0
-11 -31 -51 0
-11 -36 -41 0
-11 -36 -46 0
-11 -36 -51 0
-11 -41 -46 0
-11 -41 -51 0
-11 -46 -51 0
-16 -21 -26 0
-16 -21 -31 0
-16 -21 -36 0
-16 -21 -41 0
-16 -21 -46 0
-16 -21 -51 0
-16 -26 -31 0
-16 -26 -36 0
-16 -26 -41 0
-16 -26 -46 0
-16 -26 -51 0
-16 -31 -36 0
-16 -31 -41 0
-16 -31 -46 0
-16 -31 -51 0
-16 -36 -41 0
-16 -36 -46 0
-16 -36 -51 0
-16 -41 -46 0
-16 -41 -51 0
-16 -46 -51 0
-21 -26 -31 0
-21 -26 -36 0
-21 -26 -41 0
-21 -26 -46 0
-21 -26 -51 0
-21 -31 -36 0
-21 -31 -41 0
-21 -31 -46 0
-21 -31 -51 0
-21 -36 -41 0
-21 -36 -46 0
-21 -36 -51 0
-21 -41 -46 0
-21 -41 -51 0
-21 -46 -51 0
-26 -31 -36 0
-26 -31 -41 0
-26 -31 -46 0
-26 -31 -51 0
-26 -36 -41 0
-26 -36 -46 0
-26 -36 -51 0
-26 -41 -46 0
-26 -41 -51 0
-26 -46 -51 0
-31 -36 -41 0
-31 -36 -46 0
-31 -36 -51 0
-31 -41 -46 0
-31 -41 -51 0
-31 -46 -51 0
-36 -41 -46 0
-36 -41 -51 0
-36 -46 -51 0
-41 -46 -51 0
-2 -7 -12 0
-2 -7 -17 0
-2 -7 -22 0
-2 -7 -27 0
-2 -7 -32 0
-2 -7 -37 0
-2 -7 -42 0
-2 -7 -47 0
-2 -7 -52 0
-2 -12 -17 0
-2 -12 -22 0
-2 -12 -27 0
-2 -12 -32 0
-2 -12 -37 0
-2 -12 -42 0
-2 -12 -47 0
-2 -12 -52 0
-2 -17 -22 0
-2 -17 -27 0
-2 -17 -32 0
-2 -17 -37 0
-2 -17 -42 0
-2 -17 -47 0
-2 -17 -52 0
-2 -22 -27 0
-2 -22 -32 0
-2 -22 -37 0
-2 -22 -42 0
-2 -22 -47 0
-2 -22 -52 0
-2 -27 -32 0
-2 -27 -37 0
-2 -27 -42 0
-2 -27 -47 0
-2 -27 -52 0
-2 -32 -37 0
-2 -32 -42 0
-2 -32 -47 0
-2 -32 -52 0
-2 -37 -42 0
-2 -37 -47 0
-2 -37 -52 0
-2 -42 -47 0
-2 -42 -52 0
-2 -47 -52 0
-7 -12 -17 0
-7 -12 -22 0
-7 -12 -27 0
-7 -12 -32 0
-7 -12 -37 0
-7 -12 -42 0
-7 -12 -47 0
-7 -12 -52 0
-7 -17 -22 0
-7 -17 -27 0
-7 -17 -32 0
-7 -17 -37 0
-7 -17 -42 0
-7 -17 -47 0
-7 -17 -52 0
-7 -22 -27 0
-7 -22 -32 0
-7 -22 -37 0
-7 -22 -42 0
-7 -22 -47 0
-7 -22 -52 0
-7 -27 -32 0
-7 -27 -37 0
-7 -27 -42 0
-7 -27 -47 0
-7 -27 -52 0
-7 -32 -37 0
-7 -32 -42 0
-7 -32 -47 0
-7 -32 -52 0
-7 -37 -42 0
-7 -37 -47 0
-7 -37 -52 0
-7 -42 -47 0
-7 -42 -52 0
-7 -47 -52 0
-12 -17 -22 0
-12 -17 -27 0
-12 -17 -32 0
-12 -17 -37 0
-12 -17 -42 0
-12 -17 -47 0
-12 -17 -52 0
-12 -22 -27 0
-12 -22 -32 0
-12 -22 -37 0
-12 -22 -42 0
-12 -22 -47 0
-12 -22 -52 0
-12 -27 -32 0
-12 -27 -37 0
-12 -27 -42 0
-12 -27 -47 0
-12 -27 -52 0
-12 -32 -37 0
-12 -32 -42 0
-12 -32 -47 0
-12 -32 -52 0
-12 -37 -42 0
-12 -37 -47 0
-12 -37 -52 0
-12 -42 -47 0
-12 -42 -52 0
-12 -47 -52 0
-17 -22 -27 0
-17 -22 -32 0
-17 -22 -37 0
-17 -22 -42 0
-17 -22 -47 0
-17 -22 -52 0
-17 -27 -32 0
-17 -27 -37 0
-17 -27 -42 0
-17 -27 -47 0
-17 -27 -52 0
-17 -32 -37 0
-17 -32 -42 0
-17 -32 -47 0
-17 -32 -52 0
-17 -37 -42 0
-17 -37 -47 0
-17 -37 -52 0
-17 -42 -47 0
-17 -42 -52 0
-17 -47 -52 0
-22 -27 -32 0
-22 -27 -37 0
-22 -27 -42 0
-22 -27 -47 0
-22 -27 -52 0
-22 -32 -37 0
-22 -32 -42 0
-22 -32 -47 0
-22 -32 -52 0
-22 -37 -42 0
-22 -37 -47 0
-22 -37 -52 0
-22 -42 -47 0
-22 -42 -52 0
-22 -47 -52 0
-27 -32 -37 0
-27 -32 -42 0
-27 -32 -47 0
-27 -32 -52 0
-27 -37 -42 0
-27 -37 -47 0
-27 -37 -52 0
-27 -42 -47 0
-27 -42 -52 0
-27 -47 -52 0
-32 -37 -42 0
-32 -37 -47 0
-32 -37 -52 0
-32 -42 -47 0
-32 -42 -52 0
-32 -47 -52 0
-37 -42 -47 0
-37 -42 -52 0
-37 -47 -52 0
-42 -47 -52 0
-3 -8 -13 0
-3 -8 -18 0
-3 -8 -23 0
-3 -8 -28 0
-3 -8 -33 0
-3 -8 -38 0
-3 -8 -43 0
-3 -8 -48 0
-3 -8 -53 0
-3 -13 -18 0
-3 -13 -23 0
-3 -13 -28 0
-3 -13 -33 0
-3 -13 -38 0
-3 -13 -43 0
-3 -13 -48 0
-3 -13 -53 0
-3 -18 -23 0
-3 -18 -28 0
-3 -18 -33 0
-3 -18 -38 0
-3 -18 -43 0
-3 -18 -48 0
-3 -18 -53 0
-3 -23 -28 0
-3 -23 -33 0
-3 -23 -38 0
-3 -23 -43 0
-3 -23 -48 0
-3 -23 -53 0
-3 -28 -33 0
-3 -28 -38 0
-3 -28 -43 0
-3 -28 -48 0
-3 -28 -53 0
-3 -33 -38 0
-3 -33 -43 0
-3 -33 -48 0
-3 -33 -53 0
-3 -38 -43 0
-3 -38 -48 0
-3 -38 -53 0
-3 -43 -48 0
-3 -43 -53 0
-3 -48 -53 0
-8 -13 -18 0
-8 -13 -23 0
-8 -13 -28 0
-8 -13 -33 0
-8 -13 -38 0
-8 -13 -43 0
-8 -13 -48 0
-8 -13 -53 0
-8 -18 -23 0
-8 -18 -28 0
-8 -18 -33 0
-8 -18 -38 0
-8 -18 -43 0
-8 -18 -48 0
-8 -18 -53 0
-8 -23 -28 0
-8 -23 -33 0
-8 -23 -38 0
-8 -23 -43 0
-8 -23 -48 0
-8 -23 -53 0
-8 -28 -33 0
-8 -28 -38 0
-8 -28 -43 0
-8 -28 -48 0
-8 -28 -53 0
-8 -33 -38 0
-8 -33 -43 0
-8 -33 -48 0
-8 -33 -53 0
-8 -38 -43 0
-8 -38 -48 0
-8 -38 -53 0
-8 -43 -48 0
-8 -43 -53 0
-8 -48 -53 0
-13 -18 -23 0
-13 -18 -28 0
-13 -18 -33 0
-13 -18 -38 0
-13 -18 -43 0
-13 -18 -48 0
-13 -18 -53 0
-13 -23 -28 0
-13 -23 -33 0
-13 -23 -38 0
-13 -23 -43 0
-13 -23 -48 0
-13 -23 -53 0
-13 -28 -33 0
-13 -28 -38 0
-13 -28 -43 0
-13 -28 -48 0
-13 -28 -53 0
-13 -33 -38 0
-13 -33 -43 0
-13 -33 -48 0
-13 -33 -53 0
-13 -38 -43 0
-13 -38 -48 0
-13 -38 -53 0
-13 -43 -48 0
-13 -43 -53 0
-13 -48 -53 0
-18 -23 -28 0
-18 -23 -33 0
-18 -23 -38 0
-18 -23 -43 0
-18 -23 -48 0
-18 -23 -53 0
-18 -28 -33 0
-18 -28 -38 0
-18 -28 -43 0
-18 -28 -48 0
-18 -28 -53 0
-18 -33 -38 0
-18 -33 -43 0
-18 -33 -48 0
-18 -33 -53 0
-18 -38 -43 0
-18 -38 -48 0
-18 -38 -53 0
-18 -43 -48 0
-18 -43 -53 0
-18 -48 -53 0
-23 -28 -33 0
-23 -28 -38 0
-23 -28 -43 0
-23 -28 -48 0
-23 -28 -53 0
-23 -33 -38 0
-23 -33 -43 0
-23 -33 -48 0
-23 -33 -53 0
-23 -38 -43 0
-23 -38 -48 0
-23 -38 -53 0
-23 -43 -48 0
-23 -43 -53 0
-23 -48 -53 0
-28 -33 -38 0
-28 -33 -43 0
-28 -33 -48 0
-28 -33 -53 0
-28 -38 -43 0
-28 -38 -48 0
-28 -38 -53 0
-28 -43 -48 0
-28 -43 -53 0
-28 -48 -53 0
-33 -38 -43 0
-33 -38 -48 0
-33 -38 -53 0
-33 -43 -48 0
-33 -43 -53 0
-33 -48 -53 0
-38 -43 -48 0
-38 -43 -53 0
-38 -48 -53 0
-43 -48 -53 0
-4 -9 -14 0
-4 -9 -19 0
-4 -9 -24 0
-4 -9 -29 0
-4 -9 -34 0
-4 -9 -39 0
-4 -9 -44 0
-4 -9 -49 0
-4 -9 -54 0
-4 -14 -19 0
-4 -14 -24 0
-4 -14 -29 0
-4 -14 -34 0
-4 -14 -39 0
-4 -14 -44 0
-4 -14 -49 0
-4 -14 -54 0
-4 -19 -24 0
-4 -19 -29 0
-4 -19 -34 0
-4 -19 -39 0
-4 -19 -44 0
-4 -19 -49 0
-4 -19 -54 0
-4 -24 -29 0
-4 -24 -34 0
-4 -24 -39 0
-4 -24 -44 0
-4 -24 -49 0
-4 -24 -54 0
-4 -29 -34 0
-4 -29 -39 0
-4 -29 -44 0
-4 -29 -49 0
-4 -29 -54 0
-4 -34 -39 0
-4 -34 -44 0
-4 -34 -49 0
-4 -34 -54 0
-4 -39 -44 0
-4 -39 -49 0
-4 -39 -54 0
-4 -44 -49 0
-4 -44 -54 0
-4 -49 -54 0
-9 -14 -19 0
-9 -14 -24 0
-9 -14 -29 0
-9 -14 -34 0
-9 -14 -39 0
-9 -14 -44 0
-9 -14 -49 0
-9 -14 -54 0
-9 -19 -24 0
-9 -19 -29 0
-9 -19 -34 0
-9 -19 -39 0
-9 -19 -44 0
-9 -19 -49 0
-9 -19 -54 0
-9 -24 -29 0
-9 -24 -34 0
-9 -24 -39 0
-9 -24 -44 0
-9 -24 -49 0
-9 -24 -54 0
-9 -29 -34 0
-9 -29 -39 0
-9 -29 -44 0
-9 -29 -49 0
-9 -29 -54 0
-9 -34 -39 0
-9 -34 -44 0
-9 -34 -49 0
-9 -34 -54 0
-9 -39 -44 0
-9 -39 -49 0
-9 -39 -54 0
-9 -44 -49 0
-9 -44 -54 0
-9 -49 -54 0
-14 -19 -24 0
-14 -19 -29 0
-14 -19 -34 0
-14 -19 -39 0
-14 -19 -44 0
-14 -19 -49 0
-14 -19 -54 0
-14 -24 -29 0
-14 -24 -34 0
-14 -24 -39 0
-14 -24 -44 0
-14 -24 -49 0
-14 -24 -54 0
-14 -29 -34 0
-14 -29 -39 0
-14 -29 -44 0
-14 -29 -49 0
-14 -29 -54 0
-14 -34 -39 0
-14 -34 -44 0
-14 -34 -49 0
-14 -34 -54 0
-14 -39 -44 0
-14 -39 -49 0
-14 -39 -54 0
-14 -44 -49 0
-14 -44 -54 0
-14 -49 -54 0
-19 -24 -29 0
-19 -24 -34 0
-19 -24 -39 0
-19 -24 -44 0
-19 -24 -49 0
-19 -24 -54 0
-19 -29 -34 0
-19 -29 -39 0
-19 -29 -44 0
-19 -29 -49 0
-19 -29 -54 0
-19 -34 -39 0
-19 -34 -44 0
-19 -34 -49 0
-19 -34 -54 0
-19 -39 -44 0
-19 -39 -49 0
-19 -39 -54 0
-19 -44 -49 0
-19 -44 -54 0
-19 -49 -54 0
-24 -29 -34 0
-24 -29 -39 0
-24 -29 -44 0
-24 -29 -49 0
-24 -29 -54 0
-24 -34 -39 0
-24 -34 -44 0
-24 -34 -49 0
-24 -34 -54 0
-24 -39 -44 0
-24 -39 -49 0
-24 -39 -54 0
-24 -44 -49 0
-24 -44 -54 0
-24 -49 -54 0
-29 -34 -39 0
-29 -34 -44 0
-29 -34 -49 0
-29 -34 -54 0
-29 -39 -44 0
-29 -39 -49 0
-29 -39 -54 0
-29 -44 -49 0
-29 -44 -54 0
-29 -49 -54 0
-34 -39 -44 0
-34 -39 -49 0
-34 -39 -54 0
-34 -44 -49 0
-34 -44 -54 0
-34 -49 -54 0
-39 -44 -49 0
-39 -44 -54 0
-39 -49 -54 0
-44 -49 -54 0
-5 -10 -15 0
-5 -10 -20 0
-5 -10 -25 0
-5 -10 -30 0
-5 -10 -35 0
-5 -10 -40 0
-5 -10 -45 0
-5 -10 -50 0
-5 -10 -55 0
-5 -15 -20 0
-5 -15 -25 0
-5 -15 -30 0
-5 -15 -35 0
-5 -15 -40 0
-5 -15 -45 0
-5 -15 -50 0
-5 -15 -55 0
-5 -20 -25 0
-5 -20 -30 0
-5 -20 -35 0
-5 -20 -40 0
-5 -20 -45 0
-5 -20 -50 0
-5 -20 -55 0
-5 -25 -30 0
-5 -25 -35 0
-5 -25 -40 0
-5 -25 -45 0
-5 -25 -50 0
-5 -25 -55 0
-5 -30 -35 0
-5 -30 -40 0
-5 -30 -45 0
-5 -30 -50 0
-5 -30 -55 0
-5 -35 -40 0
-5 -35 -45 0
-5 -35 -50 0
-5 -35 -55 0
-5 -40 -45 0
-5 -40 -50 0
-5 -40 -55 0
-5 -45 -50 0
-5 -45 -55 0
-5 -50 -55 0
-10 -15 -20 0
-10 -15 -25 0
-10 -15 -30 0
-10 -15 -35 0
-10 -15 -40 0
-10 -15 -45 0
-10 -15 -50 0
-10 -15 -55 0
-10 -20 -25 0
-10 -20 -30 0
-10 -20 -35 0
-10 -20 -40 0
-10 -20 -45 0
-10 -20 -50 0
-10 -20 -55 0
-10 -25 -30 0
-10 -25 -35 0
-10 -25 -40 0
-10 -25 -45 0
-10 -25 -50 0
-10 -25 -55 0
-10 -30 -35 0
-10 -30 -40 0
-10 -30 -45 0
-10 -30 -50 0
-10 -30 -55 0
-10 -35 -40 0
-10 -35 -45 0
-10 -35 -50 0
-10 -35 -55 0
-10 -40 -45 0
-10 -40 -50 0
-10 -40 -55 0
-10 -45 -50 0
-10 -45 -55 0
-10 -50 -55 0
-15 -20 -25 0
-15 -20 -30 0
-15 -20 -35 0
-15 -20 -40 0
-15 -20 -45 0
-15 -20 -50 0
-15 -20 -55 0
-15 -25 -30 0
-15 -25 -35 0
-15 -25 -40 0
-15 -25 -45 0
-15 -25 -50 0
-15 -25 -55 0
-15 -30 -35 0
-15 -30 -40 0
-15 -30 -45 0
-15 -30 -50 0
-15 -30 -55 0
-15 -35 -40 0
-15 -35 -45 0
-15 -35 -50 0
-15 -35 -55 0
-15 -40 -45 0
-15 -40 -50 0
-15 -40 -55 0
-15 -45 -50 0
-15 -45 -55 0
-15 -50 -55 0
-20 -25 -30 0
-20 -25 -35 0
-20 -25 -40 0
-20 -25 -45 0
-20 -25 -50 0
-20 -25 -55 0
-20 -30 -35 0
-20 -30 -40 0
-20 -30 -45 0
-20 -30 -50 0
-20 -30 -55 0
-20 -35 -40 0
-20 -35 -45 0
-20 -35 -50 0
-20 -35 -55 0
-20 -40 -45 0
-20 -40 -50 0
-20 -40 -55 0
-20 -45 -50 0
-20 -45 -55 0
-20 -50 -55 0
-25 -30 -35 0
-25 -30 -40 0
-25 -30 -45 0
-25 -30 -50 0
-25 -30 -55 0
-25 -35 -40 0
-25 -35 -45 0
-25 -35 -50 0
-25 -35 -55 0
-25 -40 -45 0
-25 -40 -50 0
-25 -40 -55 0
-25 -45 -50 0
-25 -45 -55 0
-25 -50 -55 0
-30 -35 -40 0
-30 -35 -45 0
-30 -35 -50 0
-30 -35 -55 0
-30 -40 -45 0
-30 -40 -50 0
-30 -40 -55 0
-30 -45 -50 0
-30 -45 -55 0
-30 -50 -55 0
-35 -40 -45 0
-35 -40 -50 0
-35 -40 -55 0
-35 -45 -50 0
-35 -45 -55 0
-35 -50 -55 0
-40 -45 -50 0
-40 -45 -55 0
-40 -50 -55 0
-45 -50 -55 0
