c Phase 3 generated performance instance
c family=capacity2_violation
c scale=5
c variant=noise100
c noise_percent=100
c expected=UNSATISFIABLE
p cnf 528 1892
-1 -2 0
-1 -3 0
-1 -4 0
-1 -5 0
-2 -3 0
-2 -4 0
-2 -5 0
-3 -4 0
-3 -5 0
-4 -5 0
1 2 3 4 5 0
-6 -7 0
-6 -8 0
-6 -9 0
-6 -10 0
-7 -8 0
-7 -9 0
-7 -10 0
-8 -9 0
-8 -10 0
-9 -10 0
6 7 8 9 10 0
-11 -12 0
-11 -13 0
-11 -14 0
-11 -15 0
-12 -13 0
-12 -14 0
-12 -15 0
-13 -14 0
-13 -15 0
-14 -15 0
11 12 13 14 15 0
-16 -17 0
-16 -18 0
-16 -19 0
-16 -20 0
-17 -18 0
-17 -19 0
-17 -20 0
-18 -19 0
-18 -20 0
-19 -20 0
16 17 18 19 20 0
-21 -22 0
-21 -23 0
-21 -24 0
-21 -25 0
-22 -23 0
-22 -24 0
-22 -25 0
-23 -24 0
-23 -25 0
-24 -25 0
21 22 23 24 25 0
-26 -27 0
-26 -28 0
-26 -29 0
-26 -30 0
-27 -28 0
-27 -29 0
-27 -30 0
-28 -29 0
-28 -30 0
-29 -30 0
26 27 28 29 30 0
-31 -32 0
-31 -33 0
-31 -34 0
-31 -35 0
-32 -33 0
-32 -34 0
-32 -35 0
-33 -34 0
-33 -35 0
-34 -35 0
31 32 33 34 35 0
-36 -37 0
-36 -38 0
-36 -39 0
-36 -40 0
-37 -38 0
-37 -39 0
-37 -40 0
-38 -39 0
-38 -40 0
-39 -40 0
36 37 38 39 40 0
-41 -42 0
-41 -43 0
-41 -44 0
-41 -45 0
-42 -43 0
-42 -44 0
-42 -45 0
-43 -44 0
-43 -45 0
-44 -45 0
41 42 43 44 45 0
-46 -47 0
-46 -48 0
-46 -49 0
-46 -50 0
-47 -48 0
-47 -49 0
-47 -50 0
-48 -49 0
-48 -50 0
-49 -50 0
46 47 48 49 50 0
-51 -52 0
-51 -53 0
-51 -54 0
-51 -55 0
-52 -53 0
-52 -54 0
-52 -55 0
-53 -54 0
-53 -55 0
-54 -55 0
51 52 53 54 55 0
-1 -6 -11 0
-1 -6 -16 0
-1 -6 -21 0
-1 -6 -26 0
-1 -6 -31 0
-1 -6 -36 0
-1 -6 -41 0
-1 -6 -46 0
-1 -6 -51 0
-1 -11 -16 0
-1 -11 -21 0
-1 -11 -26 0
-1 -11 -31 0
-1 -11 -36 0
-1 -11 -41 0
-1 -11 -46 0
-1 -11 -51 0
-1 -16 -21 0
-1 -16 -26 0
-1 -16 -31 0
-1 -16 -36 0
-1 -16 -41 0
-1 -16 -46 0
-1 -16 -51 0
-1 -21 -26 0
-1 -21 -31 0
-1 -21 -36 0
-1 -21 -41 0
-1 -21 -46 0
-1 -21 -51 0
-1 -26 -31 0
-1 -26 -36 0
-1 -26 -41 0
-1 -26 -46 0
-1 -26 -51 0
-1 -31 -36 0
-1 -31 -41 0
-1 -31 -46 0
-1 -31 -51 0
-1 -36 -41 0
-1 -36 -46 0
-1 -36 -51 0
-1 -41 -46 0
-1 -41 -51 0
-1 -46 -51 0
-6 -11 -16 0
-6 -11 -21 0
-6 -11 -26 0
-6 -11 -31 0
-6 -11 -36 0
-6 -11 -41 0
-6 -11 -46 0
-6 -11 -51 0
-6 -16 -21 0
-6 -16 -26 0
-6 -16 -31 0
-6 -16 -36 0
-6 -16 -41 0
-6 -16 -46 0
-6 -16 -51 0
-6 -21 -26 0
-6 -21 -31 0
-6 -21 -36 0
-6 -21 -41 0
-6 -21 -46 0
-6 -21 -51 0
-6 -26 -31 0
-6 -26 -36 0
-6 -26 -41 0
-6 -26 -46 0
-6 -26 -51 0
-6 -31 -36 0
-6 -31 -41 0
-6 -31 -46 0
-6 -31 -51 0
-6 -36 -41 0
-6 -36 -46 0
-6 -36 -51 0
-6 -41 -46 0
-6 -41 -51 0
-6 -46 -51 0
-11 -16 -21 0
-11 -16 -26 0
-11 -16 -31 0
-11 -16 -36 0
-11 -16 -41 0
-11 -16 -46 0
-11 -16 -51 0
-11 -21 -26 0
-11 -21 -31 0
-11 -21 -36 0
-11 -21 -41 0
-11 -21 -46 0
-11 -21 -51 0
-11 -26 -31 0
-11 -26 -36 0
-11 -26 -41 0
-11 -26 -46 0
-11 -26 -51 0
-11 -31 -36 0
-11 -31 -41 0
-11 -31 -46 0
-11 -31 -51 0
-11 -36 -41 0
-11 -36 -46 0
-11 -36 -51 0
-11 -41 -46 0
-11 -41 -51 0
-11 -46 -51 0
-16 -21 -26 0
-16 -21 -31 0
-16 -21 -36 0
-16 -21 -41 0
-16 -21 -46 0
-16 -21 -51 0
-16 -26 -31 0
-16 -26 -36 0
-16 -26 -41 0
-16 -26 -46 0
-16 -26 -51 0
-16 -31 -36 0
-16 -31 -41 0
-16 -31 -46 0
-16 -31 -51 0
-16 -36 -41 0
-16 -36 -46 0
-16 -36 -51 0
-16 -41 -46 0
-16 -41 -51 0
-16 -46 -51 0
-21 -26 -31 0
-21 -26 -36 0
-21 -26 -41 0
-21 -26 -46 0
-21 -26 -51 0
-21 -31 -36 0
-21 -31 -41 0
-21 -31 -46 0
-21 -31 -51 0
-21 -36 -41 0
-21 -36 -46 0
-21 -36 -51 0
-21 -41 -46 0
-21 -41 -51 0
-21 -46 -51 0
-26 -31 -36 0
-26 -31 -41 0
-26 -31 -46 0
-26 -31 -51 0
-26 -36 -41 0
-26 -36 -46 0
-26 -36 -51 0
-26 -41 -46 0
-26 -41 -51 0
-26 -46 -51 0
-31 -36 -41 0
-31 -36 -46 0
-31 -36 -51 0
-31 -41 -46 0
-31 -41 -51 0
-31 -46 -51 0
-36 -41 -46 0
-36 -41 -51 0
-36 -46 -51 0
-41 -46 -51 0
-2 -7 -12 0
-2 -7 -17 0
-2 -7 -22 0
-2 -7 -27 0
-2 -7 -32 0
-2 -7 -37 0
-2 -7 -42 0
-2 -7 -47 0
-2 -7 -52 0
-2 -12 -17 0
-2 -12 -22 0
-2 -12 -27 0
-2 -12 -32 0
-2 -12 -37 0
-2 -12 -42 0
-2 -12 -47 0
-2 -12 -52 0
-2 -17 -22 0
-2 -17 -27 0
-2 -17 -32 0
-2 -17 -37 0
-2 -17 -42 0
-2 -17 -47 0
-2 -17 -52 0
-2 -22 -27 0
-2 -22 -32 0
-2 -22 -37 0
-2 -22 -42 0
-2 -22 -47 0
-2 -22 -52 0
-2 -27 -32 0
-2 -27 -37 0
-2 -27 -42 0
-2 -27 -47 0
-2 -27 -52 0
-2 -32 -37 0
-2 -32 -42 0
-2 -32 -47 0
-2 -32 -52 0
-2 -37 -42 0
-2 -37 -47 0
-2 -37 -52 0
-2 -42 -47 0
-2 -42 -52 0
-2 -47 -52 0
-7 -12 -17 0
-7 -12 -22 0
-7 -12 -27 0
-7 -12 -32 0
-7 -12 -37 0
-7 -12 -42 0
-7 -12 -47 0
-7 -12 -52 0
-7 -17 -22 0
-7 -17 -27 0
-7 -17 -32 0
-7 -17 -37 0
-7 -17 -42 0
-7 -17 -47 0
-7 -17 -52 0
-7 -22 -27 0
-7 -22 -32 0
-7 -22 -37 0
-7 -22 -42 0
-7 -22 -47 0
-7 -22 -52 0
-7 -27 -32 0
-7 -27 -37 0
-7 -27 -42 0
-7 -27 -47 0
-7 -27 -52 0
-7 -32 -37 0
-7 -32 -42 0
-7 -32 -47 0
-7 -32 -52 0
-7 -37 -42 0
-7 -37 -47 0
-7 -37 -52 0
-7 -42 -47 0
-7 -42 -52 0
-7 -47 -52 0
-12 -17 -22 0
-12 -17 -27 0
-12 -17 -32 0
-12 -17 -37 0
-12 -17 -42 0
-12 -17 -47 0
-12 -17 -52 0
-12 -22 -27 0
-12 -22 -32 0
-12 -22 -37 0
-12 -22 -42 0
-12 -22 -47 0
-12 -22 -52 0
-12 -27 -32 0
-12 -27 -37 0
-12 -27 -42 0
-12 -27 -47 0
-12 -27 -52 0
-12 -32 -37 0
-12 -32 -42 0
-12 -32 -47 0
-12 -32 -52 0
-12 -37 -42 0
-12 -37 -47 0
-12 -37 -52 0
-12 -42 -47 0
-12 -42 -52 0
-12 -47 -52 0
-17 -22 -27 0
-17 -22 -32 0
-17 -22 -37 0
-17 -22 -42 0
-17 -22 -47 0
-17 -22 -52 0
-17 -27 -32 0
-17 -27 -37 0
-17 -27 -42 0
-17 -27 -47 0
-17 -27 -52 0
-17 -32 -37 0
-17 -32 -42 0
-17 -32 -47 0
-17 -32 -52 0
-17 -37 -42 0
-17 -37 -47 0
-17 -37 -52 0
-17 -42 -47 0
-17 -42 -52 0
-17 -47 -52 0
-22 -27 -32 0
-22 -27 -37 0
-22 -27 -42 0
-22 -27 -47 0
-22 -27 -52 0
-22 -32 -37 0
-22 -32 -42 0
-22 -32 -47 0
-22 -32 -52 0
-22 -37 -42 0
-22 -37 -47 0
-22 -37 -52 0
-22 -42 -47 0
-22 -42 -52 0
-22 -47 -52 0
-27 -32 -37 0
-27 -32 -42 0
-27 -32 -47 0
-27 -32 -52 0
-27 -37 -42 0
-27 -37 -47 0
-27 -37 -52 0
-27 -42 -47 0
-27 -42 -52 0
-27 -47 -52 0
-32 -37 -42 0
-32 -37 -47 0
-32 -37 -52 0
-32 -42 -47 0
-32 -42 -52 0
-32 -47 -52 0
-37 -42 -47 0
-37 -42 -52 0
-37 -47 -52 0
-42 -47 -52 0
-3 -8 -13 0
-3 -8 -18 0
-3 -8 -23 0
-3 -8 -28 0
-3 -8 -33 0
-3 -8 -38 0
-3 -8 -43 0
-3 -8 -48 0
-3 -8 -53 0
-3 -13 -18 0
-3 -13 -23 0
-3 -13 -28 0
-3 -13 -33 0
-3 -13 -38 0
-3 -13 -43 0
-3 -13 -48 0
-3 -13 -53 0
-3 -18 -23 0
-3 -18 -28 0
-3 -18 -33 0
-3 -18 -38 0
-3 -18 -43 0
-3 -18 -48 0
-3 -18 -53 0
-3 -23 -28 0
-3 -23 -33 0
-3 -23 -38 0
-3 -23 -43 0
-3 -23 -48 0
-3 -23 -53 0
-3 -28 -33 0
-3 -28 -38 0
-3 -28 -43 0
-3 -28 -48 0
-3 -28 -53 0
-3 -33 -38 0
-3 -33 -43 0
-3 -33 -48 0
-3 -33 -53 0
-3 -38 -43 0
-3 -38 -48 0
-3 -38 -53 0
-3 -43 -48 0
-3 -43 -53 0
-3 -48 -53 0
-8 -13 -18 0
-8 -13 -23 0
-8 -13 -28 0
-8 -13 -33 0
-8 -13 -38 0
-8 -13 -43 0
-8 -13 -48 0
-8 -13 -53 0
-8 -18 -23 0
-8 -18 -28 0
-8 -18 -33 0
-8 -18 -38 0
-8 -18 -43 0
-8 -18 -48 0
-8 -18 -53 0
-8 -23 -28 0
-8 -23 -33 0
-8 -23 -38 0
-8 -23 -43 0
-8 -23 -48 0
-8 -23 -53 0
-8 -28 -33 0
-8 -28 -38 0
-8 -28 -43 0
-8 -28 -48 0
-8 -28 -53 0
-8 -33 -38 0
-8 -33 -43 0
-8 -33 -48 0
-8 -33 -53 0
-8 -38 -43 0
-8 -38 -48 0
-8 -38 -53 0
-8 -43 -48 0
-8 -43 -53 0
-8 -48 -53 0
-13 -18 -23 0
-13 -18 -28 0
-13 -18 -33 0
-13 -18 -38 0
-13 -18 -43 0
-13 -18 -48 0
-13 -18 -53 0
-13 -23 -28 0
-13 -23 -33 0
-13 -23 -38 0
-13 -23 -43 0
-13 -23 -48 0
-13 -23 -53 0
-13 -28 -33 0
-13 -28 -38 0
-13 -28 -43 0
-13 -28 -48 0
-13 -28 -53 0
-13 -33 -38 0
-13 -33 -43 0
-13 -33 -48 0
-13 -33 -53 0
-13 -38 -43 0
-13 -38 -48 0
-13 -38 -53 0
-13 -43 -48 0
-13 -43 -53 0
-13 -48 -53 0
-18 -23 -28 0
-18 -23 -33 0
-18 -23 -38 0
-18 -23 -43 0
-18 -23 -48 0
-18 -23 -53 0
-18 -28 -33 0
-18 -28 -38 0
-18 -28 -43 0
-18 -28 -48 0
-18 -28 -53 0
-18 -33 -38 0
-18 -33 -43 0
-18 -33 -48 0
-18 -33 -53 0
-18 -38 -43 0
-18 -38 -48 0
-18 -38 -53 0
-18 -43 -48 0
-18 -43 -53 0
-18 -48 -53 0
-23 -28 -33 0
-23 -28 -38 0
-23 -28 -43 0
-23 -28 -48 0
-23 -28 -53 0
-23 -33 -38 0
-23 -33 -43 0
-23 -33 -48 0
-23 -33 -53 0
-23 -38 -43 0
-23 -38 -48 0
-23 -38 -53 0
-23 -43 -48 0
-23 -43 -53 0
-23 -48 -53 0
-28 -33 -38 0
-28 -33 -43 0
-28 -33 -48 0
-28 -33 -53 0
-28 -38 -43 0
-28 -38 -48 0
-28 -38 -53 0
-28 -43 -48 0
-28 -43 -53 0
-28 -48 -53 0
-33 -38 -43 0
-33 -38 -48 0
-33 -38 -53 0
-33 -43 -48 0
-33 -43 -53 0
-33 -48 -53 0
-38 -43 -48 0
-38 -43 -53 0
-38 -48 -53 0
-43 -48 -53 0
-4 -9 -14 0
-4 -9 -19 0
-4 -9 -24 0
-4 -9 -29 0
-4 -9 -34 0
-4 -9 -39 0
-4 -9 -44 0
-4 -9 -49 0
-4 -9 -54 0
-4 -14 -19 0
-4 -14 -24 0
-4 -14 -29 0
-4 -14 -34 0
-4 -14 -39 0
-4 -14 -44 0
-4 -14 -49 0
-4 -14 -54 0
-4 -19 -24 0
-4 -19 -29 0
-4 -19 -34 0
-4 -19 -39 0
-4 -19 -44 0
-4 -19 -49 0
-4 -19 -54 0
-4 -24 -29 0
-4 -24 -34 0
-4 -24 -39 0
-4 -24 -44 0
-4 -24 -49 0
-4 -24 -54 0
-4 -29 -34 0
-4 -29 -39 0
-4 -29 -44 0
-4 -29 -49 0
-4 -29 -54 0
-4 -34 -39 0
-4 -34 -44 0
-4 -34 -49 0
-4 -34 -54 0
-4 -39 -44 0
-4 -39 -49 0
-4 -39 -54 0
-4 -44 -49 0
-4 -44 -54 0
-4 -49 -54 0
-9 -14 -19 0
-9 -14 -24 0
-9 -14 -29 0
-9 -14 -34 0
-9 -14 -39 0
-9 -14 -44 0
-9 -14 -49 0
-9 -14 -54 0
-9 -19 -24 0
-9 -19 -29 0
-9 -19 -34 0
-9 -19 -39 0
-9 -19 -44 0
-9 -19 -49 0
-9 -19 -54 0
-9 -24 -29 0
-9 -24 -34 0
-9 -24 -39 0
-9 -24 -44 0
-9 -24 -49 0
-9 -24 -54 0
-9 -29 -34 0
-9 -29 -39 0
-9 -29 -44 0
-9 -29 -49 0
-9 -29 -54 0
-9 -34 -39 0
-9 -34 -44 0
-9 -34 -49 0
-9 -34 -54 0
-9 -39 -44 0
-9 -39 -49 0
-9 -39 -54 0
-9 -44 -49 0
-9 -44 -54 0
-9 -49 -54 0
-14 -19 -24 0
-14 -19 -29 0
-14 -19 -34 0
-14 -19 -39 0
-14 -19 -44 0
-14 -19 -49 0
-14 -19 -54 0
-14 -24 -29 0
-14 -24 -34 0
-14 -24 -39 0
-14 -24 -44 0
-14 -24 -49 0
-14 -24 -54 0
-14 -29 -34 0
-14 -29 -39 0
-14 -29 -44 0
-14 -29 -49 0
-14 -29 -54 0
-14 -34 -39 0
-14 -34 -44 0
-14 -34 -49 0
-14 -34 -54 0
-14 -39 -44 0
-14 -39 -49 0
-14 -39 -54 0
-14 -44 -49 0
-14 -44 -54 0
-14 -49 -54 0
-19 -24 -29 0
-19 -24 -34 0
-19 -24 -39 0
-19 -24 -44 0
-19 -24 -49 0
-19 -24 -54 0
-19 -29 -34 0
-19 -29 -39 0
-19 -29 -44 0
-19 -29 -49 0
-19 -29 -54 0
-19 -34 -39 0
-19 -34 -44 0
-19 -34 -49 0
-19 -34 -54 0
-19 -39 -44 0
-19 -39 -49 0
-19 -39 -54 0
-19 -44 -49 0
-19 -44 -54 0
-19 -49 -54 0
-24 -29 -34 0
-24 -29 -39 0
-24 -29 -44 0
-24 -29 -49 0
-24 -29 -54 0
-24 -34 -39 0
-24 -34 -44 0
-24 -34 -49 0
-24 -34 -54 0
-24 -39 -44 0
-24 -39 -49 0
-24 -39 -54 0
-24 -44 -49 0
-24 -44 -54 0
-24 -49 -54 0
-29 -34 -39 0
-29 -34 -44 0
-29 -34 -49 0
-29 -34 -54 0
-29 -39 -44 0
-29 -39 -49 0
-29 -39 -54 0
-29 -44 -49 0
-29 -44 -54 0
-29 -49 -54 0
-34 -39 -44 0
-34 -39 -49 0
-34 -39 -54 0
-34 -44 -49 0
-34 -44 -54 0
-34 -49 -54 0
-39 -44 -49 0
-39 -44 -54 0
-39 -49 -54 0
-44 -49 -54 0
-5 -10 -15 0
-5 -10 -20 0
-5 -10 -25 0
-5 -10 -30 0
-5 -10 -35 0
-5 -10 -40 0
-5 -10 -45 0
-5 -10 -50 0
-5 -10 -55 0
-5 -15 -20 0
-5 -15 -25 0
-5 -15 -30 0
-5 -15 -35 0
-5 -15 -40 0
-5 -15 -45 0
-5 -15 -50 0
-5 -15 -55 0
-5 -20 -25 0
-5 -20 -30 0
-5 -20 -35 0
-5 -20 -40 0
-5 -20 -45 0
-5 -20 -50 0
-5 -20 -55 0
-5 -25 -30 0
-5 -25 -35 0
-5 -25 -40 0
-5 -25 -45 0
-5 -25 -50 0
-5 -25 -55 0
-5 -30 -35 0
-5 -30 -40 0
-5 -30 -45 0
-5 -30 -50 0
-5 -30 -55 0
-5 -35 -40 0
-5 -35 -45 0
-5 -35 -50 0
-5 -35 -55 0
-5 -40 -45 0
-5 -40 -50 0
-5 -40 -55 0
-5 -45 -50 0
-5 -45 -55 0
-5 -50 -55 0
-10 -15 -20 0
-10 -15 -25 0
-10 -15 -30 0
-10 -15 -35 0
-10 -15 -40 0
-10 -15 -45 0
-10 -15 -50 0
-10 -15 -55 0
-10 -20 -25 0
-10 -20 -30 0
-10 -20 -35 0
-10 -20 -40 0
-10 -20 -45 0
-10 -20 -50 0
-10 -20 -55 0
-10 -25 -30 0
-10 -25 -35 0
-10 -25 -40 0
-10 -25 -45 0
-10 -25 -50 0
-10 -25 -55 0
-10 -30 -35 0
-10 -30 -40 0
-10 -30 -45 0
-10 -30 -50 0
-10 -30 -55 0
-10 -35 -40 0
-10 -35 -45 0
-10 -35 -50 0
-10 -35 -55 0
-10 -40 -45 0
-10 -40 -50 0
-10 -40 -55 0
-10 -45 -50 0
-10 -45 -55 0
-10 -50 -55 0
-15 -20 -25 0
-15 -20 -30 0
-15 -20 -35 0
-15 -20 -40 0
-15 -20 -45 0
-15 -20 -50 0
-15 -20 -55 0
-15 -25 -30 0
-15 -25 -35 0
-15 -25 -40 0
-15 -25 -45 0
-15 -25 -50 0
-15 -25 -55 0
-15 -30 -35 0
-15 -30 -40 0
-15 -30 -45 0
-15 -30 -50 0
-15 -30 -55 0
-15 -35 -40 0
-15 -35 -45 0
-15 -35 -50 0
-15 -35 -55 0
-15 -40 -45 0
-15 -40 -50 0
-15 -40 -55 0
-15 -45 -50 0
-15 -45 -55 0
-15 -50 -55 0
-20 -25 -30 0
-20 -25 -35 0
-20 -25 -40 0
-20 -25 -45 0
-20 -25 -50 0
-20 -25 -55 0
-20 -30 -35 0
-20 -30 -40 0
-20 -30 -45 0
-20 -30 -50 0
-20 -30 -55 0
-20 -35 -40 0
-20 -35 -45 0
-20 -35 -50 0
-20 -35 -55 0
-20 -40 -45 0
-20 -40 -50 0
-20 -40 -55 0
-20 -45 -50 0
-20 -45 -55 0
-20 -50 -55 0
-25 -30 -35 0
-25 -30 -40 0
-25 -30 -45 0
-25 -30 -50 0
-25 -30 -55 0
-25 -35 -40 0
-25 -35 -45 0
-25 -35 -50 0
-25 -35 -55 0
-25 -40 -45 0
-25 -40 -50 0
-25 -40 -55 0
-25 -45 -50 0
-25 -45 -55 0
-25 -50 -55 0
-30 -35 -40 0
-30 -35 -45 0
-30 -35 -50 0
-30 -35 -55 0
-30 -40 -45 0
-30 -40 -50 0
-30 -40 -55 0
-30 -45 -50 0
-30 -45 -55 0
-30 -50 -55 0
-35 -40 -45 0
-35 -40 -50 0
-35 -40 -55 0
-35 -45 -50 0
-35 -45 -55 0
-35 -50 -55 0
-40 -45 -50 0
-40 -45 -55 0
-40 -50 -55 0
-45 -50 -55 0
-98 401 415 0
449 -471 -473 0
67 -136 286 0
-88 190 369 0
-70 -114 -243 0
107 119 -213 0
-253 334 -345 0
-385 411 -447 0
123 -451 484 0
-99 227 -327 0
-255 -383 -400 0
117 315 -377 0
-203 303 451 0
-72 112 -320 0
-108 -238 -452 0
135 -256 509 0
158 331 422 0
77 310 -479 0
80 -320 -359 0
-93 -213 514 0
362 404 -470 0
-100 -172 334 0
-56 170 -451 0
118 347 477 0
223 293 -420 0
284 369 398 0
-356 424 509 0
73 227 -392 0
-269 -416 506 0
79 -113 199 0
-242 370 -497 0
300 407 -492 0
-156 -190 -425 0
163 183 186 0
-56 -84 -524 0
-68 396 -498 0
-172 178 -429 0
74 -126 464 0
-86 229 -294 0
-191 -409 503 0
-200 -330 337 0
-82 -228 -435 0
-170 -301 -491 0
196 -350 -429 0
-122 170 -390 0
227 -286 492 0
132 -443 -473 0
218 -237 -285 0
151 205 -346 0
365 384 -390 0
-263 -357 -521 0
373 -389 -502 0
-188 -423 -448 0
258 326 512 0
-193 292 -319 0
-65 -78 -163 0
59 386 406 0
-164 183 288 0
-215 521 -522 0
214 273 353 0
129 233 -342 0
-95 -247 419 0
-64 -177 487 0
197 -275 -321 0
263 394 -485 0
103 315 -396 0
58 -116 -420 0
-191 464 479 0
82 -97 310 0
272 280 -419 0
94 -96 -356 0
86 -149 -376 0
-186 -380 -451 0
222 288 415 0
194 -481 500 0
-95 285 -369 0
-146 -155 -215 0
-318 -443 -457 0
170 -307 -492 0
149 303 409 0
367 -495 524 0
81 -182 465 0
-66 145 -278 0
121 -379 -389 0
76 -225 -309 0
-88 217 -238 0
-266 380 -479 0
75 340 418 0
270 -274 -429 0
164 -304 -343 0
-99 -421 -524 0
100 -170 305 0
128 145 -426 0
-281 461 512 0
-68 -110 -447 0
-70 -251 316 0
334 -335 511 0
-279 341 -395 0
-356 -361 -479 0
-149 -178 -457 0
-325 -360 391 0
213 319 413 0
-152 -242 -409 0
196 329 336 0
-115 148 -453 0
57 273 -369 0
-99 381 414 0
-403 -451 525 0
-191 259 -346 0
370 381 487 0
66 -222 -511 0
201 274 434 0
112 -291 -409 0
264 -295 485 0
344 -439 -478 0
-112 -142 320 0
-180 228 426 0
133 -340 371 0
87 -99 -138 0
161 -263 469 0
57 -241 -362 0
74 -294 488 0
-92 237 447 0
99 -311 416 0
-173 -234 -527 0
291 -334 -368 0
264 386 414 0
-190 226 -314 0
231 484 507 0
91 -238 -280 0
-169 382 -504 0
-152 240 489 0
-397 -451 -495 0
-125 156 174 0
97 380 -390 0
-91 138 -252 0
-203 250 -437 0
232 -233 252 0
-433 -469 -496 0
-140 -279 -348 0
-134 403 451 0
372 -513 525 0
-58 106 517 0
-163 293 -487 0
-111 175 436 0
57 -69 -512 0
343 457 -524 0
-62 -203 221 0
-97 360 364 0
232 343 512 0
111 148 -216 0
-108 -400 -519 0
-189 271 -394 0
-116 -415 -417 0
258 -275 381 0
185 -271 380 0
-128 461 527 0
-233 330 -508 0
91 -327 -452 0
111 270 -516 0
-60 -96 485 0
-108 300 -494 0
-257 -358 -413 0
-462 -489 -523 0
124 380 384 0
-242 -287 493 0
124 326 -369 0
-180 -206 382 0
-116 187 525 0
-79 369 -394 0
-145 184 -346 0
153 432 505 0
227 -324 336 0
-348 -378 450 0
-214 -226 -456 0
79 85 270 0
64 223 -263 0
-78 -113 -446 0
145 453 492 0
-97 -133 -478 0
-337 -381 -518 0
-75 -239 -418 0
-128 -345 481 0
-271 -413 528 0
102 -153 359 0
-154 275 -392 0
75 86 327 0
-125 226 258 0
-227 232 -288 0
85 316 -500 0
-160 -250 -422 0
-331 -443 -455 0
108 -240 283 0
-138 -297 -308 0
329 -495 514 0
-170 186 -498 0
60 -93 -292 0
-76 -476 490 0
-185 -351 -478 0
158 -375 -519 0
245 302 -307 0
-136 160 363 0
-330 -383 -431 0
-128 -223 371 0
207 261 -265 0
-158 336 -483 0
289 -403 -507 0
276 380 -381 0
-254 413 -478 0
255 -268 369 0
133 -391 -522 0
-251 269 -342 0
190 -264 281 0
-262 354 389 0
75 -174 458 0
206 -258 -394 0
-79 -333 -479 0
-344 345 458 0
-60 154 197 0
184 209 424 0
-142 251 -524 0
-325 -334 -395 0
108 -113 365 0
-163 -333 342 0
254 -409 -509 0
120 -279 330 0
-241 -324 -506 0
-127 -144 -325 0
-305 314 -450 0
171 505 -520 0
-229 -256 389 0
361 -396 503 0
-281 -342 -410 0
-129 -280 400 0
210 -294 417 0
322 458 -476 0
-73 405 438 0
148 273 329 0
-208 -341 414 0
-81 -130 309 0
-62 -294 446 0
159 -241 -307 0
452 454 -520 0
70 -391 -445 0
132 -147 -441 0
-172 -378 413 0
125 -228 483 0
369 -486 519 0
217 -248 381 0
-251 285 385 0
285 -312 -364 0
-144 476 -511 0
62 -106 329 0
96 -338 -351 0
-112 227 397 0
71 375 -415 0
-156 436 -478 0
-239 384 -394 0
294 -365 415 0
382 -476 485 0
71 347 518 0
72 138 301 0
78 -355 375 0
101 -282 -491 0
-157 -262 -461 0
-86 169 -355 0
142 -230 -276 0
161 -216 -345 0
-437 485 -519 0
82 188 -201 0
-207 438 492 0
185 396 448 0
-65 -149 481 0
181 311 -441 0
-260 279 414 0
316 -329 -369 0
59 -92 467 0
82 -330 -384 0
-143 -311 -374 0
-58 141 -302 0
-131 340 -517 0
95 131 -338 0
-115 169 -274 0
204 -405 432 0
126 163 525 0
-117 354 415 0
64 -119 252 0
-375 403 -485 0
184 311 391 0
-111 227 371 0
-142 257 -464 0
195 329 426 0
68 208 -274 0
-169 -325 514 0
-117 218 -383 0
148 -164 -247 0
-184 232 287 0
374 381 401 0
-197 -222 371 0
68 -131 347 0
79 -473 508 0
61 -226 291 0
155 179 -374 0
-179 -343 388 0
-142 -342 458 0
-147 228 -418 0
126 171 320 0
-185 255 266 0
-68 -229 -510 0
180 -433 -451 0
156 283 369 0
-113 250 388 0
262 479 -509 0
155 341 426 0
-334 446 495 0
-90 154 391 0
-405 426 526 0
-174 474 495 0
172 333 336 0
-436 -478 -483 0
141 -354 383 0
185 255 -512 0
-115 -285 298 0
233 -315 352 0
-102 -149 -200 0
-309 399 448 0
339 -410 -419 0
138 -216 -218 0
226 403 465 0
117 -301 -361 0
-200 345 357 0
-291 -448 501 0
-140 448 -483 0
-75 -172 -299 0
-216 369 397 0
-85 110 -503 0
-220 -263 -474 0
-334 365 -475 0
-416 -475 481 0
400 405 457 0
72 -216 228 0
231 -356 420 0
-163 -347 453 0
-184 390 -512 0
-110 -346 406 0
-165 -440 -515 0
-145 -246 451 0
-74 -295 381 0
-256 450 -491 0
-241 410 448 0
-135 -243 -439 0
320 -496 -521 0
-134 -163 -435 0
-57 -407 453 0
-73 -112 -360 0
66 -269 -384 0
-223 413 -422 0
129 313 485 0
156 -463 -527 0
-80 151 -390 0
136 233 264 0
-120 227 -452 0
-228 351 -457 0
277 354 361 0
-101 196 -344 0
159 -396 -481 0
-145 -247 -358 0
-65 165 443 0
-88 421 -428 0
-109 111 278 0
-57 255 294 0
223 -364 433 0
147 -168 -399 0
59 -275 -429 0
-225 -487 -493 0
-278 -296 423 0
200 -328 435 0
360 361 -380 0
-185 271 286 0
84 -406 -505 0
-384 388 -432 0
-59 472 477 0
230 331 -501 0
-298 -327 527 0
172 -245 374 0
241 356 519 0
144 171 196 0
222 293 -432 0
108 -173 178 0
188 432 452 0
-287 378 -498 0
-115 459 -522 0
-125 -200 -300 0
383 -392 432 0
-267 -387 -409 0
106 -186 -416 0
-255 -259 -423 0
-73 -231 377 0
-99 -114 287 0
-101 -166 500 0
-71 -217 -307 0
196 -351 448 0
267 -392 481 0
-64 -387 507 0
-121 272 -400 0
-157 -266 311 0
-107 144 -345 0
-67 -106 -278 0
-184 -191 -195 0
-175 307 -379 0
77 -218 464 0
-117 253 327 0
-133 -353 -389 0
247 389 -525 0
137 446 464 0
222 255 373 0
193 -301 397 0
-224 263 450 0
-173 292 527 0
232 254 312 0
254 -324 457 0
243 373 432 0
237 455 -480 0
-350 -357 -358 0
469 -505 519 0
326 -331 -473 0
-64 108 238 0
-322 364 -485 0
323 -499 501 0
225 397 526 0
-397 447 -510 0
99 -205 -480 0
-83 267 410 0
-312 -461 -511 0
-100 159 451 0
59 418 -455 0
160 -249 277 0
-166 212 420 0
-96 327 375 0
232 260 -358 0
204 482 -485 0
-87 -236 318 0
238 492 -523 0
101 227 -257 0
204 -441 -478 0
-302 348 -510 0
322 -407 -413 0
-185 230 487 0
115 -353 518 0
-164 -325 -457 0
177 236 -427 0
-266 -389 517 0
84 287 -501 0
251 -306 508 0
-82 -182 -389 0
231 -253 410 0
148 395 -423 0
306 -381 527 0
107 234 -439 0
-179 -298 -326 0
66 -194 461 0
295 -301 406 0
141 147 352 0
-238 -302 406 0
-191 -238 418 0
262 352 429 0
151 -243 -307 0
-211 289 322 0
217 -355 388 0
-331 333 -347 0
367 368 -493 0
168 -250 469 0
142 348 -380 0
271 -305 350 0
-115 -231 -503 0
124 -485 525 0
-490 506 -512 0
-63 -263 352 0
295 -386 508 0
-106 -131 189 0
-79 190 -326 0
84 219 425 0
-107 189 -442 0
-63 64 142 0
-83 334 523 0
112 192 478 0
-183 311 -522 0
320 495 -498 0
-211 -372 -443 0
-271 412 495 0
166 342 -420 0
339 350 380 0
-226 -393 490 0
-57 162 335 0
-277 -457 -474 0
-72 274 308 0
-148 -458 -459 0
186 -208 -241 0
195 -245 -512 0
-113 -309 390 0
67 182 427 0
126 203 -240 0
-188 256 -260 0
-254 -348 456 0
180 288 -422 0
82 347 -396 0
-60 -111 -413 0
-199 234 425 0
-225 -272 283 0
-78 135 -317 0
301 -445 455 0
232 -336 356 0
-191 -262 -478 0
160 350 -372 0
182 350 -399 0
-211 -236 -515 0
57 122 -142 0
-57 99 -162 0
156 -202 435 0
-219 -410 -472 0
177 -409 -503 0
-71 -74 202 0
56 -141 250 0
211 -255 344 0
104 -292 -397 0
-131 188 322 0
56 246 -472 0
290 340 413 0
165 -176 384 0
-186 329 412 0
-107 -114 220 0
184 341 -458 0
62 -70 524 0
256 -478 492 0
-121 -144 -418 0
-156 270 361 0
-172 -183 202 0
186 273 -366 0
-203 -384 491 0
143 447 -504 0
301 -481 520 0
-247 341 -505 0
110 -287 382 0
177 389 -517 0
174 332 455 0
-336 -385 -522 0
156 293 309 0
-209 -260 442 0
80 -152 -189 0
-176 -253 344 0
384 414 479 0
114 -181 -448 0
331 -349 354 0
189 383 -498 0
149 -254 -348 0
-151 -232 342 0
-195 377 522 0
128 354 367 0
269 368 -421 0
228 -268 -415 0
109 -305 -509 0
323 -395 466 0
-210 313 -418 0
-121 -250 -387 0
130 -136 442 0
146 256 -454 0
68 -159 -508 0
-195 -295 320 0
125 -305 312 0
-142 -465 513 0
201 -277 421 0
-84 -192 -274 0
-328 -383 -406 0
248 313 -348 0
-150 361 -396 0
154 321 478 0
337 -377 -385 0
146 -299 461 0
-95 -144 331 0
-112 -421 -521 0
196 -374 514 0
-63 -448 -478 0
-260 291 -425 0
-126 -249 -285 0
219 234 -414 0
-259 331 475 0
-229 -231 -495 0
123 -371 454 0
-265 465 468 0
-257 -319 -520 0
-206 276 278 0
56 -298 -302 0
111 -391 -398 0
-252 381 -443 0
70 -167 525 0
-223 244 -423 0
-396 -403 -518 0
113 -126 -401 0
-114 -205 316 0
-265 -394 -488 0
147 293 497 0
279 -331 -475 0
123 357 372 0
114 -337 421 0
-250 329 -471 0
-93 -144 -208 0
-135 150 -397 0
75 -448 -465 0
322 -459 526 0
-225 -289 299 0
177 -310 -474 0
101 -401 415 0
91 107 -218 0
139 -169 -272 0
112 -305 -513 0
-118 -317 440 0
-148 -205 382 0
99 -164 -358 0
352 393 -494 0
-131 188 406 0
74 83 -384 0
180 437 501 0
-178 -222 -316 0
123 354 480 0
-229 -281 -354 0
291 473 -528 0
-59 -68 283 0
169 407 -495 0
169 212 -461 0
-109 165 201 0
289 -290 346 0
-66 -68 -338 0
65 311 450 0
-65 -80 256 0
-248 -268 289 0
-290 338 -468 0
-174 199 518 0
267 467 -514 0
-59 346 526 0
-63 -239 -466 0
64 -74 212 0
-97 193 -222 0
-387 473 475 0
-158 339 448 0
67 -226 477 0
-58 -197 -452 0
299 360 -488 0
83 -260 -263 0
-61 330 523 0
132 203 410 0
83 123 393 0
-382 -444 453 0
192 452 -517 0
-97 347 -513 0
-193 -256 378 0
-236 -352 -515 0
-69 -333 390 0
-245 -314 477 0
123 199 272 0
71 -269 -515 0
-112 -386 -480 0
-371 -395 458 0
264 -491 -495 0
242 -356 406 0
174 422 -473 0
-228 293 -368 0
-211 -258 -379 0
-362 -482 -489 0
111 173 299 0
-390 -457 486 0
66 -187 464 0
86 252 -270 0
245 -375 -377 0
-246 371 397 0
-420 -454 515 0
165 -178 -229 0
230 282 -472 0
-77 282 -301 0
216 407 501 0
-183 247 -513 0
-262 -322 374 0
87 185 370 0
-93 -103 -146 0
65 253 -330 0
-73 225 262 0
-104 202 510 0
-180 185 -333 0
157 189 235 0
-163 -212 302 0
194 349 421 0
77 -224 -368 0
-280 -404 495 0
134 -286 486 0
377 -445 469 0
330 412 434 0
-98 -105 514 0
-304 389 -506 0
-240 -409 -461 0
178 203 484 0
-97 -399 -503 0
-236 354 -503 0
-339 421 -462 0
186 -236 -508 0
142 275 -513 0
102 163 437 0
-103 113 -184 0
-334 376 -431 0
86 267 527 0
148 261 330 0
147 -224 522 0
107 -110 421 0
-212 -486 -499 0
-114 -125 519 0
-116 216 -523 0
-181 -386 505 0
-322 -337 433 0
280 290 496 0
222 316 -391 0
-236 -321 -431 0
156 -217 418 0
-121 335 446 0
70 380 -463 0
-222 -453 497 0
-191 -300 -353 0
65 157 -487 0
-361 405 -500 0
85 -225 464 0
-301 -316 512 0
269 416 509 0
-84 -401 -429 0
82 -391 472 0
103 -273 468 0
285 385 489 0
-57 -253 382 0
252 -332 -484 0
131 467 -484 0
-303 -433 -512 0
-91 129 140 0
-178 354 461 0
72 -254 306 0
-147 218 -396 0
318 319 397 0
79 -250 -473 0
-83 98 -413 0
297 -358 -513 0
64 257 263 0
82 173 260 0
-92 247 260 0
100 -279 399 0
225 495 505 0
180 312 389 0
-148 -374 -521 0
-260 301 -397 0
174 188 334 0
-164 -236 382 0
-366 -450 -513 0
-67 363 467 0
85 252 -347 0
-346 -451 492 0
-102 213 -405 0
-233 407 458 0
209 433 -434 0
184 413 421 0
60 178 -343 0
64 202 478 0
-59 -306 -489 0
-242 328 -480 0
-90 -234 299 0
106 -347 -381 0
-158 221 413 0
187 233 471 0
-58 -344 -492 0
274 453 -508 0
-188 313 -453 0
85 -190 -233 0
-60 248 -337 0
204 -218 511 0
66 197 -287 0
-163 388 474 0
86 150 391 0
-83 -153 387 0
-210 -397 428 0
513 522 525 0
126 190 225 0
206 372 -517 0
124 -288 398 0
234 448 -473 0
-120 -171 201 0
-253 -434 510 0
65 -192 -439 0
-157 -304 485 0
-98 -307 -420 0
104 233 425 0
-204 -396 460 0
360 425 443 0
-161 -474 -489 0
155 -234 -284 0
-305 -511 -513 0
83 -103 -525 0
57 250 421 0
-82 -334 -494 0
67 93 -358 0
89 204 -315 0
-179 204 401 0
63 -487 503 0
-177 246 523 0
233 -401 -407 0
227 -306 467 0
58 186 -373 0
-112 157 -516 0
-105 179 185 0
340 423 -426 0
163 220 224 0
140 -430 -512 0
154 -316 -377 0
166 -366 -507 0
-159 -221 445 0
59 -187 -489 0
250 356 -503 0
-261 454 -510 0
64 427 -472 0
-208 -306 428 0
172 242 472 0
-122 -390 -418 0
-133 421 467 0
314 -413 -465 0
65 296 380 0
289 -320 -487 0
71 344 -469 0
152 185 425 0
162 -458 -523 0
127 -265 -437 0
66 103 280 0
97 330 488 0
-174 273 444 0
254 374 -505 0
365 -403 -514 0
158 263 -451 0
287 449 478 0
110 240 524 0
-178 374 453 0
-102 -174 352 0
169 -416 500 0
119 -391 -524 0
101 -172 -210 0
129 -171 -229 0
87 341 460 0
-105 280 325 0
-262 342 -379 0
-267 389 -444 0
-239 387 399 0
72 254 475 0
221 -321 -527 0
105 142 424 0
342 -414 517 0
206 -216 -389 0
-386 392 -522 0
118 -237 419 0
359 413 445 0
-127 -148 -506 0
-158 274 -375 0
-356 393 444 0
218 337 -345 0
150 -187 225 0
-92 -151 -159 0
109 -243 456 0
-81 246 256 0
109 -424 528 0
-227 -247 363 0
-299 -361 511 0
429 -488 517 0
142 -368 -379 0
-190 -244 -348 0
-59 340 -379 0
-107 241 513 0
298 359 -403 0
56 95 -337 0
-73 87 473 0
-61 99 -216 0
60 65 357 0
240 307 -479 0
-77 234 331 0
-67 -160 -275 0
-171 180 233 0
-204 299 -448 0
-240 290 380 0
147 -341 -477 0
-64 -159 482 0
94 240 -400 0
80 209 -291 0
-245 -324 -405 0
-216 -343 383 0
-324 337 -370 0
-167 -340 -404 0
68 249 -320 0
-206 320 -507 0
225 -333 -360 0
93 -325 488 0
-323 324 327 0
-61 -294 339 0
63 -236 430 0
-62 -298 369 0
118 198 -298 0
-123 -247 -426 0
117 -238 287 0
113 214 -429 0
-304 -390 -472 0
68 -171 -382 0
56 -139 -206 0
-120 -252 492 0
-105 -139 258 0
-289 -470 499 0
157 229 -259 0
-62 -131 419 0
-103 -358 378 0
388 -496 -527 0
-180 -206 337 0
64 389 395 0
93 141 346 0
-241 -438 -444 0
-110 488 -502 0
-128 -330 509 0
112 -186 440 0
-188 428 483 0
260 -403 527 0
64 -234 -386 0
-221 -252 273 0
270 -370 -445 0
273 274 517 0
-256 448 -479 0
308 488 -525 0
81 280 334 0
65 -125 -365 0
-367 389 528 0
-194 203 -513 0
281 412 458 0
61 -219 419 0
-261 -470 -527 0
-74 439 -526 0
-56 -246 -317 0
-338 -378 -490 0
-57 -331 -382 0
68 -220 500 0
193 212 403 0
-422 -470 -497 0
-96 383 445 0
