c Phase 3 generated performance instance
c family=hidden_pigeonhole
c scale=9
c variant=hidden_noise100
c noise_percent=100
c expected=UNSATISFIABLE
p cnf 1224 2268
-1 -2 73 0
-1 -2 -73 0
-1 -3 74 0
-1 -3 -74 0
-1 -4 75 0
-1 -4 -75 0
-1 -5 76 0
-1 -5 -76 0
-1 -6 77 0
-1 -6 -77 0
-1 -7 78 0
-1 -7 -78 0
-1 -8 79 0
-1 -8 -79 0
-2 -3 80 0
-2 -3 -80 0
-2 -4 81 0
-2 -4 -81 0
-2 -5 82 0
-2 -5 -82 0
-2 -6 83 0
-2 -6 -83 0
-2 -7 84 0
-2 -7 -84 0
-2 -8 85 0
-2 -8 -85 0
-3 -4 86 0
-3 -4 -86 0
-3 -5 87 0
-3 -5 -87 0
-3 -6 88 0
-3 -6 -88 0
-3 -7 89 0
-3 -7 -89 0
-3 -8 90 0
-3 -8 -90 0
-4 -5 91 0
-4 -5 -91 0
-4 -6 92 0
-4 -6 -92 0
-4 -7 93 0
-4 -7 -93 0
-4 -8 94 0
-4 -8 -94 0
-5 -6 95 0
-5 -6 -95 0
-5 -7 96 0
-5 -7 -96 0
-5 -8 97 0
-5 -8 -97 0
-6 -7 98 0
-6 -7 -98 0
-6 -8 99 0
-6 -8 -99 0
-7 -8 100 0
-7 -8 -100 0
1 2 101 0
3 -101 102 0
4 -102 103 0
5 -103 104 0
6 -104 105 0
7 8 -105 0
-9 -10 106 0
-9 -10 -106 0
-9 -11 107 0
-9 -11 -107 0
-9 -12 108 0
-9 -12 -108 0
-9 -13 109 0
-9 -13 -109 0
-9 -14 110 0
-9 -14 -110 0
-9 -15 111 0
-9 -15 -111 0
-9 -16 112 0
-9 -16 -112 0
-10 -11 113 0
-10 -11 -113 0
-10 -12 114 0
-10 -12 -114 0
-10 -13 115 0
-10 -13 -115 0
-10 -14 116 0
-10 -14 -116 0
-10 -15 117 0
-10 -15 -117 0
-10 -16 118 0
-10 -16 -118 0
-11 -12 119 0
-11 -12 -119 0
-11 -13 120 0
-11 -13 -120 0
-11 -14 121 0
-11 -14 -121 0
-11 -15 122 0
-11 -15 -122 0
-11 -16 123 0
-11 -16 -123 0
-12 -13 124 0
-12 -13 -124 0
-12 -14 125 0
-12 -14 -125 0
-12 -15 126 0
-12 -15 -126 0
-12 -16 127 0
-12 -16 -127 0
-13 -14 128 0
-13 -14 -128 0
-13 -15 129 0
-13 -15 -129 0
-13 -16 130 0
-13 -16 -130 0
-14 -15 131 0
-14 -15 -131 0
-14 -16 132 0
-14 -16 -132 0
-15 -16 133 0
-15 -16 -133 0
9 10 134 0
11 -134 135 0
12 -135 136 0
13 -136 137 0
14 -137 138 0
15 16 -138 0
-17 -18 139 0
-17 -18 -139 0
-17 -19 140 0
-17 -19 -140 0
-17 -20 141 0
-17 -20 -141 0
-17 -21 142 0
-17 -21 -142 0
-17 -22 143 0
-17 -22 -143 0
-17 -23 144 0
-17 -23 -144 0
-17 -24 145 0
-17 -24 -145 0
-18 -19 146 0
-18 -19 -146 0
-18 -20 147 0
-18 -20 -147 0
-18 -21 148 0
-18 -21 -148 0
-18 -22 149 0
-18 -22 -149 0
-18 -23 150 0
-18 -23 -150 0
-18 -24 151 0
-18 -24 -151 0
-19 -20 152 0
-19 -20 -152 0
-19 -21 153 0
-19 -21 -153 0
-19 -22 154 0
-19 -22 -154 0
-19 -23 155 0
-19 -23 -155 0
-19 -24 156 0
-19 -24 -156 0
-20 -21 157 0
-20 -21 -157 0
-20 -22 158 0
-20 -22 -158 0
-20 -23 159 0
-20 -23 -159 0
-20 -24 160 0
-20 -24 -160 0
-21 -22 161 0
-21 -22 -161 0
-21 -23 162 0
-21 -23 -162 0
-21 -24 163 0
-21 -24 -163 0
-22 -23 164 0
-22 -23 -164 0
-22 -24 165 0
-22 -24 -165 0
-23 -24 166 0
-23 -24 -166 0
17 18 167 0
19 -167 168 0
20 -168 169 0
21 -169 170 0
22 -170 171 0
23 24 -171 0
-25 -26 172 0
-25 -26 -172 0
-25 -27 173 0
-25 -27 -173 0
-25 -28 174 0
-25 -28 -174 0
-25 -29 175 0
-25 -29 -175 0
-25 -30 176 0
-25 -30 -176 0
-25 -31 177 0
-25 -31 -177 0
-25 -32 178 0
-25 -32 -178 0
-26 -27 179 0
-26 -27 -179 0
-26 -28 180 0
-26 -28 -180 0
-26 -29 181 0
-26 -29 -181 0
-26 -30 182 0
-26 -30 -182 0
-26 -31 183 0
-26 -31 -183 0
-26 -32 184 0
-26 -32 -184 0
-27 -28 185 0
-27 -28 -185 0
-27 -29 186 0
-27 -29 -186 0
-27 -30 187 0
-27 -30 -187 0
-27 -31 188 0
-27 -31 -188 0
-27 -32 189 0
-27 -32 -189 0
-28 -29 190 0
-28 -29 -190 0
-28 -30 191 0
-28 -30 -191 0
-28 -31 192 0
-28 -31 -192 0
-28 -32 193 0
-28 -32 -193 0
-29 -30 194 0
-29 -30 -194 0
-29 -31 195 0
-29 -31 -195 0
-29 -32 196 0
-29 -32 -196 0
-30 -31 197 0
-30 -31 -197 0
-30 -32 198 0
-30 -32 -198 0
-31 -32 199 0
-31 -32 -199 0
25 26 200 0
27 -200 201 0
28 -201 202 0
29 -202 203 0
30 -203 204 0
31 32 -204 0
-33 -34 205 0
-33 -34 -205 0
-33 -35 206 0
-33 -35 -206 0
-33 -36 207 0
-33 -36 -207 0
-33 -37 208 0
-33 -37 -208 0
-33 -38 209 0
-33 -38 -209 0
-33 -39 210 0
-33 -39 -210 0
-33 -40 211 0
-33 -40 -211 0
-34 -35 212 0
-34 -35 -212 0
-34 -36 213 0
-34 -36 -213 0
-34 -37 214 0
-34 -37 -214 0
-34 -38 215 0
-34 -38 -215 0
-34 -39 216 0
-34 -39 -216 0
-34 -40 217 0
-34 -40 -217 0
-35 -36 218 0
-35 -36 -218 0
-35 -37 219 0
-35 -37 -219 0
-35 -38 220 0
-35 -38 -220 0
-35 -39 221 0
-35 -39 -221 0
-35 -40 222 0
-35 -40 -222 0
-36 -37 223 0
-36 -37 -223 0
-36 -38 224 0
-36 -38 -224 0
-36 -39 225 0
-36 -39 -225 0
-36 -40 226 0
-36 -40 -226 0
-37 -38 227 0
-37 -38 -227 0
-37 -39 228 0
-37 -39 -228 0
-37 -40 229 0
-37 -40 -229 0
-38 -39 230 0
-38 -39 -230 0
-38 -40 231 0
-38 -40 -231 0
-39 -40 232 0
-39 -40 -232 0
33 34 233 0
35 -233 234 0
36 -234 235 0
37 -235 236 0
38 -236 237 0
39 40 -237 0
-41 -42 238 0
-41 -42 -238 0
-41 -43 239 0
-41 -43 -239 0
-41 -44 240 0
-41 -44 -240 0
-41 -45 241 0
-41 -45 -241 0
-41 -46 242 0
-41 -46 -242 0
-41 -47 243 0
-41 -47 -243 0
-41 -48 244 0
-41 -48 -244 0
-42 -43 245 0
-42 -43 -245 0
-42 -44 246 0
-42 -44 -246 0
-42 -45 247 0
-42 -45 -247 0
-42 -46 248 0
-42 -46 -248 0
-42 -47 249 0
-42 -47 -249 0
-42 -48 250 0
-42 -48 -250 0
-43 -44 251 0
-43 -44 -251 0
-43 -45 252 0
-43 -45 -252 0
-43 -46 253 0
-43 -46 -253 0
-43 -47 254 0
-43 -47 -254 0
-43 -48 255 0
-43 -48 -255 0
-44 -45 256 0
-44 -45 -256 0
-44 -46 257 0
-44 -46 -257 0
-44 -47 258 0
-44 -47 -258 0
-44 -48 259 0
-44 -48 -259 0
-45 -46 260 0
-45 -46 -260 0
-45 -47 261 0
-45 -47 -261 0
-45 -48 262 0
-45 -48 -262 0
-46 -47 263 0
-46 -47 -263 0
-46 -48 264 0
-46 -48 -264 0
-47 -48 265 0
-47 -48 -265 0
41 42 266 0
43 -266 267 0
44 -267 268 0
45 -268 269 0
46 -269 270 0
47 48 -270 0
-49 -50 271 0
-49 -50 -271 0
-49 -51 272 0
-49 -51 -272 0
-49 -52 273 0
-49 -52 -273 0
-49 -53 274 0
-49 -53 -274 0
-49 -54 275 0
-49 -54 -275 0
-49 -55 276 0
-49 -55 -276 0
-49 -56 277 0
-49 -56 -277 0
-50 -51 278 0
-50 -51 -278 0
-50 -52 279 0
-50 -52 -279 0
-50 -53 280 0
-50 -53 -280 0
-50 -54 281 0
-50 -54 -281 0
-50 -55 282 0
-50 -55 -282 0
-50 -56 283 0
-50 -56 -283 0
-51 -52 284 0
-51 -52 -284 0
-51 -53 285 0
-51 -53 -285 0
-51 -54 286 0
-51 -54 -286 0
-51 -55 287 0
-51 -55 -287 0
-51 -56 288 0
-51 -56 -288 0
-52 -53 289 0
-52 -53 -289 0
-52 -54 290 0
-52 -54 -290 0
-52 -55 291 0
-52 -55 -291 0
-52 -56 292 0
-52 -56 -292 0
-53 -54 293 0
-53 -54 -293 0
-53 -55 294 0
-53 -55 -294 0
-53 -56 295 0
-53 -56 -295 0
-54 -55 296 0
-54 -55 -296 0
-54 -56 297 0
-54 -56 -297 0
-55 -56 298 0
-55 -56 -298 0
49 50 299 0
51 -299 300 0
52 -300 301 0
53 -301 302 0
54 -302 303 0
55 56 -303 0
-57 -58 304 0
-57 -58 -304 0
-57 -59 305 0
-57 -59 -305 0
-57 -60 306 0
-57 -60 -306 0
-57 -61 307 0
-57 -61 -307 0
-57 -62 308 0
-57 -62 -308 0
-57 -63 309 0
-57 -63 -309 0
-57 -64 310 0
-57 -64 -310 0
-58 -59 311 0
-58 -59 -311 0
-58 -60 312 0
-58 -60 -312 0
-58 -61 313 0
-58 -61 -313 0
-58 -62 314 0
-58 -62 -314 0
-58 -63 315 0
-58 -63 -315 0
-58 -64 316 0
-58 -64 -316 0
-59 -60 317 0
-59 -60 -317 0
-59 -61 318 0
-59 -61 -318 0
-59 -62 319 0
-59 -62 -319 0
-59 -63 320 0
-59 -63 -320 0
-59 -64 321 0
-59 -64 -321 0
-60 -61 322 0
-60 -61 -322 0
-60 -62 323 0
-60 -62 -323 0
-60 -63 324 0
-60 -63 -324 0
-60 -64 325 0
-60 -64 -325 0
-61 -62 326 0
-61 -62 -326 0
-61 -63 327 0
-61 -63 -327 0
-61 -64 328 0
-61 -64 -328 0
-62 -63 329 0
-62 -63 -329 0
-62 -64 330 0
-62 -64 -330 0
-63 -64 331 0
-63 -64 -331 0
57 58 332 0
59 -332 333 0
60 -333 334 0
61 -334 335 0
62 -335 336 0
63 64 -336 0
-65 -66 337 0
-65 -66 -337 0
-65 -67 338 0
-65 -67 -338 0
-65 -68 339 0
-65 -68 -339 0
-65 -69 340 0
-65 -69 -340 0
-65 -70 341 0
-65 -70 -341 0
-65 -71 342 0
-65 -71 -342 0
-65 -72 343 0
-65 -72 -343 0
-66 -67 344 0
-66 -67 -344 0
-66 -68 345 0
-66 -68 -345 0
-66 -69 346 0
-66 -69 -346 0
-66 -70 347 0
-66 -70 -347 0
-66 -71 348 0
-66 -71 -348 0
-66 -72 349 0
-66 -72 -349 0
-67 -68 350 0
-67 -68 -350 0
-67 -69 351 0
-67 -69 -351 0
-67 -70 352 0
-67 -70 -352 0
-67 -71 353 0
-67 -71 -353 0
-67 -72 354 0
-67 -72 -354 0
-68 -69 355 0
-68 -69 -355 0
-68 -70 356 0
-68 -70 -356 0
-68 -71 357 0
-68 -71 -357 0
-68 -72 358 0
-68 -72 -358 0
-69 -70 359 0
-69 -70 -359 0
-69 -71 360 0
-69 -71 -360 0
-69 -72 361 0
-69 -72 -361 0
-70 -71 362 0
-70 -71 -362 0
-70 -72 363 0
-70 -72 -363 0
-71 -72 364 0
-71 -72 -364 0
65 66 365 0
67 -365 366 0
68 -366 367 0
69 -367 368 0
70 -368 369 0
71 72 -369 0
-1 -9 370 0
-1 -9 -370 0
-1 -17 371 0
-1 -17 -371 0
-1 -25 372 0
-1 -25 -372 0
-1 -33 373 0
-1 -33 -373 0
-1 -41 374 0
-1 -41 -374 0
-1 -49 375 0
-1 -49 -375 0
-1 -57 376 0
-1 -57 -376 0
-1 -65 377 0
-1 -65 -377 0
-9 -17 378 0
-9 -17 -378 0
-9 -25 379 0
-9 -25 -379 0
-9 -33 380 0
-9 -33 -380 0
-9 -41 381 0
-9 -41 -381 0
-9 -49 382 0
-9 -49 -382 0
-9 -57 383 0
-9 -57 -383 0
-9 -65 384 0
-9 -65 -384 0
-17 -25 385 0
-17 -25 -385 0
-17 -33 386 0
-17 -33 -386 0
-17 -41 387 0
-17 -41 -387 0
-17 -49 388 0
-17 -49 -388 0
-17 -57 389 0
-17 -57 -389 0
-17 -65 390 0
-17 -65 -390 0
-25 -33 391 0
-25 -33 -391 0
-25 -41 392 0
-25 -41 -392 0
-25 -49 393 0
-25 -49 -393 0
-25 -57 394 0
-25 -57 -394 0
-25 -65 395 0
-25 -65 -395 0
-33 -41 396 0
-33 -41 -396 0
-33 -49 397 0
-33 -49 -397 0
-33 -57 398 0
-33 -57 -398 0
-33 -65 399 0
-33 -65 -399 0
-41 -49 400 0
-41 -49 -400 0
-41 -57 401 0
-41 -57 -401 0
-41 -65 402 0
-41 -65 -402 0
-49 -57 403 0
-49 -57 -403 0
-49 -65 404 0
-49 -65 -404 0
-57 -65 405 0
-57 -65 -405 0
-2 -10 406 0
-2 -10 -406 0
-2 -18 407 0
-2 -18 -407 0
-2 -26 408 0
-2 -26 -408 0
-2 -34 409 0
-2 -34 -409 0
-2 -42 410 0
-2 -42 -410 0
-2 -50 411 0
-2 -50 -411 0
-2 -58 412 0
-2 -58 -412 0
-2 -66 413 0
-2 -66 -413 0
-10 -18 414 0
-10 -18 -414 0
-10 -26 415 0
-10 -26 -415 0
-10 -34 416 0
-10 -34 -416 0
-10 -42 417 0
-10 -42 -417 0
-10 -50 418 0
-10 -50 -418 0
-10 -58 419 0
-10 -58 -419 0
-10 -66 420 0
-10 -66 -420 0
-18 -26 421 0
-18 -26 -421 0
-18 -34 422 0
-18 -34 -422 0
-18 -42 423 0
-18 -42 -423 0
-18 -50 424 0
-18 -50 -424 0
-18 -58 425 0
-18 -58 -425 0
-18 -66 426 0
-18 -66 -426 0
-26 -34 427 0
-26 -34 -427 0
-26 -42 428 0
-26 -42 -428 0
-26 -50 429 0
-26 -50 -429 0
-26 -58 430 0
-26 -58 -430 0
-26 -66 431 0
-26 -66 -431 0
-34 -42 432 0
-34 -42 -432 0
-34 -50 433 0
-34 -50 -433 0
-34 -58 434 0
-34 -58 -434 0
-34 -66 435 0
-34 -66 -435 0
-42 -50 436 0
-42 -50 -436 0
-42 -58 437 0
-42 -58 -437 0
-42 -66 438 0
-42 -66 -438 0
-50 -58 439 0
-50 -58 -439 0
-50 -66 440 0
-50 -66 -440 0
-58 -66 441 0
-58 -66 -441 0
-3 -11 442 0
-3 -11 -442 0
-3 -19 443 0
-3 -19 -443 0
-3 -27 444 0
-3 -27 -444 0
-3 -35 445 0
-3 -35 -445 0
-3 -43 446 0
-3 -43 -446 0
-3 -51 447 0
-3 -51 -447 0
-3 -59 448 0
-3 -59 -448 0
-3 -67 449 0
-3 -67 -449 0
-11 -19 450 0
-11 -19 -450 0
-11 -27 451 0
-11 -27 -451 0
-11 -35 452 0
-11 -35 -452 0
-11 -43 453 0
-11 -43 -453 0
-11 -51 454 0
-11 -51 -454 0
-11 -59 455 0
-11 -59 -455 0
-11 -67 456 0
-11 -67 -456 0
-19 -27 457 0
-19 -27 -457 0
-19 -35 458 0
-19 -35 -458 0
-19 -43 459 0
-19 -43 -459 0
-19 -51 460 0
-19 -51 -460 0
-19 -59 461 0
-19 -59 -461 0
-19 -67 462 0
-19 -67 -462 0
-27 -35 463 0
-27 -35 -463 0
-27 -43 464 0
-27 -43 -464 0
-27 -51 465 0
-27 -51 -465 0
-27 -59 466 0
-27 -59 -466 0
-27 -67 467 0
-27 -67 -467 0
-35 -43 468 0
-35 -43 -468 0
-35 -51 469 0
-35 -51 -469 0
-35 -59 470 0
-35 -59 -470 0
-35 -67 471 0
-35 -67 -471 0
-43 -51 472 0
-43 -51 -472 0
-43 -59 473 0
-43 -59 -473 0
-43 -67 474 0
-43 -67 -474 0
-51 -59 475 0
-51 -59 -475 0
-51 -67 476 0
-51 -67 -476 0
-59 -67 477 0
-59 -67 -477 0
-4 -12 478 0
-4 -12 -478 0
-4 -20 479 0
-4 -20 -479 0
-4 -28 480 0
-4 -28 -480 0
-4 -36 481 0
-4 -36 -481 0
-4 -44 482 0
-4 -44 -482 0
-4 -52 483 0
-4 -52 -483 0
-4 -60 484 0
-4 -60 -484 0
-4 -68 485 0
-4 -68 -485 0
-12 -20 486 0
-12 -20 -486 0
-12 -28 487 0
-12 -28 -487 0
-12 -36 488 0
-12 -36 -488 0
-12 -44 489 0
-12 -44 -489 0
-12 -52 490 0
-12 -52 -490 0
-12 -60 491 0
-12 -60 -491 0
-12 -68 492 0
-12 -68 -492 0
-20 -28 493 0
-20 -28 -493 0
-20 -36 494 0
-20 -36 -494 0
-20 -44 495 0
-20 -44 -495 0
-20 -52 496 0
-20 -52 -496 0
-20 -60 497 0
-20 -60 -497 0
-20 -68 498 0
-20 -68 -498 0
-28 -36 499 0
-28 -36 -499 0
-28 -44 500 0
-28 -44 -500 0
-28 -52 501 0
-28 -52 -501 0
-28 -60 502 0
-28 -60 -502 0
-28 -68 503 0
-28 -68 -503 0
-36 -44 504 0
-36 -44 -504 0
-36 -52 505 0
-36 -52 -505 0
-36 -60 506 0
-36 -60 -506 0
-36 -68 507 0
-36 -68 -507 0
-44 -52 508 0
-44 -52 -508 0
-44 -60 509 0
-44 -60 -509 0
-44 -68 510 0
-44 -68 -510 0
-52 -60 511 0
-52 -60 -511 0
-52 -68 512 0
-52 -68 -512 0
-60 -68 513 0
-60 -68 -513 0
-5 -13 514 0
-5 -13 -514 0
-5 -21 515 0
-5 -21 -515 0
-5 -29 516 0
-5 -29 -516 0
-5 -37 517 0
-5 -37 -517 0
-5 -45 518 0
-5 -45 -518 0
-5 -53 519 0
-5 -53 -519 0
-5 -61 520 0
-5 -61 -520 0
-5 -69 521 0
-5 -69 -521 0
-13 -21 522 0
-13 -21 -522 0
-13 -29 523 0
-13 -29 -523 0
-13 -37 524 0
-13 -37 -524 0
-13 -45 525 0
-13 -45 -525 0
-13 -53 526 0
-13 -53 -526 0
-13 -61 527 0
-13 -61 -527 0
-13 -69 528 0
-13 -69 -528 0
-21 -29 529 0
-21 -29 -529 0
-21 -37 530 0
-21 -37 -530 0
-21 -45 531 0
-21 -45 -531 0
-21 -53 532 0
-21 -53 -532 0
-21 -61 533 0
-21 -61 -533 0
-21 -69 534 0
-21 -69 -534 0
-29 -37 535 0
-29 -37 -535 0
-29 -45 536 0
-29 -45 -536 0
-29 -53 537 0
-29 -53 -537 0
-29 -61 538 0
-29 -61 -538 0
-29 -69 539 0
-29 -69 -539 0
-37 -45 540 0
-37 -45 -540 0
-37 -53 541 0
-37 -53 -541 0
-37 -61 542 0
-37 -61 -542 0
-37 -69 543 0
-37 -69 -543 0
-45 -53 544 0
-45 -53 -544 0
-45 -61 545 0
-45 -61 -545 0
-45 -69 546 0
-45 -69 -546 0
-53 -61 547 0
-53 -61 -547 0
-53 -69 548 0
-53 -69 -548 0
-61 -69 549 0
-61 -69 -549 0
-6 -14 550 0
-6 -14 -550 0
-6 -22 551 0
-6 -22 -551 0
-6 -30 552 0
-6 -30 -552 0
-6 -38 553 0
-6 -38 -553 0
-6 -46 554 0
-6 -46 -554 0
-6 -54 555 0
-6 -54 -555 0
-6 -62 556 0
-6 -62 -556 0
-6 -70 557 0
-6 -70 -557 0
-14 -22 558 0
-14 -22 -558 0
-14 -30 559 0
-14 -30 -559 0
-14 -38 560 0
-14 -38 -560 0
-14 -46 561 0
-14 -46 -561 0
-14 -54 562 0
-14 -54 -562 0
-14 -62 563 0
-14 -62 -563 0
-14 -70 564 0
-14 -70 -564 0
-22 -30 565 0
-22 -30 -565 0
-22 -38 566 0
-22 -38 -566 0
-22 -46 567 0
-22 -46 -567 0
-22 -54 568 0
-22 -54 -568 0
-22 -62 569 0
-22 -62 -569 0
-22 -70 570 0
-22 -70 -570 0
-30 -38 571 0
-30 -38 -571 0
-30 -46 572 0
-30 -46 -572 0
-30 -54 573 0
-30 -54 -573 0
-30 -62 574 0
-30 -62 -574 0
-30 -70 575 0
-30 -70 -575 0
-38 -46 576 0
-38 -46 -576 0
-38 -54 577 0
-38 -54 -577 0
-38 -62 578 0
-38 -62 -578 0
-38 -70 579 0
-38 -70 -579 0
-46 -54 580 0
-46 -54 -580 0
-46 -62 581 0
-46 -62 -581 0
-46 -70 582 0
-46 -70 -582 0
-54 -62 583 0
-54 -62 -583 0
-54 -70 584 0
-54 -70 -584 0
-62 -70 585 0
-62 -70 -585 0
-7 -15 586 0
-7 -15 -586 0
-7 -23 587 0
-7 -23 -587 0
-7 -31 588 0
-7 -31 -588 0
-7 -39 589 0
-7 -39 -589 0
-7 -47 590 0
-7 -47 -590 0
-7 -55 591 0
-7 -55 -591 0
-7 -63 592 0
-7 -63 -592 0
-7 -71 593 0
-7 -71 -593 0
-15 -23 594 0
-15 -23 -594 0
-15 -31 595 0
-15 -31 -595 0
-15 -39 596 0
-15 -39 -596 0
-15 -47 597 0
-15 -47 -597 0
-15 -55 598 0
-15 -55 -598 0
-15 -63 599 0
-15 -63 -599 0
-15 -71 600 0
-15 -71 -600 0
-23 -31 601 0
-23 -31 -601 0
-23 -39 602 0
-23 -39 -602 0
-23 -47 603 0
-23 -47 -603 0
-23 -55 604 0
-23 -55 -604 0
-23 -63 605 0
-23 -63 -605 0
-23 -71 606 0
-23 -71 -606 0
-31 -39 607 0
-31 -39 -607 0
-31 -47 608 0
-31 -47 -608 0
-31 -55 609 0
-31 -55 -609 0
-31 -63 610 0
-31 -63 -610 0
-31 -71 611 0
-31 -71 -611 0
-39 -47 612 0
-39 -47 -612 0
-39 -55 613 0
-39 -55 -613 0
-39 -63 614 0
-39 -63 -614 0
-39 -71 615 0
-39 -71 -615 0
-47 -55 616 0
-47 -55 -616 0
-47 -63 617 0
-47 -63 -617 0
-47 -71 618 0
-47 -71 -618 0
-55 -63 619 0
-55 -63 -619 0
-55 -71 620 0
-55 -71 -620 0
-63 -71 621 0
-63 -71 -621 0
-8 -16 622 0
-8 -16 -622 0
-8 -24 623 0
-8 -24 -623 0
-8 -32 624 0
-8 -32 -624 0
-8 -40 625 0
-8 -40 -625 0
-8 -48 626 0
-8 -48 -626 0
-8 -56 627 0
-8 -56 -627 0
-8 -64 628 0
-8 -64 -628 0
-8 -72 629 0
-8 -72 -629 0
-16 -24 630 0
-16 -24 -630 0
-16 -32 631 0
-16 -32 -631 0
-16 -40 632 0
-16 -40 -632 0
-16 -48 633 0
-16 -48 -633 0
-16 -56 634 0
-16 -56 -634 0
-16 -64 635 0
-16 -64 -635 0
-16 -72 636 0
-16 -72 -636 0
-24 -32 637 0
-24 -32 -637 0
-24 -40 638 0
-24 -40 -638 0
-24 -48 639 0
-24 -48 -639 0
-24 -56 640 0
-24 -56 -640 0
-24 -64 641 0
-24 -64 -641 0
-24 -72 642 0
-24 -72 -642 0
-32 -40 643 0
-32 -40 -643 0
-32 -48 644 0
-32 -48 -644 0
-32 -56 645 0
-32 -56 -645 0
-32 -64 646 0
-32 -64 -646 0
-32 -72 647 0
-32 -72 -647 0
-40 -48 648 0
-40 -48 -648 0
-40 -56 649 0
-40 -56 -649 0
-40 -64 650 0
-40 -64 -650 0
-40 -72 651 0
-40 -72 -651 0
-48 -56 652 0
-48 -56 -652 0
-48 -64 653 0
-48 -64 -653 0
-48 -72 654 0
-48 -72 -654 0
-56 -64 655 0
-56 -64 -655 0
-56 -72 656 0
-56 -72 -656 0
-64 -72 657 0
-64 -72 -657 0
-846 -1135 1138 0
673 900 1207 0
809 -852 -1170 0
888 -926 -977 0
-693 -926 -1205 0
724 734 -956 0
796 1164 1189 0
662 963 -986 0
785 -997 1014 0
-727 970 1209 0
-948 -1068 -1187 0
-788 892 -1210 0
851 -1012 -1167 0
710 1112 -1192 0
810 -884 958 0
-906 -996 1121 0
-756 -896 -1096 0
-872 1026 1127 0
713 -731 -876 0
915 1187 -1205 0
671 -909 -1129 0
840 852 929 0
-754 -911 929 0
-938 -1133 -1157 0
718 -907 1095 0
-670 1035 1149 0
746 -949 -1118 0
756 902 950 0
697 -783 -1017 0
-751 909 -1144 0
860 874 -947 0
887 966 1128 0
-1100 -1140 -1190 0
781 1054 1164 0
848 -867 -1121 0
-781 784 -940 0
1079 1143 1169 0
1006 -1123 1196 0
971 1015 -1110 0
-734 -810 828 0
-733 1124 1137 0
771 803 -853 0
-786 861 1135 0
877 -1023 -1172 0
795 -1061 -1122 0
-794 -1006 -1212 0
-689 906 1105 0
729 1139 -1151 0
-808 987 -1094 0
822 -925 1000 0
877 892 971 0
-969 -1005 -1035 0
846 -901 -1061 0
-766 -958 1119 0
-700 -1085 1143 0
717 794 1176 0
962 -1017 1075 0
659 1059 -1162 0
993 -1182 -1186 0
923 936 -1129 0
-711 768 773 0
825 831 -862 0
-889 -972 -1120 0
697 969 976 0
-687 1012 1088 0
793 1076 1108 0
927 -1029 1194 0
-954 -1065 -1168 0
-692 -760 1219 0
-772 859 -1106 0
-988 1060 -1089 0
-721 734 910 0
-1046 1131 -1209 0
869 -1040 1133 0
708 782 -815 0
-744 -974 -1104 0
747 810 850 0
-907 1014 -1165 0
689 1136 -1218 0
835 -1043 1142 0
-832 -956 -1107 0
-714 -943 1096 0
-770 841 859 0
-715 -723 -1076 0
-871 876 -1061 0
936 975 1217 0
-788 911 1119 0
745 1095 -1096 0
-758 -1057 1108 0
-715 -803 -1135 0
-772 -1033 -1103 0
1098 -1221 -1222 0
817 1152 1168 0
830 833 903 0
895 1063 -1084 0
727 1155 -1205 0
741 948 -1002 0
982 -1037 -1040 0
-662 -888 1052 0
-768 793 1077 0
702 -1096 1126 0
723 743 1132 0
-1037 -1101 1174 0
1123 -1135 1210 0
-725 756 -795 0
759 -826 899 0
-1142 1160 -1164 0
-842 899 984 0
-980 -1193 1195 0
-1092 -1153 -1222 0
-701 884 -1120 0
-995 1111 1200 0
-753 810 860 0
-898 -1200 -1207 0
-733 928 972 0
-947 958 -1137 0
784 926 -1157 0
705 903 -1156 0
678 -961 -1201 0
679 764 -976 0
774 -1032 -1073 0
-860 -1177 -1184 0
877 -1106 1223 0
659 -759 868 0
-695 -1004 1056 0
-970 -997 -1125 0
-929 -972 1027 0
-989 1032 -1171 0
943 -974 1207 0
-708 777 871 0
719 -809 826 0
-823 986 -1048 0
-867 905 -1215 0
-917 -934 -1003 0
-737 -746 -1009 0
881 931 -1027 0
-768 1135 -1160 0
722 -855 -1216 0
694 741 -944 0
903 -1115 1172 0
808 811 -1047 0
-979 1054 1107 0
1081 1150 -1218 0
-672 -686 1021 0
852 1014 1188 0
772 -802 -861 0
761 -1007 1180 0
-919 1083 1202 0
834 969 -1128 0
-699 827 887 0
854 -994 1026 0
-741 785 1203 0
-705 775 -1122 0
-757 860 -1134 0
-684 -735 -1202 0
-696 968 1029 0
902 1045 1220 0
-841 -982 -989 0
962 -1031 -1192 0
-907 -1144 -1169 0
-717 -821 -832 0
736 -1026 -1211 0
671 765 -1127 0
-851 1009 1100 0
-823 -826 -1095 0
817 -980 1097 0
-660 -887 -1092 0
874 -1007 1045 0
-661 -784 -1085 0
-1115 -1126 1172 0
756 -909 -940 0
-956 1013 1168 0
795 929 1013 0
820 844 924 0
-869 1150 1205 0
-689 -883 1103 0
-672 -1174 -1209 0
-787 -984 1028 0
686 940 -1036 0
-660 736 -756 0
826 1202 -1206 0
937 1032 -1080 0
-689 -739 1022 0
-819 837 1197 0
-851 1004 -1033 0
853 1171 1178 0
-697 -1108 -1205 0
-983 1003 -1048 0
-667 -796 -1091 0
-667 1176 1210 0
-784 801 -991 0
668 -1014 1165 0
-956 1007 -1041 0
1003 -1127 -1139 0
690 -846 -1194 0
852 1014 1077 0
-1045 -1200 1201 0
-736 883 1169 0
-863 873 1167 0
-816 -1013 1055 0
917 -980 -1131 0
-717 812 -841 0
670 -764 993 0
-907 998 1111 0
701 789 838 0
-710 830 -1114 0
-893 -922 1208 0
-921 940 -1049 0
898 -916 -935 0
835 -862 -943 0
752 1068 1123 0
710 781 -925 0
720 1123 1207 0
-789 971 -1009 0
-767 949 -1095 0
822 -890 -932 0
810 825 898 0
756 1004 1147 0
-719 -761 -997 0
775 955 -1211 0
-1127 -1190 1193 0
791 -979 1200 0
804 -901 1178 0
-707 943 1009 0
806 1107 -1205 0
855 860 -957 0
-743 -873 889 0
-775 952 -995 0
771 -1002 1089 0
756 -778 1007 0
-923 -978 -1040 0
-788 900 -1101 0
659 786 -866 0
735 -846 1223 0
695 -881 1162 0
717 -1100 1154 0
703 829 -1062 0
831 969 -1094 0
-926 1049 -1096 0
737 -895 -1171 0
-913 935 -987 0
776 836 917 0
931 -1108 1172 0
-699 -770 805 0
802 -952 1162 0
830 868 1058 0
-773 859 -971 0
808 856 1188 0
834 -950 1074 0
875 -1087 -1128 0
756 966 1110 0
-920 1089 1094 0
-1049 1132 1138 0
-781 1063 1200 0
1029 1039 1202 0
-1174 1205 1206 0
-989 -1007 -1167 0
889 895 -1156 0
-734 -908 918 0
-669 683 1123 0
848 -996 -1019 0
-778 1005 1105 0
968 -990 -1056 0
-762 843 983 0
704 -796 1060 0
907 -984 -1166 0
876 998 -1206 0
728 837 1050 0
799 -907 -1025 0
-743 925 -952 0
-1115 1141 -1203 0
-1019 1020 1030 0
865 913 -979 0
-872 1070 1207 0
-776 -813 1207 0
-674 846 1191 0
839 -1045 -1062 0
-788 -925 1223 0
735 771 910 0
-875 -912 1193 0
748 -892 -1195 0
-1010 -1105 1168 0
818 1032 -1210 0
801 1179 1221 0
941 1096 1172 0
781 790 875 0
-1117 1118 -1184 0
-811 -911 1113 0
770 799 -867 0
730 -746 1193 0
897 -1086 1175 0
-768 -1024 1193 0
842 -972 1092 0
-786 989 -1205 0
-773 811 -1143 0
-982 -1029 1099 0
664 721 972 0
-667 690 -1189 0
-1106 1124 -1212 0
808 1033 -1064 0
-742 -1079 1163 0
-878 -1050 1051 0
737 -764 1103 0
-826 920 1122 0
828 -1009 1043 0
-745 1141 1208 0
1143 1145 -1184 0
-701 -756 1056 0
-695 -847 1190 0
839 -1011 -1175 0
-807 1020 1112 0
697 978 -1160 0
-780 1115 1123 0
-1033 -1107 -1166 0
-909 -952 1078 0
721 870 -1066 0
742 899 -1147 0
797 885 -1162 0
796 1088 -1135 0
-706 -936 -1199 0
-750 976 1031 0
674 -814 1094 0
689 761 -1190 0
916 -923 -999 0
923 -972 1040 0
900 920 989 0
686 905 958 0
-790 803 1133 0
-749 835 950 0
-737 -1076 1110 0
-1005 1082 1165 0
706 717 -1013 0
717 762 -893 0
782 875 -1119 0
756 -794 -976 0
-898 920 -986 0
-993 1220 1221 0
735 879 1155 0
-878 -940 1093 0
-832 -841 -858 0
707 -939 1046 0
-992 1005 -1197 0
941 -1073 -1196 0
-706 -842 -927 0
-706 727 1036 0
-725 -1008 -1060 0
-847 904 1140 0
-990 -1021 -1145 0
805 -1020 -1176 0
-1146 1202 1208 0
909 -1028 1133 0
857 946 1144 0
844 -1177 1199 0
-822 -1028 -1033 0
-774 -795 -845 0
-670 -1032 1044 0
752 939 -1185 0
-804 -1140 -1205 0
671 -774 816 0
-817 -990 -1039 0
740 -786 -845 0
811 823 -1029 0
-942 -950 1211 0
-763 1206 -1211 0
-678 -1008 -1038 0
752 926 -1065 0
-839 951 1045 0
-659 -688 -708 0
-879 885 -1055 0
776 -883 -1011 0
723 1016 1037 0
1031 -1116 -1136 0
834 914 961 0
-665 861 1117 0
788 1097 1134 0
668 -728 1107 0
-732 782 846 0
987 -1010 1085 0
-820 -848 1037 0
-681 737 -1099 0
835 -930 1217 0
-658 836 -1189 0
-802 976 -1089 0
786 -811 1061 0
827 -928 932 0
-709 785 787 0
-956 1048 1140 0
-684 -817 1194 0
-821 1066 1213 0
712 1051 -1199 0
-671 -673 -918 0
-917 -1071 1173 0
-714 721 -919 0
-765 -851 -957 0
681 -877 1181 0
786 -931 1074 0
-878 880 -917 0
715 797 -966 0
-715 -739 -1176 0
711 749 1079 0
848 -1028 1173 0
-925 1194 1203 0
835 -897 1154 0
863 1040 -1117 0
796 1118 1194 0
823 -889 1005 0
-741 -865 969 0
1017 1101 -1110 0
-793 895 -1171 0
-729 840 1198 0
-857 -933 1062 0
667 668 986 0
-823 -835 1111 0
702 954 -987 0
-730 -1000 -1023 0
771 -856 -1168 0
-664 820 1127 0
983 1144 1158 0
-807 948 -1096 0
1042 1049 1179 0
-703 707 -709 0
-721 911 -1136 0
-773 890 -1029 0
-871 -939 -1042 0
-681 803 1051 0
-1028 -1116 1221 0
-906 1143 1146 0
698 932 -943 0
-713 1023 1072 0
-1057 1072 1123 0
868 -961 -1007 0
-1000 -1058 -1151 0
693 -852 -978 0
-753 980 -1102 0
-1049 1104 -1208 0
1059 -1088 -1185 0
-1088 1142 1155 0
863 1100 1159 0
-974 -1018 -1188 0
-679 783 786 0
760 814 -995 0
818 -948 -1001 0
669 920 -1041 0
666 -806 -935 0
779 814 -915 0
-784 -911 1043 0
1059 -1133 -1172 0
-705 -1089 -1160 0
-681 -915 -1097 0
888 1082 -1148 0
665 -694 -973 0
936 959 -1003 0
713 1029 -1100 0
-724 974 986 0
-708 -777 -780 0
-702 898 -989 0
-810 1007 1132 0
-799 903 987 0
770 -1044 -1218 0
690 990 1095 0
-698 859 1086 0
728 -736 -878 0
-822 1052 1202 0
-798 973 -1142 0
672 -719 -1080 0
816 819 1167 0
-795 -838 1142 0
-670 -717 -1159 0
987 1062 -1168 0
798 -893 -979 0
-692 -969 -1072 0
758 -944 -1099 0
756 -966 1197 0
-747 -999 1082 0
-958 -1025 1224 0
-753 -817 1060 0
903 -1043 -1069 0
870 -899 -1175 0
-855 -997 -1173 0
836 1037 -1083 0
-814 833 -1202 0
800 866 1154 0
-995 -1023 -1167 0
-741 -808 939 0
749 -947 -1224 0
-811 988 1119 0
816 -1057 1177 0
-660 1168 1169 0
897 1021 1168 0
904 961 1204 0
-766 817 1192 0
710 -932 1045 0
748 -1040 -1056 0
-713 -720 -828 0
818 -994 -1053 0
659 -727 838 0
-904 950 957 0
795 -946 1088 0
-693 -944 -1036 0
661 -735 -1007 0
-1055 1074 1216 0
749 -813 -996 0
-773 -931 -997 0
-945 974 -1065 0
826 -969 -1073 0
686 -769 899 0
-728 995 -1083 0
-844 -853 -1086 0
756 -941 -1065 0
783 806 1040 0
-664 -986 -1214 0
-894 -937 940 0
720 -995 1086 0
779 958 -964 0
-665 769 -865 0
-668 833 984 0
-721 -1070 1102 0
-809 -1168 -1175 0
916 -1006 1171 0
-782 -972 1020 0
742 -1126 -1140 0
906 -983 -1209 0
-818 -1049 1072 0
770 -912 1177 0
-826 857 1019 0
-782 804 -1048 0
-922 -925 -971 0
-766 -805 -1187 0
746 -771 -788 0
851 864 976 0
730 984 1073 0
893 -933 1053 0
-860 -900 -1190 0
714 -739 -1049 0
-790 876 -1168 0
-861 -921 -1014 0
961 -1156 -1182 0
-942 997 -1039 0
-707 1124 1155 0
846 934 1173 0
-681 818 -1179 0
664 974 1008 0
-692 828 -945 0
820 1016 -1202 0
821 -965 -984 0
782 -870 877 0
-771 907 -1093 0
878 979 1135 0
816 859 1221 0
679 937 1076 0
711 713 1119 0
939 -1043 -1156 0
741 -801 -1189 0
662 -861 925 0
-912 1053 -1106 0
-830 -1046 1127 0
-722 1113 -1197 0
-925 1177 1188 0
-841 -937 -1154 0
880 1054 1113 0
-672 -819 1056 0
-759 -885 -1107 0
-733 -747 921 0
-710 -828 -1152 0
-833 -969 1031 0
-763 989 1180 0
871 -966 1054 0
-1027 -1032 -1138 0
660 -706 878 0
679 1092 1204 0
1073 1089 -1160 0
-797 885 960 0
696 -831 -1021 0
-1040 1103 -1122 0
696 952 -1175 0
-798 826 -1158 0
-904 945 -964 0
770 -1095 1224 0
-747 1058 -1072 0
692 741 -938 0
-739 -769 936 0
890 928 -936 0
799 -842 -1014 0
780 892 -1066 0
-937 -1077 -1102 0
664 994 -1075 0
755 847 -905 0
-685 743 864 0
708 -855 872 0
-888 975 1054 0
668 804 1081 0
1065 -1106 -1174 0
-721 -936 1094 0
-837 848 1167 0
950 1097 -1133 0
-662 -957 1163 0
-704 1043 -1057 0
998 -1093 1102 0
-741 -970 1114 0
-1088 -1128 1212 0
-862 894 -1014 0
802 900 -1130 0
667 -927 1085 0
841 -874 991 0
852 -960 -1075 0
695 715 1221 0
831 937 -997 0
750 862 1001 0
695 -766 -1073 0
710 773 922 0
732 -935 1187 0
-864 1013 1052 0
950 1119 -1175 0
912 -1083 1116 0
835 1068 -1203 0
-795 -1024 1194 0
833 877 947 0
-760 -783 902 0
689 -847 -1188 0
-1018 -1019 -1167 0
1037 1208 1218 0
-828 931 -1221 0
-735 741 -1073 0
-1115 -1190 -1208 0
843 -872 1096 0
-917 997 -1071 0
1010 1017 -1127 0
756 862 -1194 0
-661 838 -899 0
863 1082 -1102 0
-765 -790 -1052 0
-1047 -1054 1139 0
-681 990 1163 0
694 -723 -922 0
-749 977 -1046 0
833 990 -1079 0
1036 -1049 1121 0
737 1009 -1077 0
-686 -834 1096 0
666 849 -998 0
-718 -815 -1120 0
1036 1079 -1123 0
715 -725 961 0
-689 -1105 1182 0
-668 780 942 0
736 -893 1131 0
681 -844 1213 0
685 721 -748 0
984 -1052 -1203 0
-773 914 -1013 0
-762 904 -1221 0
926 -1038 1195 0
881 979 -1039 0
-710 1118 1213 0
-744 851 -1188 0
694 1030 1213 0
996 -997 1105 0
-714 -963 -1077 0
890 -1085 -1128 0
725 -796 -881 0
748 1107 -1126 0
-751 -1056 1136 0
892 -920 1004 0
-774 893 1087 0
693 1089 1119 0
-1111 -1115 -1177 0
-739 762 -869 0
791 -1033 1163 0
662 -691 -1060 0
1084 1097 -1165 0
725 -769 -1106 0
-734 1120 -1220 0
-959 1055 1211 0
-1040 1089 -1166 0
713 -723 1007 0
729 -762 -884 0
756 -829 987 0
-835 -837 -1068 0
790 -810 -1047 0
-711 -1112 1207 0
-738 -882 1003 0
-724 -879 -984 0
833 -868 971 0
-661 -1080 1159 0
-762 -990 -1144 0
791 -904 1125 0
1026 -1086 -1099 0
-977 990 1117 0
-902 -1032 1106 0
-800 -906 -1027 0
683 -749 956 0
835 -871 1188 0
707 -947 -1180 0
749 -805 945 0
742 -1023 -1062 0
-823 -977 -1030 0
1050 1148 -1216 0
767 810 859 0
-841 1150 -1172 0
-760 830 1123 0
-779 -985 -1007 0
731 -936 946 0
-842 854 -1048 0
800 -863 907 0
-856 1092 1176 0
-703 -1157 1173 0
-795 998 1114 0
-682 -1085 -1104 0
737 823 -882 0
836 1017 -1043 0
-677 -813 -1191 0
814 -1037 1208 0
718 -929 1051 0
-750 806 -855 0
696 843 890 0
665 1148 -1203 0
734 -767 -1009 0
-779 -801 -967 0
-726 820 1187 0
-828 830 -948 0
-686 -705 -789 0
-826 -998 -1029 0
-919 1023 -1031 0
698 841 -1133 0
730 1187 -1200 0
-870 -921 1088 0
806 924 -957 0
729 747 859 0
-866 -921 1057 0
689 -1079 1139 0
-711 -1114 -1136 0
730 -750 880 0
-954 -988 -1212 0
956 976 1058 0
1050 -1080 -1115 0
-669 -704 1123 0
676 823 -993 0
727 778 1137 0
992 -1147 1214 0
751 953 -1053 0
-730 -1052 1102 0
-678 -974 -1037 0
688 -775 -1180 0
783 822 1144 0
684 816 996 0
-869 985 1011 0
-947 -1004 -1017 0
-890 936 1151 0
-713 985 -1136 0
714 968 -1176 0
-859 -960 -1127 0
907 -913 970 0
-661 750 832 0
-843 -1131 1159 0
-664 733 1052 0
673 1019 1175 0
-711 -891 1091 0
673 683 868 0
669 -886 917 0
662 748 -750 0
-727 1062 -1185 0
-778 -894 -931 0
922 1018 1139 0
756 1153 -1190 0
747 833 -1163 0
-819 822 844 0
-967 1013 -1210 0
737 -1000 1070 0
-729 -799 1177 0
-818 -1017 -1030 0
-675 732 850 0
928 1028 -1085 0
661 844 -939 0
-766 -770 1151 0
1061 -1149 -1200 0
-1043 1066 1215 0
-1038 -1105 -1125 0
-865 -898 -1127 0
-799 1130 -1216 0
778 846 1119 0
678 905 970 0
735 845 -1019 0
-715 850 -1001 0
884 903 -978 0
-951 1031 -1122 0
660 1035 -1083 0
732 999 -1095 0
-948 -1018 -1179 0
-701 849 -941 0
927 -981 -1224 0
987 -1073 -1176 0
713 -1020 1025 0
976 1082 -1111 0
-959 1077 1095 0
690 -709 -920 0
729 -850 -857 0
663 -945 -991 0
741 -841 -1164 0
938 -1041 -1170 0
689 1103 -1189 0
-802 816 1023 0
-980 -1027 1081 0
-908 927 -993 0
-699 978 1221 0
-779 968 1085 0
-766 882 -1108 0
-878 -926 1219 0
877 1172 1192 0
854 -919 -951 0
877 -1111 1202 0
-932 989 1064 0
906 1015 1117 0
707 -933 -1220 0
855 908 1138 0
-792 -868 -1155 0
-772 -791 1122 0
-729 775 -835 0
668 -1122 -1175 0
-887 1058 1117 0
816 855 1120 0
-664 -1087 -1135 0
822 -1012 1189 0
669 1216 -1217 0
-672 -892 -1019 0
1107 1112 1214 0
-994 -1115 1168 0
-972 1126 1130 0
681 -965 -1178 0
-700 -1099 1222 0
-755 -874 1157 0
-943 -947 -1110 0
820 1166 -1192 0
-753 1049 -1207 0
-759 -794 957 0
-924 -1016 -1147 0
-815 -1101 -1224 0
779 905 1141 0
855 953 1060 0
-911 1111 -1163 0
725 -858 937 0
-807 -925 -1000 0
-753 -844 -946 0
-703 -752 -1066 0
783 840 1163 0
822 907 -1130 0
-803 -1025 -1175 0
909 -962 -1062 0
678 -773 1065 0
-907 970 -1176 0
718 847 929 0
846 -1089 -1097 0
982 1006 -1217 0
-888 973 991 0
-732 -1090 -1205 0
-694 944 947 0
-708 832 996 0
837 -881 1029 0
-688 945 988 0
-888 -942 -1126 0
797 1047 1215 0
-872 951 1019 0
-855 -969 -1071 0
810 -822 1097 0
-694 970 -1174 0
717 719 -893 0
852 983 1129 0
690 770 786 0
-734 926 -1217 0
759 894 943 0
804 -837 894 0
-674 786 -1103 0
961 1069 -1181 0
700 -712 -939 0
721 -861 927 0
-1023 -1101 -1143 0
849 -949 1217 0
672 883 -1047 0
-809 1084 1182 0
-683 747 960 0
-665 930 -1165 0
-694 739 819 0
1000 1060 1190 0
726 -851 -962 0
690 725 -1151 0
-890 1014 1089 0
834 -880 985 0
696 1026 -1027 0
1081 1088 -1143 0
-786 832 -958 0
-818 1212 -1224 0
737 -902 1122 0
802 -821 1083 0
718 735 -1120 0
-794 988 1153 0
-819 830 1061 0
984 1028 1188 0
-794 -860 1101 0
-890 -931 -1154 0
-669 715 -1097 0
-730 746 -998 0
-724 -827 855 0
-804 -872 -1154 0
661 1080 1158 0
-739 1063 1170 0
898 934 -1195 0
-715 736 1178 0
-675 1122 1195 0
-895 -1156 1218 0
-686 -862 -1135 0
794 -835 -915 0
687 1003 1115 0
-783 -995 1025 0
947 1027 -1066 0
-972 -990 -1079 0
719 -823 -876 0
736 776 945 0
-888 1012 -1029 0
848 992 -1173 0
-722 954 -973 0
774 -953 -1034 0
842 885 -889 0
769 -885 931 0
-867 -888 1158 0
820 -996 1008 0
-822 -1058 -1167 0
673 878 1188 0
-897 -923 944 0
-819 869 1055 0
-694 744 1100 0
841 1109 1190 0
715 -741 -821 0
762 -914 -1028 0
797 -826 926 0
-830 -1166 1169 0
-659 1048 -1201 0
798 1007 -1148 0
762 998 1026 0
861 876 -929 0
661 -966 1009 0
-942 1001 -1140 0
-659 -953 968 0
761 1210 1223 0
-749 905 -1102 0
702 816 891 0
-674 747 -835 0
842 871 -988 0
-877 926 -1168 0
659 828 -1212 0
744 1016 1197 0
-658 -1031 1122 0
-688 1039 1068 0
844 -869 -1049 0
-820 -875 1215 0
-999 1057 -1093 0
719 791 -1051 0
958 1078 1155 0
727 900 -1075 0
-743 -853 1046 0
802 -940 1084 0
800 -1126 1185 0
663 695 885 0
877 -908 -1091 0
-956 -989 1028 0
-691 -845 1127 0
-822 972 -997 0
681 -1120 -1134 0
-693 -789 -1122 0
-719 -959 1067 0
726 792 -1142 0
858 -879 -1175 0
-811 857 981 0
730 -1059 -1170 0
665 885 -1200 0
-813 -876 1063 0
-693 -850 918 0
850 872 -945 0
-819 -876 -936 0
-1014 1021 -1118 0
761 -1034 -1059 0
707 -1046 -1085 0
690 -1074 1149 0
751 -996 1004 0
791 -1142 -1189 0
-973 1055 -1103 0
970 1067 -1170 0
-823 -1030 1108 0
-901 -974 1179 0
869 -871 -949 0
-787 -931 -1126 0
-844 -935 1026 0
-873 967 -979 0
685 786 -1051 0
-721 1116 1120 0
-721 -969 1049 0
-828 852 -872 0
741 -780 1139 0
-910 -1021 -1100 0
-835 -1066 -1083 0
-680 -750 -960 0
-675 877 1105 0
669 736 893 0
754 950 1051 0
-774 -992 -1021 0
-708 769 -914 0
-868 -912 -1081 0
823 -1037 -1210 0
-679 900 -916 0
-1089 -1187 -1216 0
698 831 1036 0
-721 -737 1163 0
-672 -994 1193 0
-1067 -1083 1132 0
-686 754 -1114 0
711 1084 -1146 0
843 -856 -1174 0
-713 -816 -966 0
-793 -915 1001 0
663 -763 1102 0
751 823 -1152 0
-860 -870 -1198 0
-872 -1062 -1215 0
-757 -989 -1191 0
-693 737 1150 0
815 950 -1086 0
-722 858 1079 0
684 -1007 -1191 0
832 910 1066 0
781 889 1087 0
1059 1150 -1154 0
956 -981 -1220 0
805 -836 1099 0
-743 -976 -1083 0
838 -1176 1195 0
820 1151 1185 0
-755 823 839 0
-722 -904 -946 0
-683 869 -997 0
824 -1007 -1029 0
771 -826 976 0
-802 -1012 1070 0
-710 874 -936 0
-676 -724 743 0
747 -850 990 0
-697 713 -1047 0
846 -1019 1166 0
-674 -1003 -1152 0
867 986 1150 0
-842 923 -950 0
-709 -723 1199 0
-853 -996 1106 0
707 -728 916 0
-684 768 1202 0
-972 -997 -1168 0
-670 -790 803 0
820 -860 881 0
906 -1017 -1210 0
809 924 1172 0
1049 -1149 1180 0
-671 -926 1017 0
695 854 924 0
688 -839 -1050 0
677 -705 981 0
-700 1106 1168 0
-713 -903 -1134 0
-897 1161 -1214 0
-899 1141 1151 0
839 1107 1202 0
-881 938 -1114 0
719 -844 958 0
710 925 -1015 0
-861 -965 985 0
754 1165 -1210 0
677 -995 -1111 0
-892 -933 1074 0
853 979 -1156 0
-924 -960 -1124 0
-777 981 -1050 0
-860 -929 1026 0
705 1092 1164 0
846 916 1077 0
-899 -1160 1184 0
-668 846 900 0
931 -1182 -1221 0
-1128 1171 1199 0
-666 -741 1216 0
922 989 1127 0
768 972 -1199 0
920 -1068 -1132 0
706 -982 -993 0
751 -808 -1178 0
-807 -830 1155 0
856 -1038 1062 0
726 -877 898 0
925 1137 1157 0
694 -794 1051 0
-813 -818 1127 0
769 789 -961 0
-753 1083 1207 0
-766 -767 -945 0
-709 1039 1191 0
-927 -1081 1187 0
1012 1073 1143 0
-686 -1060 -1116 0
-774 -873 -1068 0
848 1150 1191 0
884 -1120 1145 0
-1133 -1143 1159 0
1087 1116 1142 0
-736 814 -1035 0
-999 -1109 1141 0
837 896 1009 0
-660 -738 975 0
1009 1076 -1223 0
971 973 1083 0
927 -1063 1091 0
-821 -926 -1104 0
698 1094 1161 0
895 930 -931 0
-985 1062 -1194 0
-964 1120 1224 0
914 -956 1043 0
-719 -838 865 0
-727 910 -1222 0
-967 985 -1063 0
-856 951 -1143 0
-735 795 886 0
-790 -913 -1010 0
-720 -750 1018 0
-873 -925 1096 0
689 -748 784 0
-672 -824 -1136 0
935 1138 -1219 0
-889 -972 1163 0
-684 959 -1092 0
