c Phase 3 random 3-SAT negative control
c seed=32012
c ratio=4.26
c variant=uniform
c expected=TO_VALIDATE
p cnf 150 639
9 -65 -120 0
-109 -114 131 0
61 -123 -138 0
-91 107 129 0
-1 12 79 0
29 -80 -113 0
63 128 -139 0
-19 23 63 0
5 103 -104 0
-89 -117 -146 0
87 -132 148 0
-1 -8 24 0
19 28 29 0
71 113 -132 0
-41 -85 123 0
-42 -79 150 0
53 62 -98 0
-68 -137 -145 0
-42 -98 117 0
-10 -70 121 0
-8 34 103 0
10 35 -118 0
19 118 146 0
-85 -95 129 0
17 124 148 0
62 106 140 0
34 44 121 0
22 126 -142 0
73 93 -102 0
-68 -72 84 0
51 -78 98 0
-17 -34 92 0
44 -64 118 0
-10 -66 115 0
-29 -125 -148 0
3 -23 112 0
61 -64 -132 0
24 73 99 0
18 -22 54 0
-27 97 -114 0
-5 -78 -141 0
-72 75 123 0
-23 49 74 0
41 -81 120 0
18 45 -67 0
17 -64 -74 0
61 -92 123 0
69 113 139 0
25 -61 108 0
-46 61 97 0
9 -36 -45 0
-4 61 -68 0
-27 -47 62 0
-29 -90 -103 0
-7 -23 -86 0
-35 -93 -109 0
-38 59 -140 0
-3 72 -117 0
94 98 -145 0
31 37 142 0
14 101 -125 0
34 42 104 0
-33 56 -101 0
-32 47 -52 0
-88 -115 135 0
99 123 126 0
73 78 149 0
46 61 144 0
28 69 -79 0
11 -26 -32 0
2 -65 -87 0
38 -112 -123 0
-45 -103 -135 0
-24 -46 117 0
49 85 -126 0
9 20 -109 0
-68 104 -117 0
-17 137 143 0
-35 -51 91 0
46 68 -124 0
-37 -129 136 0
2 12 -60 0
4 38 39 0
81 92 -148 0
-24 72 133 0
75 90 125 0
-28 -98 -140 0
40 63 70 0
15 16 41 0
-40 -131 134 0
-48 107 147 0
-43 -75 125 0
-100 112 -130 0
-16 24 -143 0
-35 -43 -49 0
20 30 71 0
-83 -85 -130 0
-48 -95 126 0
-26 67 139 0
24 -30 76 0
10 -92 -139 0
25 135 137 0
-40 -43 83 0
44 104 -119 0
61 -102 -138 0
-11 13 -47 0
-46 -107 -132 0
-1 67 -92 0
76 -87 129 0
49 82 -135 0
-67 -94 -111 0
30 -46 61 0
31 76 100 0
65 -94 121 0
-45 -131 132 0
-99 -117 135 0
22 99 106 0
-73 129 -145 0
-20 -110 143 0
78 108 127 0
39 92 -116 0
-72 95 109 0
19 128 148 0
-13 61 117 0
32 -58 -111 0
-12 59 67 0
-3 -6 150 0
86 -90 123 0
33 -42 -137 0
-81 93 -145 0
23 60 -82 0
27 142 -147 0
75 -81 106 0
-13 31 34 0
-35 91 -138 0
37 -131 147 0
8 -14 -104 0
30 -58 69 0
-3 8 -41 0
18 85 -115 0
-62 -114 -143 0
66 -126 138 0
86 87 149 0
-6 -32 37 0
-33 -75 100 0
-22 33 34 0
-48 -74 95 0
-84 -126 139 0
-13 40 78 0
40 -59 -106 0
25 35 144 0
23 84 98 0
45 53 91 0
-49 75 121 0
91 -135 -146 0
20 35 -85 0
46 75 99 0
-116 132 -143 0
-34 -106 -122 0
13 -93 141 0
-35 103 -119 0
-37 -48 -114 0
-47 117 138 0
-24 -47 138 0
76 -100 -132 0
-39 44 -52 0
-66 -73 -89 0
-57 101 132 0
14 20 148 0
24 -46 -79 0
2 -100 131 0
-10 39 147 0
32 -80 100 0
17 -50 102 0
64 -96 114 0
-53 -123 145 0
-34 -83 135 0
35 -53 -110 0
41 -46 85 0
-50 56 132 0
-80 -107 135 0
-46 -79 112 0
15 -67 -95 0
-24 51 -96 0
39 110 131 0
-81 -114 -149 0
-1 -50 124 0
-20 22 -112 0
-63 -104 -138 0
-11 48 130 0
-12 -86 -98 0
3 71 -107 0
28 84 132 0
-56 -131 134 0
-46 56 64 0
-51 -98 110 0
7 -16 106 0
68 82 -123 0
-12 -66 131 0
-30 -103 -117 0
-114 -132 -141 0
12 38 56 0
57 -111 117 0
78 -117 125 0
2 45 99 0
-78 -108 -143 0
-11 -78 -117 0
8 -128 -141 0
-24 32 -35 0
17 -31 -97 0
-67 70 -99 0
22 -29 79 0
-51 94 -147 0
-6 -45 66 0
17 -144 150 0
-27 29 51 0
-33 46 -79 0
13 63 150 0
-17 -38 -51 0
13 -42 54 0
14 -28 -135 0
-32 61 -95 0
20 -44 107 0
26 -112 -140 0
1 93 94 0
-49 -52 -88 0
-17 -97 129 0
-22 58 -99 0
91 -108 -142 0
26 -67 -103 0
-52 -75 -91 0
64 -109 129 0
-31 74 -121 0
32 60 76 0
43 133 -141 0
130 137 139 0
-75 110 -125 0
-80 130 -148 0
20 -42 -65 0
-6 -83 142 0
-13 36 -140 0
-30 70 -113 0
-16 49 150 0
-92 -138 -142 0
-18 -40 -54 0
-69 -101 -132 0
-48 -86 147 0
21 57 -134 0
12 56 -107 0
9 61 -139 0
-10 -11 -93 0
-22 113 -118 0
-56 89 140 0
5 116 -122 0
3 115 123 0
-10 30 60 0
-62 84 133 0
-39 47 88 0
30 -137 -145 0
68 106 124 0
73 -128 142 0
34 -37 -118 0
-30 -55 106 0
26 -45 -51 0
18 -21 88 0
-9 103 121 0
26 -75 -122 0
21 -25 121 0
48 -50 110 0
25 -53 137 0
90 114 125 0
-31 63 -95 0
76 -122 -129 0
-23 -41 150 0
-42 110 120 0
-23 -44 -140 0
7 -43 45 0
13 -69 -140 0
54 70 -142 0
-65 79 87 0
-98 -142 147 0
68 -88 -131 0
98 135 138 0
14 21 122 0
-58 -65 132 0
22 51 -115 0
-17 65 -137 0
-24 93 111 0
-5 103 135 0
2 91 131 0
78 -91 131 0
7 -103 -141 0
22 95 120 0
-41 -108 128 0
39 56 143 0
49 -82 -91 0
53 -101 -142 0
61 -95 -102 0
-40 -55 142 0
-17 -117 -119 0
50 74 -137 0
46 -117 133 0
74 -93 113 0
-2 103 105 0
18 -76 -110 0
32 -86 100 0
-9 -45 141 0
-45 -89 132 0
-26 -32 -53 0
-53 90 95 0
99 -114 -142 0
31 79 134 0
-49 -73 -144 0
8 -24 -52 0
-8 113 -123 0
-36 60 80 0
9 -50 57 0
16 72 -90 0
-35 -74 -99 0
-29 -33 145 0
15 33 97 0
-43 -90 -115 0
55 68 -116 0
12 -37 -138 0
73 107 115 0
15 38 99 0
-23 -34 54 0
-134 -147 -149 0
-120 -133 -138 0
-38 -98 101 0
53 -137 140 0
-32 87 -95 0
-45 -48 70 0
-71 133 -150 0
2 -84 90 0
21 54 -149 0
-29 -74 78 0
-61 69 98 0
64 -79 -113 0
33 56 -111 0
-1 69 126 0
45 71 138 0
-2 47 73 0
42 -100 139 0
13 15 40 0
-75 -102 114 0
-35 40 96 0
90 104 145 0
-49 -128 134 0
-54 57 150 0
67 -85 -109 0
-7 11 39 0
75 82 -130 0
-7 54 -78 0
99 100 -134 0
-52 -79 149 0
1 -133 145 0
-38 -66 -101 0
15 42 -138 0
14 -53 150 0
-11 -19 -27 0
8 30 52 0
32 -84 146 0
-14 -22 140 0
-21 -50 113 0
-28 -62 76 0
30 42 61 0
56 144 150 0
-35 -43 141 0
-34 -66 88 0
-22 56 102 0
14 -25 -134 0
5 22 -115 0
29 -72 91 0
-33 120 150 0
-87 122 148 0
62 121 130 0
23 -24 -125 0
-5 -32 63 0
-8 -14 143 0
18 19 52 0
112 -140 -144 0
-31 78 -126 0
-40 67 -88 0
-18 35 55 0
47 -84 -117 0
87 112 148 0
-9 17 40 0
-22 40 -142 0
28 47 111 0
-37 -131 -140 0
-56 -68 138 0
-29 -52 67 0
21 75 -131 0
-33 92 117 0
-18 -21 -72 0
-29 68 77 0
57 -62 -126 0
-3 -53 97 0
3 -12 83 0
-21 42 147 0
-28 32 -35 0
-88 -102 105 0
45 96 -132 0
-42 -130 -133 0
-21 -35 68 0
-5 17 -105 0
88 -110 -132 0
17 40 134 0
-2 -25 -56 0
-68 -113 128 0
12 -49 72 0
-56 -72 -110 0
-83 -85 107 0
-28 -84 -112 0
-15 -25 75 0
82 -94 -146 0
-42 78 -109 0
-46 89 125 0
6 41 -55 0
-31 -37 83 0
75 -82 -85 0
-111 -131 150 0
13 87 105 0
-87 -120 135 0
-11 -140 -142 0
14 -35 -57 0
37 -99 102 0
27 -45 69 0
36 50 -74 0
-28 -75 -111 0
7 -129 -131 0
78 -113 -128 0
126 128 135 0
37 53 129 0
-20 50 -115 0
27 68 -93 0
-69 -104 132 0
63 108 -144 0
24 147 150 0
42 61 -103 0
45 -52 80 0
-65 112 -119 0
21 -49 66 0
27 52 -65 0
-29 -92 -107 0
48 51 -106 0
42 -88 -143 0
-10 68 121 0
-52 -74 -91 0
-53 -87 128 0
107 -125 131 0
-12 14 106 0
68 -92 -118 0
-11 15 125 0
-1 -59 -80 0
29 -65 148 0
7 -100 142 0
11 18 -133 0
-10 38 -79 0
52 -84 103 0
19 -55 -73 0
-14 -24 -126 0
50 131 -141 0
-11 34 -37 0
-39 -125 -135 0
11 53 -73 0
-8 -69 126 0
-11 89 98 0
-17 101 115 0
64 -113 118 0
24 90 117 0
-64 -88 -108 0
3 -106 -129 0
-9 -28 142 0
7 26 -81 0
46 -97 -100 0
-40 54 -75 0
43 48 -68 0
-28 -121 -135 0
136 -137 -148 0
-25 99 -121 0
50 -53 -67 0
-6 -68 -78 0
-36 -64 -96 0
22 100 -123 0
33 76 -97 0
47 56 107 0
42 117 120 0
82 -124 -146 0
12 37 145 0
-74 -87 -134 0
-35 130 -133 0
-41 -57 132 0
-44 -122 145 0
34 82 132 0
96 102 -143 0
14 -29 -104 0
10 106 -145 0
13 40 74 0
-103 107 -124 0
-21 35 51 0
83 -84 -108 0
24 98 -136 0
96 97 113 0
50 84 149 0
103 -128 138 0
-5 -95 127 0
25 124 133 0
-48 -65 141 0
14 73 145 0
-35 -51 87 0
-9 14 15 0
-14 -45 -141 0
-32 -88 126 0
79 110 149 0
125 -132 -133 0
-110 117 146 0
-30 -50 -53 0
19 -101 120 0
-13 112 119 0
106 -116 135 0
-44 84 -112 0
1 -77 112 0
59 -79 141 0
29 108 110 0
32 -43 120 0
10 14 134 0
14 30 93 0
88 124 -125 0
-17 -67 -132 0
33 -41 62 0
-10 27 143 0
9 46 64 0
-137 138 -150 0
-25 -78 114 0
-99 -129 -133 0
-21 98 -149 0
16 -49 -120 0
63 107 -131 0
-2 73 -84 0
-15 131 148 0
8 118 142 0
63 72 -142 0
-4 -9 -25 0
-20 92 -109 0
-7 -137 141 0
52 -74 -116 0
-51 56 -75 0
-112 138 145 0
19 112 150 0
76 -101 -108 0
7 36 78 0
-9 27 38 0
-1 49 -106 0
55 76 94 0
-2 9 -109 0
122 -134 -147 0
35 60 -142 0
-1 -66 89 0
34 121 -127 0
-34 113 -130 0
-27 -99 112 0
2 17 -141 0
122 -140 141 0
-21 -22 107 0
-82 84 -104 0
7 11 -52 0
-78 121 -150 0
25 67 -125 0
-39 -45 -146 0
22 112 148 0
-57 75 -120 0
-61 -78 -106 0
50 111 124 0
-30 87 141 0
-74 -126 -132 0
-17 -49 -108 0
-19 -116 -150 0
60 96 136 0
82 93 144 0
-9 -97 -134 0
-67 83 -119 0
9 19 93 0
-19 -114 -128 0
14 -29 78 0
-17 -38 74 0
-11 124 150 0
89 -114 134 0
-17 -114 -123 0
-33 68 76 0
14 15 -45 0
46 99 104 0
-33 90 -104 0
-21 41 -138 0
25 -33 -136 0
47 51 -93 0
-84 -99 134 0
-85 -94 96 0
-15 27 -93 0
47 102 112 0
-29 32 120 0
30 -52 -121 0
-6 -10 121 0
-21 102 118 0
34 -67 146 0
-50 126 -145 0
108 -144 147 0
24 -62 -126 0
-4 -43 51 0
-8 -138 -139 0
13 -35 -123 0
-11 -14 138 0
25 133 -143 0
51 116 -124 0
37 -76 -138 0
49 85 134 0
49 91 -133 0
-20 29 -122 0
-37 93 97 0
15 -18 -95 0
27 -56 140 0
-31 -51 80 0
-6 -82 89 0
42 -88 -98 0
87 -128 133 0
-33 -35 -54 0
-81 113 126 0
-2 -45 -66 0
-5 13 61 0
23 63 97 0
62 -120 125 0
-12 20 106 0
-25 -33 -91 0
-18 -27 -113 0
-97 117 -118 0
-39 70 -84 0
-5 109 145 0
51 -84 -141 0
