c Phase 3 generated performance instance
c family=overlapping_hall_violation
c scale=6
c variant=phase4b
c noise_percent=0
c expected=UNSATISFIABLE
p cnf 84 475
-1 -2 0
-1 -3 0
-1 -4 0
-1 -5 0
-1 -6 0
-2 -3 0
-2 -4 0
-2 -5 0
-2 -6 0
-3 -4 0
-3 -5 0
-3 -6 0
-4 -5 0
-4 -6 0
-5 -6 0
1 2 3 4 5 6 0
-7 -8 0
-7 -9 0
-7 -10 0
-7 -11 0
-7 -12 0
-8 -9 0
-8 -10 0
-8 -11 0
-8 -12 0
-9 -10 0
-9 -11 0
-9 -12 0
-10 -11 0
-10 -12 0
-11 -12 0
7 8 9 10 11 12 0
-13 -14 0
-13 -15 0
-13 -16 0
-13 -17 0
-13 -18 0
-14 -15 0
-14 -16 0
-14 -17 0
-14 -18 0
-15 -16 0
-15 -17 0
-15 -18 0
-16 -17 0
-16 -18 0
-17 -18 0
13 14 15 16 17 18 0
-19 -20 0
-19 -21 0
-19 -22 0
-19 -23 0
-19 -24 0
-20 -21 0
-20 -22 0
-20 -23 0
-20 -24 0
-21 -22 0
-21 -23 0
-21 -24 0
-22 -23 0
-22 -24 0
-23 -24 0
19 20 21 22 23 24 0
-25 -26 0
-25 -27 0
-25 -28 0
-25 -29 0
-25 -30 0
-26 -27 0
-26 -28 0
-26 -29 0
-26 -30 0
-27 -28 0
-27 -29 0
-27 -30 0
-28 -29 0
-28 -30 0
-29 -30 0
25 26 27 28 29 30 0
-31 -32 0
-31 -33 0
-31 -34 0
-31 -35 0
-31 -36 0
-32 -33 0
-32 -34 0
-32 -35 0
-32 -36 0
-33 -34 0
-33 -35 0
-33 -36 0
-34 -35 0
-34 -36 0
-35 -36 0
31 32 33 34 35 36 0
-37 -38 0
-37 -39 0
-37 -40 0
-37 -41 0
-37 -42 0
-38 -39 0
-38 -40 0
-38 -41 0
-38 -42 0
-39 -40 0
-39 -41 0
-39 -42 0
-40 -41 0
-40 -42 0
-41 -42 0
37 38 39 40 41 42 0
-43 -44 0
-43 -45 0
-43 -46 0
-43 -47 0
-43 -48 0
-43 -49 0
-44 -45 0
-44 -46 0
-44 -47 0
-44 -48 0
-44 -49 0
-45 -46 0
-45 -47 0
-45 -48 0
-45 -49 0
-46 -47 0
-46 -48 0
-46 -49 0
-47 -48 0
-47 -49 0
-48 -49 0
43 44 45 46 47 48 49 0
-50 -51 0
-50 -52 0
-50 -53 0
-50 -54 0
-50 -55 0
-50 -56 0
-51 -52 0
-51 -53 0
-51 -54 0
-51 -55 0
-51 -56 0
-52 -53 0
-52 -54 0
-52 -55 0
-52 -56 0
-53 -54 0
-53 -55 0
-53 -56 0
-54 -55 0
-54 -56 0
-55 -56 0
50 51 52 53 54 55 56 0
-57 -58 0
-57 -59 0
-57 -60 0
-57 -61 0
-57 -62 0
-57 -63 0
-58 -59 0
-58 -60 0
-58 -61 0
-58 -62 0
-58 -63 0
-59 -60 0
-59 -61 0
-59 -62 0
-59 -63 0
-60 -61 0
-60 -62 0
-60 -63 0
-61 -62 0
-61 -63 0
-62 -63 0
57 58 59 60 61 62 63 0
-64 -65 0
-64 -66 0
-64 -67 0
-64 -68 0
-64 -69 0
-64 -70 0
-65 -66 0
-65 -67 0
-65 -68 0
-65 -69 0
-65 -70 0
-66 -67 0
-66 -68 0
-66 -69 0
-66 -70 0
-67 -68 0
-67 -69 0
-67 -70 0
-68 -69 0
-68 -70 0
-69 -70 0
64 65 66 67 68 69 70 0
-71 -72 0
-71 -73 0
-71 -74 0
-71 -75 0
-71 -76 0
-71 -77 0
-72 -73 0
-72 -74 0
-72 -75 0
-72 -76 0
-72 -77 0
-73 -74 0
-73 -75 0
-73 -76 0
-73 -77 0
-74 -75 0
-74 -76 0
-74 -77 0
-75 -76 0
-75 -77 0
-76 -77 0
71 72 73 74 75 76 77 0
-78 -79 0
-78 -80 0
-78 -81 0
-78 -82 0
-78 -83 0
-78 -84 0
-79 -80 0
-79 -81 0
-79 -82 0
-79 -83 0
-79 -84 0
-80 -81 0
-80 -82 0
-80 -83 0
-80 -84 0
-81 -82 0
-81 -83 0
-81 -84 0
-82 -83 0
-82 -84 0
-83 -84 0
78 79 80 81 82 83 84 0
-1 -7 0
-1 -13 0
-1 -19 0
-1 -25 0
-1 -31 0
-1 -37 0
-7 -13 0
-7 -19 0
-7 -25 0
-7 -31 0
-7 -37 0
-13 -19 0
-13 -25 0
-13 -31 0
-13 -37 0
-19 -25 0
-19 -31 0
-19 -37 0
-25 -31 0
-25 -37 0
-31 -37 0
-2 -8 0
-2 -14 0
-2 -20 0
-2 -26 0
-2 -32 0
-2 -38 0
-8 -14 0
-8 -20 0
-8 -26 0
-8 -32 0
-8 -38 0
-14 -20 0
-14 -26 0
-14 -32 0
-14 -38 0
-20 -26 0
-20 -32 0
-20 -38 0
-26 -32 0
-26 -38 0
-32 -38 0
-3 -9 0
-3 -15 0
-3 -21 0
-3 -27 0
-3 -33 0
-3 -39 0
-9 -15 0
-9 -21 0
-9 -27 0
-9 -33 0
-9 -39 0
-15 -21 0
-15 -27 0
-15 -33 0
-15 -39 0
-21 -27 0
-21 -33 0
-21 -39 0
-27 -33 0
-27 -39 0
-33 -39 0
-4 -10 0
-4 -16 0
-4 -22 0
-4 -28 0
-4 -34 0
-4 -40 0
-10 -16 0
-10 -22 0
-10 -28 0
-10 -34 0
-10 -40 0
-16 -22 0
-16 -28 0
-16 -34 0
-16 -40 0
-22 -28 0
-22 -34 0
-22 -40 0
-28 -34 0
-28 -40 0
-34 -40 0
-5 -11 0
-5 -17 0
-5 -23 0
-5 -29 0
-5 -35 0
-5 -41 0
-11 -17 0
-11 -23 0
-11 -29 0
-11 -35 0
-11 -41 0
-17 -23 0
-17 -29 0
-17 -35 0
-17 -41 0
-23 -29 0
-23 -35 0
-23 -41 0
-29 -35 0
-29 -41 0
-35 -41 0
-6 -12 0
-6 -18 0
-6 -24 0
-6 -30 0
-6 -36 0
-6 -42 0
-12 -18 0
-12 -24 0
-12 -30 0
-12 -36 0
-12 -42 0
-18 -24 0
-18 -30 0
-18 -36 0
-18 -42 0
-24 -30 0
-24 -36 0
-24 -42 0
-30 -36 0
-30 -42 0
-36 -42 0
-43 -50 0
-43 -57 0
-43 -64 0
-43 -71 0
-43 -78 0
-50 -57 0
-50 -64 0
-50 -71 0
-50 -78 0
-57 -64 0
-57 -71 0
-57 -78 0
-64 -71 0
-64 -78 0
-71 -78 0
-44 -51 0
-44 -58 0
-44 -65 0
-44 -72 0
-44 -79 0
-51 -58 0
-51 -65 0
-51 -72 0
-51 -79 0
-58 -65 0
-58 -72 0
-58 -79 0
-65 -72 0
-65 -79 0
-72 -79 0
-45 -52 0
-45 -59 0
-45 -66 0
-45 -73 0
-45 -80 0
-52 -59 0
-52 -66 0
-52 -73 0
-52 -80 0
-59 -66 0
-59 -73 0
-59 -80 0
-66 -73 0
-66 -80 0
-73 -80 0
-46 -53 0
-46 -60 0
-46 -67 0
-46 -74 0
-46 -81 0
-53 -60 0
-53 -67 0
-53 -74 0
-53 -81 0
-60 -67 0
-60 -74 0
-60 -81 0
-67 -74 0
-67 -81 0
-74 -81 0
-47 -54 0
-47 -61 0
-47 -68 0
-47 -75 0
-47 -82 0
-54 -61 0
-54 -68 0
-54 -75 0
-54 -82 0
-61 -68 0
-61 -75 0
-61 -82 0
-68 -75 0
-68 -82 0
-75 -82 0
-48 -55 0
-48 -62 0
-48 -69 0
-48 -76 0
-48 -83 0
-55 -62 0
-55 -69 0
-55 -76 0
-55 -83 0
-62 -69 0
-62 -76 0
-62 -83 0
-69 -76 0
-69 -83 0
-76 -83 0
-49 -56 0
-49 -63 0
-49 -70 0
-49 -77 0
-49 -84 0
-56 -63 0
-56 -70 0
-56 -77 0
-56 -84 0
-63 -70 0
-63 -77 0
-63 -84 0
-70 -77 0
-70 -84 0
-77 -84 0
