c Phase 3 generated performance instance
c family=overlapping_hall_violation
c scale=11
c variant=phase4b
c noise_percent=0
c expected=UNSATISFIABLE
p cnf 264 2795
-1 -2 0
-1 -3 0
-1 -4 0
-1 -5 0
-1 -6 0
-1 -7 0
-1 -8 0
-1 -9 0
-1 -10 0
-1 -11 0
-2 -3 0
-2 -4 0
-2 -5 0
-2 -6 0
-2 -7 0
-2 -8 0
-2 -9 0
-2 -10 0
-2 -11 0
-3 -4 0
-3 -5 0
-3 -6 0
-3 -7 0
-3 -8 0
-3 -9 0
-3 -10 0
-3 -11 0
-4 -5 0
-4 -6 0
-4 -7 0
-4 -8 0
-4 -9 0
-4 -10 0
-4 -11 0
-5 -6 0
-5 -7 0
-5 -8 0
-5 -9 0
-5 -10 0
-5 -11 0
-6 -7 0
-6 -8 0
-6 -9 0
-6 -10 0
-6 -11 0
-7 -8 0
-7 -9 0
-7 -10 0
-7 -11 0
-8 -9 0
-8 -10 0
-8 -11 0
-9 -10 0
-9 -11 0
-10 -11 0
1 2 3 4 5 6 7 8 9 10 11 0
-12 -13 0
-12 -14 0
-12 -15 0
-12 -16 0
-12 -17 0
-12 -18 0
-12 -19 0
-12 -20 0
-12 -21 0
-12 -22 0
-13 -14 0
-13 -15 0
-13 -16 0
-13 -17 0
-13 -18 0
-13 -19 0
-13 -20 0
-13 -21 0
-13 -22 0
-14 -15 0
-14 -16 0
-14 -17 0
-14 -18 0
-14 -19 0
-14 -20 0
-14 -21 0
-14 -22 0
-15 -16 0
-15 -17 0
-15 -18 0
-15 -19 0
-15 -20 0
-15 -21 0
-15 -22 0
-16 -17 0
-16 -18 0
-16 -19 0
-16 -20 0
-16 -21 0
-16 -22 0
-17 -18 0
-17 -19 0
-17 -20 0
-17 -21 0
-17 -22 0
-18 -19 0
-18 -20 0
-18 -21 0
-18 -22 0
-19 -20 0
-19 -21 0
-19 -22 0
-20 -21 0
-20 -22 0
-21 -22 0
12 13 14 15 16 17 18 19 20 21 22 0
-23 -24 0
-23 -25 0
-23 -26 0
-23 -27 0
-23 -28 0
-23 -29 0
-23 -30 0
-23 -31 0
-23 -32 0
-23 -33 0
-24 -25 0
-24 -26 0
-24 -27 0
-24 -28 0
-24 -29 0
-24 -30 0
-24 -31 0
-24 -32 0
-24 -33 0
-25 -26 0
-25 -27 0
-25 -28 0
-25 -29 0
-25 -30 0
-25 -31 0
-25 -32 0
-25 -33 0
-26 -27 0
-26 -28 0
-26 -29 0
-26 -30 0
-26 -31 0
-26 -32 0
-26 -33 0
-27 -28 0
-27 -29 0
-27 -30 0
-27 -31 0
-27 -32 0
-27 -33 0
-28 -29 0
-28 -30 0
-28 -31 0
-28 -32 0
-28 -33 0
-29 -30 0
-29 -31 0
-29 -32 0
-29 -33 0
-30 -31 0
-30 -32 0
-30 -33 0
-31 -32 0
-31 -33 0
-32 -33 0
23 24 25 26 27 28 29 30 31 32 33 0
-34 -35 0
-34 -36 0
-34 -37 0
-34 -38 0
-34 -39 0
-34 -40 0
-34 -41 0
-34 -42 0
-34 -43 0
-34 -44 0
-35 -36 0
-35 -37 0
-35 -38 0
-35 -39 0
-35 -40 0
-35 -41 0
-35 -42 0
-35 -43 0
-35 -44 0
-36 -37 0
-36 -38 0
-36 -39 0
-36 -40 0
-36 -41 0
-36 -42 0
-36 -43 0
-36 -44 0
-37 -38 0
-37 -39 0
-37 -40 0
-37 -41 0
-37 -42 0
-37 -43 0
-37 -44 0
-38 -39 0
-38 -40 0
-38 -41 0
-38 -42 0
-38 -43 0
-38 -44 0
-39 -40 0
-39 -41 0
-39 -42 0
-39 -43 0
-39 -44 0
-40 -41 0
-40 -42 0
-40 -43 0
-40 -44 0
-41 -42 0
-41 -43 0
-41 -44 0
-42 -43 0
-42 -44 0
-43 -44 0
34 35 36 37 38 39 40 41 42 43 44 0
-45 -46 0
-45 -47 0
-45 -48 0
-45 -49 0
-45 -50 0
-45 -51 0
-45 -52 0
-45 -53 0
-45 -54 0
-45 -55 0
-46 -47 0
-46 -48 0
-46 -49 0
-46 -50 0
-46 -51 0
-46 -52 0
-46 -53 0
-46 -54 0
-46 -55 0
-47 -48 0
-47 -49 0
-47 -50 0
-47 -51 0
-47 -52 0
-47 -53 0
-47 -54 0
-47 -55 0
-48 -49 0
-48 -50 0
-48 -51 0
-48 -52 0
-48 -53 0
-48 -54 0
-48 -55 0
-49 -50 0
-49 -51 0
-49 -52 0
-49 -53 0
-49 -54 0
-49 -55 0
-50 -51 0
-50 -52 0
-50 -53 0
-50 -54 0
-50 -55 0
-51 -52 0
-51 -53 0
-51 -54 0
-51 -55 0
-52 -53 0
-52 -54 0
-52 -55 0
-53 -54 0
-53 -55 0
-54 -55 0
45 46 47 48 49 50 51 52 53 54 55 0
-56 -57 0
-56 -58 0
-56 -59 0
-56 -60 0
-56 -61 0
-56 -62 0
-56 -63 0
-56 -64 0
-56 -65 0
-56 -66 0
-57 -58 0
-57 -59 0
-57 -60 0
-57 -61 0
-57 -62 0
-57 -63 0
-57 -64 0
-57 -65 0
-57 -66 0
-58 -59 0
-58 -60 0
-58 -61 0
-58 -62 0
-58 -63 0
-58 -64 0
-58 -65 0
-58 -66 0
-59 -60 0
-59 -61 0
-59 -62 0
-59 -63 0
-59 -64 0
-59 -65 0
-59 -66 0
-60 -61 0
-60 -62 0
-60 -63 0
-60 -64 0
-60 -65 0
-60 -66 0
-61 -62 0
-61 -63 0
-61 -64 0
-61 -65 0
-61 -66 0
-62 -63 0
-62 -64 0
-62 -65 0
-62 -66 0
-63 -64 0
-63 -65 0
-63 -66 0
-64 -65 0
-64 -66 0
-65 -66 0
56 57 58 59 60 61 62 63 64 65 66 0
-67 -68 0
-67 -69 0
-67 -70 0
-67 -71 0
-67 -72 0
-67 -73 0
-67 -74 0
-67 -75 0
-67 -76 0
-67 -77 0
-68 -69 0
-68 -70 0
-68 -71 0
-68 -72 0
-68 -73 0
-68 -74 0
-68 -75 0
-68 -76 0
-68 -77 0
-69 -70 0
-69 -71 0
-69 -72 0
-69 -73 0
-69 -74 0
-69 -75 0
-69 -76 0
-69 -77 0
-70 -71 0
-70 -72 0
-70 -73 0
-70 -74 0
-70 -75 0
-70 -76 0
-70 -77 0
-71 -72 0
-71 -73 0
-71 -74 0
-71 -75 0
-71 -76 0
-71 -77 0
-72 -73 0
-72 -74 0
-72 -75 0
-72 -76 0
-72 -77 0
-73 -74 0
-73 -75 0
-73 -76 0
-73 -77 0
-74 -75 0
-74 -76 0
-74 -77 0
-75 -76 0
-75 -77 0
-76 -77 0
67 68 69 70 71 72 73 74 75 76 77 0
-78 -79 0
-78 -80 0
-78 -81 0
-78 -82 0
-78 -83 0
-78 -84 0
-78 -85 0
-78 -86 0
-78 -87 0
-78 -88 0
-79 -80 0
-79 -81 0
-79 -82 0
-79 -83 0
-79 -84 0
-79 -85 0
-79 -86 0
-79 -87 0
-79 -88 0
-80 -81 0
-80 -82 0
-80 -83 0
-80 -84 0
-80 -85 0
-80 -86 0
-80 -87 0
-80 -88 0
-81 -82 0
-81 -83 0
-81 -84 0
-81 -85 0
-81 -86 0
-81 -87 0
-81 -88 0
-82 -83 0
-82 -84 0
-82 -85 0
-82 -86 0
-82 -87 0
-82 -88 0
-83 -84 0
-83 -85 0
-83 -86 0
-83 -87 0
-83 -88 0
-84 -85 0
-84 -86 0
-84 -87 0
-84 -88 0
-85 -86 0
-85 -87 0
-85 -88 0
-86 -87 0
-86 -88 0
-87 -88 0
78 79 80 81 82 83 84 85 86 87 88 0
-89 -90 0
-89 -91 0
-89 -92 0
-89 -93 0
-89 -94 0
-89 -95 0
-89 -96 0
-89 -97 0
-89 -98 0
-89 -99 0
-90 -91 0
-90 -92 0
-90 -93 0
-90 -94 0
-90 -95 0
-90 -96 0
-90 -97 0
-90 -98 0
-90 -99 0
-91 -92 0
-91 -93 0
-91 -94 0
-91 -95 0
-91 -96 0
-91 -97 0
-91 -98 0
-91 -99 0
-92 -93 0
-92 -94 0
-92 -95 0
-92 -96 0
-92 -97 0
-92 -98 0
-92 -99 0
-93 -94 0
-93 -95 0
-93 -96 0
-93 -97 0
-93 -98 0
-93 -99 0
-94 -95 0
-94 -96 0
-94 -97 0
-94 -98 0
-94 -99 0
-95 -96 0
-95 -97 0
-95 -98 0
-95 -99 0
-96 -97 0
-96 -98 0
-96 -99 0
-97 -98 0
-97 -99 0
-98 -99 0
89 90 91 92 93 94 95 96 97 98 99 0
-100 -101 0
-100 -102 0
-100 -103 0
-100 -104 0
-100 -105 0
-100 -106 0
-100 -107 0
-100 -108 0
-100 -109 0
-100 -110 0
-101 -102 0
-101 -103 0
-101 -104 0
-101 -105 0
-101 -106 0
-101 -107 0
-101 -108 0
-101 -109 0
-101 -110 0
-102 -103 0
-102 -104 0
-102 -105 0
-102 -106 0
-102 -107 0
-102 -108 0
-102 -109 0
-102 -110 0
-103 -104 0
-103 -105 0
-103 -106 0
-103 -107 0
-103 -108 0
-103 -109 0
-103 -110 0
-104 -105 0
-104 -106 0
-104 -107 0
-104 -108 0
-104 -109 0
-104 -110 0
-105 -106 0
-105 -107 0
-105 -108 0
-105 -109 0
-105 -110 0
-106 -107 0
-106 -108 0
-106 -109 0
-106 -110 0
-107 -108 0
-107 -109 0
-107 -110 0
-108 -109 0
-108 -110 0
-109 -110 0
100 101 102 103 104 105 106 107 108 109 110 0
-111 -112 0
-111 -113 0
-111 -114 0
-111 -115 0
-111 -116 0
-111 -117 0
-111 -118 0
-111 -119 0
-111 -120 0
-111 -121 0
-112 -113 0
-112 -114 0
-112 -115 0
-112 -116 0
-112 -117 0
-112 -118 0
-112 -119 0
-112 -120 0
-112 -121 0
-113 -114 0
-113 -115 0
-113 -116 0
-113 -117 0
-113 -118 0
-113 -119 0
-113 -120 0
-113 -121 0
-114 -115 0
-114 -116 0
-114 -117 0
-114 -118 0
-114 -119 0
-114 -120 0
-114 -121 0
-115 -116 0
-115 -117 0
-115 -118 0
-115 -119 0
-115 -120 0
-115 -121 0
-116 -117 0
-116 -118 0
-116 -119 0
-116 -120 0
-116 -121 0
-117 -118 0
-117 -119 0
-117 -120 0
-117 -121 0
-118 -119 0
-118 -120 0
-118 -121 0
-119 -120 0
-119 -121 0
-120 -121 0
111 112 113 114 115 116 117 118 119 120 121 0
-122 -123 0
-122 -124 0
-122 -125 0
-122 -126 0
-122 -127 0
-122 -128 0
-122 -129 0
-122 -130 0
-122 -131 0
-122 -132 0
-123 -124 0
-123 -125 0
-123 -126 0
-123 -127 0
-123 -128 0
-123 -129 0
-123 -130 0
-123 -131 0
-123 -132 0
-124 -125 0
-124 -126 0
-124 -127 0
-124 -128 0
-124 -129 0
-124 -130 0
-124 -131 0
-124 -132 0
-125 -126 0
-125 -127 0
-125 -128 0
-125 -129 0
-125 -130 0
-125 -131 0
-125 -132 0
-126 -127 0
-126 -128 0
-126 -129 0
-126 -130 0
-126 -131 0
-126 -132 0
-127 -128 0
-127 -129 0
-127 -130 0
-127 -131 0
-127 -132 0
-128 -129 0
-128 -130 0
-128 -131 0
-128 -132 0
-129 -130 0
-129 -131 0
-129 -132 0
-130 -131 0
-130 -132 0
-131 -132 0
122 123 124 125 126 127 128 129 130 131 132 0
-133 -134 0
-133 -135 0
-133 -136 0
-133 -137 0
-133 -138 0
-133 -139 0
-133 -140 0
-133 -141 0
-133 -142 0
-133 -143 0
-133 -144 0
-134 -135 0
-134 -136 0
-134 -137 0
-134 -138 0
-134 -139 0
-134 -140 0
-134 -141 0
-134 -142 0
-134 -143 0
-134 -144 0
-135 -136 0
-135 -137 0
-135 -138 0
-135 -139 0
-135 -140 0
-135 -141 0
-135 -142 0
-135 -143 0
-135 -144 0
-136 -137 0
-136 -138 0
-136 -139 0
-136 -140 0
-136 -141 0
-136 -142 0
-136 -143 0
-136 -144 0
-137 -138 0
-137 -139 0
-137 -140 0
-137 -141 0
-137 -142 0
-137 -143 0
-137 -144 0
-138 -139 0
-138 -140 0
-138 -141 0
-138 -142 0
-138 -143 0
-138 -144 0
-139 -140 0
-139 -141 0
-139 -142 0
-139 -143 0
-139 -144 0
-140 -141 0
-140 -142 0
-140 -143 0
-140 -144 0
-141 -142 0
-141 -143 0
-141 -144 0
-142 -143 0
-142 -144 0
-143 -144 0
133 134 135 136 137 138 139 140 141 142 143 144 0
-145 -146 0
-145 -147 0
-145 -148 0
-145 -149 0
-145 -150 0
-145 -151 0
-145 -152 0
-145 -153 0
-145 -154 0
-145 -155 0
-145 -156 0
-146 -147 0
-146 -148 0
-146 -149 0
-146 -150 0
-146 -151 0
-146 -152 0
-146 -153 0
-146 -154 0
-146 -155 0
-146 -156 0
-147 -148 0
-147 -149 0
-147 -150 0
-147 -151 0
-147 -152 0
-147 -153 0
-147 -154 0
-147 -155 0
-147 -156 0
-148 -149 0
-148 -150 0
-148 -151 0
-148 -152 0
-148 -153 0
-148 -154 0
-148 -155 0
-148 -156 0
-149 -150 0
-149 -151 0
-149 -152 0
-149 -153 0
-149 -154 0
-149 -155 0
-149 -156 0
-150 -151 0
-150 -152 0
-150 -153 0
-150 -154 0
-150 -155 0
-150 -156 0
-151 -152 0
-151 -153 0
-151 -154 0
-151 -155 0
-151 -156 0
-152 -153 0
-152 -154 0
-152 -155 0
-152 -156 0
-153 -154 0
-153 -155 0
-153 -156 0
-154 -155 0
-154 -156 0
-155 -156 0
145 146 147 148 149 150 151 152 153 154 155 156 0
-157 -158 0
-157 -159 0
-157 -160 0
-157 -161 0
-157 -162 0
-157 -163 0
-157 -164 0
-157 -165 0
-157 -166 0
-157 -167 0
-157 -168 0
-158 -159 0
-158 -160 0
-158 -161 0
-158 -162 0
-158 -163 0
-158 -164 0
-158 -165 0
-158 -166 0
-158 -167 0
-158 -168 0
-159 -160 0
-159 -161 0
-159 -162 0
-159 -163 0
-159 -164 0
-159 -165 0
-159 -166 0
-159 -167 0
-159 -168 0
-160 -161 0
-160 -162 0
-160 -163 0
-160 -164 0
-160 -165 0
-160 -166 0
-160 -167 0
-160 -168 0
-161 -162 0
-161 -163 0
-161 -164 0
-161 -165 0
-161 -166 0
-161 -167 0
-161 -168 0
-162 -163 0
-162 -164 0
-162 -165 0
-162 -166 0
-162 -167 0
-162 -168 0
-163 -164 0
-163 -165 0
-163 -166 0
-163 -167 0
-163 -168 0
-164 -165 0
-164 -166 0
-164 -167 0
-164 -168 0
-165 -166 0
-165 -167 0
-165 -168 0
-166 -167 0
-166 -168 0
-167 -168 0
157 158 159 160 161 162 163 164 165 166 167 168 0
-169 -170 0
-169 -171 0
-169 -172 0
-169 -173 0
-169 -174 0
-169 -175 0
-169 -176 0
-169 -177 0
-169 -178 0
-169 -179 0
-169 -180 0
-170 -171 0
-170 -172 0
-170 -173 0
-170 -174 0
-170 -175 0
-170 -176 0
-170 -177 0
-170 -178 0
-170 -179 0
-170 -180 0
-171 -172 0
-171 -173 0
-171 -174 0
-171 -175 0
-171 -176 0
-171 -177 0
-171 -178 0
-171 -179 0
-171 -180 0
-172 -173 0
-172 -174 0
-172 -175 0
-172 -176 0
-172 -177 0
-172 -178 0
-172 -179 0
-172 -180 0
-173 -174 0
-173 -175 0
-173 -176 0
-173 -177 0
-173 -178 0
-173 -179 0
-173 -180 0
-174 -175 0
-174 -176 0
-174 -177 0
-174 -178 0
-174 -179 0
-174 -180 0
-175 -176 0
-175 -177 0
-175 -178 0
-175 -179 0
-175 -180 0
-176 -177 0
-176 -178 0
-176 -179 0
-176 -180 0
-177 -178 0
-177 -179 0
-177 -180 0
-178 -179 0
-178 -180 0
-179 -180 0
169 170 171 172 173 174 175 176 177 178 179 180 0
-181 -182 0
-181 -183 0
-181 -184 0
-181 -185 0
-181 -186 0
-181 -187 0
-181 -188 0
-181 -189 0
-181 -190 0
-181 -191 0
-181 -192 0
-182 -183 0
-182 -184 0
-182 -185 0
-182 -186 0
-182 -187 0
-182 -188 0
-182 -189 0
-182 -190 0
-182 -191 0
-182 -192 0
-183 -184 0
-183 -185 0
-183 -186 0
-183 -187 0
-183 -188 0
-183 -189 0
-183 -190 0
-183 -191 0
-183 -192 0
-184 -185 0
-184 -186 0
-184 -187 0
-184 -188 0
-184 -189 0
-184 -190 0
-184 -191 0
-184 -192 0
-185 -186 0
-185 -187 0
-185 -188 0
-185 -189 0
-185 -190 0
-185 -191 0
-185 -192 0
-186 -187 0
-186 -188 0
-186 -189 0
-186 -190 0
-186 -191 0
-186 -192 0
-187 -188 0
-187 -189 0
-187 -190 0
-187 -191 0
-187 -192 0
-188 -189 0
-188 -190 0
-188 -191 0
-188 -192 0
-189 -190 0
-189 -191 0
-189 -192 0
-190 -191 0
-190 -192 0
-191 -192 0
181 182 183 184 185 186 187 188 189 190 191 192 0
-193 -194 0
-193 -195 0
-193 -196 0
-193 -197 0
-193 -198 0
-193 -199 0
-193 -200 0
-193 -201 0
-193 -202 0
-193 -203 0
-193 -204 0
-194 -195 0
-194 -196 0
-194 -197 0
-194 -198 0
-194 -199 0
-194 -200 0
-194 -201 0
-194 -202 0
-194 -203 0
-194 -204 0
-195 -196 0
-195 -197 0
-195 -198 0
-195 -199 0
-195 -200 0
-195 -201 0
-195 -202 0
-195 -203 0
-195 -204 0
-196 -197 0
-196 -198 0
-196 -199 0
-196 -200 0
-196 -201 0
-196 -202 0
-196 -203 0
-196 -204 0
-197 -198 0
-197 -199 0
-197 -200 0
-197 -201 0
-197 -202 0
-197 -203 0
-197 -204 0
-198 -199 0
-198 -200 0
-198 -201 0
-198 -202 0
-198 -203 0
-198 -204 0
-199 -200 0
-199 -201 0
-199 -202 0
-199 -203 0
-199 -204 0
-200 -201 0
-200 -202 0
-200 -203 0
-200 -204 0
-201 -202 0
-201 -203 0
-201 -204 0
-202 -203 0
-202 -204 0
-203 -204 0
193 194 195 196 197 198 199 200 201 202 203 204 0
-205 -206 0
-205 -207 0
-205 -208 0
-205 -209 0
-205 -210 0
-205 -211 0
-205 -212 0
-205 -213 0
-205 -214 0
-205 -215 0
-205 -216 0
-206 -207 0
-206 -208 0
-206 -209 0
-206 -210 0
-206 -211 0
-206 -212 0
-206 -213 0
-206 -214 0
-206 -215 0
-206 -216 0
-207 -208 0
-207 -209 0
-207 -210 0
-207 -211 0
-207 -212 0
-207 -213 0
-207 -214 0
-207 -215 0
-207 -216 0
-208 -209 0
-208 -210 0
-208 -211 0
-208 -212 0
-208 -213 0
-208 -214 0
-208 -215 0
-208 -216 0
-209 -210 0
-209 -211 0
-209 -212 0
-209 -213 0
-209 -214 0
-209 -215 0
-209 -216 0
-210 -211 0
-210 -212 0
-210 -213 0
-210 -214 0
-210 -215 0
-210 -216 0
-211 -212 0
-211 -213 0
-211 -214 0
-211 -215 0
-211 -216 0
-212 -213 0
-212 -214 0
-212 -215 0
-212 -216 0
-213 -214 0
-213 -215 0
-213 -216 0
-214 -215 0
-214 -216 0
-215 -216 0
205 206 207 208 209 210 211 212 213 214 215 216 0
-217 -218 0
-217 -219 0
-217 -220 0
-217 -221 0
-217 -222 0
-217 -223 0
-217 -224 0
-217 -225 0
-217 -226 0
-217 -227 0
-217 -228 0
-218 -219 0
-218 -220 0
-218 -221 0
-218 -222 0
-218 -223 0
-218 -224 0
-218 -225 0
-218 -226 0
-218 -227 0
-218 -228 0
-219 -220 0
-219 -221 0
-219 -222 0
-219 -223 0
-219 -224 0
-219 -225 0
-219 -226 0
-219 -227 0
-219 -228 0
-220 -221 0
-220 -222 0
-220 -223 0
-220 -224 0
-220 -225 0
-220 -226 0
-220 -227 0
-220 -228 0
-221 -222 0
-221 -223 0
-221 -224 0
-221 -225 0
-221 -226 0
-221 -227 0
-221 -228 0
-222 -223 0
-222 -224 0
-222 -225 0
-222 -226 0
-222 -227 0
-222 -228 0
-223 -224 0
-223 -225 0
-223 -226 0
-223 -227 0
-223 -228 0
-224 -225 0
-224 -226 0
-224 -227 0
-224 -228 0
-225 -226 0
-225 -227 0
-225 -228 0
-226 -227 0
-226 -228 0
-227 -228 0
217 218 219 220 221 222 223 224 225 226 227 228 0
-229 -230 0
-229 -231 0
-229 -232 0
-229 -233 0
-229 -234 0
-229 -235 0
-229 -236 0
-229 -237 0
-229 -238 0
-229 -239 0
-229 -240 0
-230 -231 0
-230 -232 0
-230 -233 0
-230 -234 0
-230 -235 0
-230 -236 0
-230 -237 0
-230 -238 0
-230 -239 0
-230 -240 0
-231 -232 0
-231 -233 0
-231 -234 0
-231 -235 0
-231 -236 0
-231 -237 0
-231 -238 0
-231 -239 0
-231 -240 0
-232 -233 0
-232 -234 0
-232 -235 0
-232 -236 0
-232 -237 0
-232 -238 0
-232 -239 0
-232 -240 0
-233 -234 0
-233 -235 0
-233 -236 0
-233 -237 0
-233 -238 0
-233 -239 0
-233 -240 0
-234 -235 0
-234 -236 0
-234 -237 0
-234 -238 0
-234 -239 0
-234 -240 0
-235 -236 0
-235 -237 0
-235 -238 0
-235 -239 0
-235 -240 0
-236 -237 0
-236 -238 0
-236 -239 0
-236 -240 0
-237 -238 0
-237 -239 0
-237 -240 0
-238 -239 0
-238 -240 0
-239 -240 0
229 230 231 232 233 234 235 236 237 238 239 240 0
-241 -242 0
-241 -243 0
-241 -244 0
-241 -245 0
-241 -246 0
-241 -247 0
-241 -248 0
-241 -249 0
-241 -250 0
-241 -251 0
-241 -252 0
-242 -243 0
-242 -244 0
-242 -245 0
-242 -246 0
-242 -247 0
-242 -248 0
-242 -249 0
-242 -250 0
-242 -251 0
-242 -252 0
-243 -244 0
-243 -245 0
-243 -246 0
-243 -247 0
-243 -248 0
-243 -249 0
-243 -250 0
-243 -251 0
-243 -252 0
-244 -245 0
-244 -246 0
-244 -247 0
-244 -248 0
-244 -249 0
-244 -250 0
-244 -251 0
-244 -252 0
-245 -246 0
-245 -247 0
-245 -248 0
-245 -249 0
-245 -250 0
-245 -251 0
-245 -252 0
-246 -247 0
-246 -248 0
-246 -249 0
-246 -250 0
-246 -251 0
-246 -252 0
-247 -248 0
-247 -249 0
-247 -250 0
-247 -251 0
-247 -252 0
-248 -249 0
-248 -250 0
-248 -251 0
-248 -252 0
-249 -250 0
-249 -251 0
-249 -252 0
-250 -251 0
-250 -252 0
-251 -252 0
241 242 243 244 245 246 247 248 249 250 251 252 0
-253 -254 0
-253 -255 0
-253 -256 0
-253 -257 0
-253 -258 0
-253 -259 0
-253 -260 0
-253 -261 0
-253 -262 0
-253 -263 0
-253 -264 0
-254 -255 0
-254 -256 0
-254 -257 0
-254 -258 0
-254 -259 0
-254 -260 0
-254 -261 0
-254 -262 0
-254 -263 0
-254 -264 0
-255 -256 0
-255 -257 0
-255 -258 0
-255 -259 0
-255 -260 0
-255 -261 0
-255 -262 0
-255 -263 0
-255 -264 0
-256 -257 0
-256 -258 0
-256 -259 0
-256 -260 0
-256 -261 0
-256 -262 0
-256 -263 0
-256 -264 0
-257 -258 0
-257 -259 0
-257 -260 0
-257 -261 0
-257 -262 0
-257 -263 0
-257 -264 0
-258 -259 0
-258 -260 0
-258 -261 0
-258 -262 0
-258 -263 0
-258 -264 0
-259 -260 0
-259 -261 0
-259 -262 0
-259 -263 0
-259 -264 0
-260 -261 0
-260 -262 0
-260 -263 0
-260 -264 0
-261 -262 0
-261 -263 0
-261 -264 0
-262 -263 0
-262 -264 0
-263 -264 0
253 254 255 256 257 258 259 260 261 262 263 264 0
-1 -12 0
-1 -23 0
-1 -34 0
-1 -45 0
-1 -56 0
-1 -67 0
-1 -78 0
-1 -89 0
-1 -100 0
-1 -111 0
-1 -122 0
-12 -23 0
-12 -34 0
-12 -45 0
-12 -56 0
-12 -67 0
-12 -78 0
-12 -89 0
-12 -100 0
-12 -111 0
-12 -122 0
-23 -34 0
-23 -45 0
-23 -56 0
-23 -67 0
-23 -78 0
-23 -89 0
-23 -100 0
-23 -111 0
-23 -122 0
-34 -45 0
-34 -56 0
-34 -67 0
-34 -78 0
-34 -89 0
-34 -100 0
-34 -111 0
-34 -122 0
-45 -56 0
-45 -67 0
-45 -78 0
-45 -89 0
-45 -100 0
-45 -111 0
-45 -122 0
-56 -67 0
-56 -78 0
-56 -89 0
-56 -100 0
-56 -111 0
-56 -122 0
-67 -78 0
-67 -89 0
-67 -100 0
-67 -111 0
-67 -122 0
-78 -89 0
-78 -100 0
-78 -111 0
-78 -122 0
-89 -100 0
-89 -111 0
-89 -122 0
-100 -111 0
-100 -122 0
-111 -122 0
-2 -13 0
-2 -24 0
-2 -35 0
-2 -46 0
-2 -57 0
-2 -68 0
-2 -79 0
-2 -90 0
-2 -101 0
-2 -112 0
-2 -123 0
-13 -24 0
-13 -35 0
-13 -46 0
-13 -57 0
-13 -68 0
-13 -79 0
-13 -90 0
-13 -101 0
-13 -112 0
-13 -123 0
-24 -35 0
-24 -46 0
-24 -57 0
-24 -68 0
-24 -79 0
-24 -90 0
-24 -101 0
-24 -112 0
-24 -123 0
-35 -46 0
-35 -57 0
-35 -68 0
-35 -79 0
-35 -90 0
-35 -101 0
-35 -112 0
-35 -123 0
-46 -57 0
-46 -68 0
-46 -79 0
-46 -90 0
-46 -101 0
-46 -112 0
-46 -123 0
-57 -68 0
-57 -79 0
-57 -90 0
-57 -101 0
-57 -112 0
-57 -123 0
-68 -79 0
-68 -90 0
-68 -101 0
-68 -112 0
-68 -123 0
-79 -90 0
-79 -101 0
-79 -112 0
-79 -123 0
-90 -101 0
-90 -112 0
-90 -123 0
-101 -112 0
-101 -123 0
-112 -123 0
-3 -14 0
-3 -25 0
-3 -36 0
-3 -47 0
-3 -58 0
-3 -69 0
-3 -80 0
-3 -91 0
-3 -102 0
-3 -113 0
-3 -124 0
-14 -25 0
-14 -36 0
-14 -47 0
-14 -58 0
-14 -69 0
-14 -80 0
-14 -91 0
-14 -102 0
-14 -113 0
-14 -124 0
-25 -36 0
-25 -47 0
-25 -58 0
-25 -69 0
-25 -80 0
-25 -91 0
-25 -102 0
-25 -113 0
-25 -124 0
-36 -47 0
-36 -58 0
-36 -69 0
-36 -80 0
-36 -91 0
-36 -102 0
-36 -113 0
-36 -124 0
-47 -58 0
-47 -69 0
-47 -80 0
-47 -91 0
-47 -102 0
-47 -113 0
-47 -124 0
-58 -69 0
-58 -80 0
-58 -91 0
-58 -102 0
-58 -113 0
-58 -124 0
-69 -80 0
-69 -91 0
-69 -102 0
-69 -113 0
-69 -124 0
-80 -91 0
-80 -102 0
-80 -113 0
-80 -124 0
-91 -102 0
-91 -113 0
-91 -124 0
-102 -113 0
-102 -124 0
-113 -124 0
-4 -15 0
-4 -26 0
-4 -37 0
-4 -48 0
-4 -59 0
-4 -70 0
-4 -81 0
-4 -92 0
-4 -103 0
-4 -114 0
-4 -125 0
-15 -26 0
-15 -37 0
-15 -48 0
-15 -59 0
-15 -70 0
-15 -81 0
-15 -92 0
-15 -103 0
-15 -114 0
-15 -125 0
-26 -37 0
-26 -48 0
-26 -59 0
-26 -70 0
-26 -81 0
-26 -92 0
-26 -103 0
-26 -114 0
-26 -125 0
-37 -48 0
-37 -59 0
-37 -70 0
-37 -81 0
-37 -92 0
-37 -103 0
-37 -114 0
-37 -125 0
-48 -59 0
-48 -70 0
-48 -81 0
-48 -92 0
-48 -103 0
-48 -114 0
-48 -125 0
-59 -70 0
-59 -81 0
-59 -92 0
-59 -103 0
-59 -114 0
-59 -125 0
-70 -81 0
-70 -92 0
-70 -103 0
-70 -114 0
-70 -125 0
-81 -92 0
-81 -103 0
-81 -114 0
-81 -125 0
-92 -103 0
-92 -114 0
-92 -125 0
-103 -114 0
-103 -125 0
-114 -125 0
-5 -16 0
-5 -27 0
-5 -38 0
-5 -49 0
-5 -60 0
-5 -71 0
-5 -82 0
-5 -93 0
-5 -104 0
-5 -115 0
-5 -126 0
-16 -27 0
-16 -38 0
-16 -49 0
-16 -60 0
-16 -71 0
-16 -82 0
-16 -93 0
-16 -104 0
-16 -115 0
-16 -126 0
-27 -38 0
-27 -49 0
-27 -60 0
-27 -71 0
-27 -82 0
-27 -93 0
-27 -104 0
-27 -115 0
-27 -126 0
-38 -49 0
-38 -60 0
-38 -71 0
-38 -82 0
-38 -93 0
-38 -104 0
-38 -115 0
-38 -126 0
-49 -60 0
-49 -71 0
-49 -82 0
-49 -93 0
-49 -104 0
-49 -115 0
-49 -126 0
-60 -71 0
-60 -82 0
-60 -93 0
-60 -104 0
-60 -115 0
-60 -126 0
-71 -82 0
-71 -93 0
-71 -104 0
-71 -115 0
-71 -126 0
-82 -93 0
-82 -104 0
-82 -115 0
-82 -126 0
-93 -104 0
-93 -115 0
-93 -126 0
-104 -115 0
-104 -126 0
-115 -126 0
-6 -17 0
-6 -28 0
-6 -39 0
-6 -50 0
-6 -61 0
-6 -72 0
-6 -83 0
-6 -94 0
-6 -105 0
-6 -116 0
-6 -127 0
-17 -28 0
-17 -39 0
-17 -50 0
-17 -61 0
-17 -72 0
-17 -83 0
-17 -94 0
-17 -105 0
-17 -116 0
-17 -127 0
-28 -39 0
-28 -50 0
-28 -61 0
-28 -72 0
-28 -83 0
-28 -94 0
-28 -105 0
-28 -116 0
-28 -127 0
-39 -50 0
-39 -61 0
-39 -72 0
-39 -83 0
-39 -94 0
-39 -105 0
-39 -116 0
-39 -127 0
-50 -61 0
-50 -72 0
-50 -83 0
-50 -94 0
-50 -105 0
-50 -116 0
-50 -127 0
-61 -72 0
-61 -83 0
-61 -94 0
-61 -105 0
-61 -116 0
-61 -127 0
-72 -83 0
-72 -94 0
-72 -105 0
-72 -116 0
-72 -127 0
-83 -94 0
-83 -105 0
-83 -116 0
-83 -127 0
-94 -105 0
-94 -116 0
-94 -127 0
-105 -116 0
-105 -127 0
-116 -127 0
-7 -18 0
-7 -29 0
-7 -40 0
-7 -51 0
-7 -62 0
-7 -73 0
-7 -84 0
-7 -95 0
-7 -106 0
-7 -117 0
-7 -128 0
-18 -29 0
-18 -40 0
-18 -51 0
-18 -62 0
-18 -73 0
-18 -84 0
-18 -95 0
-18 -106 0
-18 -117 0
-18 -128 0
-29 -40 0
-29 -51 0
-29 -62 0
-29 -73 0
-29 -84 0
-29 -95 0
-29 -106 0
-29 -117 0
-29 -128 0
-40 -51 0
-40 -62 0
-40 -73 0
-40 -84 0
-40 -95 0
-40 -106 0
-40 -117 0
-40 -128 0
-51 -62 0
-51 -73 0
-51 -84 0
-51 -95 0
-51 -106 0
-51 -117 0
-51 -128 0
-62 -73 0
-62 -84 0
-62 -95 0
-62 -106 0
-62 -117 0
-62 -128 0
-73 -84 0
-73 -95 0
-73 -106 0
-73 -117 0
-73 -128 0
-84 -95 0
-84 -106 0
-84 -117 0
-84 -128 0
-95 -106 0
-95 -117 0
-95 -128 0
-106 -117 0
-106 -128 0
-117 -128 0
-8 -19 0
-8 -30 0
-8 -41 0
-8 -52 0
-8 -63 0
-8 -74 0
-8 -85 0
-8 -96 0
-8 -107 0
-8 -118 0
-8 -129 0
-19 -30 0
-19 -41 0
-19 -52 0
-19 -63 0
-19 -74 0
-19 -85 0
-19 -96 0
-19 -107 0
-19 -118 0
-19 -129 0
-30 -41 0
-30 -52 0
-30 -63 0
-30 -74 0
-30 -85 0
-30 -96 0
-30 -107 0
-30 -118 0
-30 -129 0
-41 -52 0
-41 -63 0
-41 -74 0
-41 -85 0
-41 -96 0
-41 -107 0
-41 -118 0
-41 -129 0
-52 -63 0
-52 -74 0
-52 -85 0
-52 -96 0
-52 -107 0
-52 -118 0
-52 -129 0
-63 -74 0
-63 -85 0
-63 -96 0
-63 -107 0
-63 -118 0
-63 -129 0
-74 -85 0
-74 -96 0
-74 -107 0
-74 -118 0
-74 -129 0
-85 -96 0
-85 -107 0
-85 -118 0
-85 -129 0
-96 -107 0
-96 -118 0
-96 -129 0
-107 -118 0
-107 -129 0
-118 -129 0
-9 -20 0
-9 -31 0
-9 -42 0
-9 -53 0
-9 -64 0
-9 -75 0
-9 -86 0
-9 -97 0
-9 -108 0
-9 -119 0
-9 -130 0
-20 -31 0
-20 -42 0
-20 -53 0
-20 -64 0
-20 -75 0
-20 -86 0
-20 -97 0
-20 -108 0
-20 -119 0
-20 -130 0
-31 -42 0
-31 -53 0
-31 -64 0
-31 -75 0
-31 -86 0
-31 -97 0
-31 -108 0
-31 -119 0
-31 -130 0
-42 -53 0
-42 -64 0
-42 -75 0
-42 -86 0
-42 -97 0
-42 -108 0
-42 -119 0
-42 -130 0
-53 -64 0
-53 -75 0
-53 -86 0
-53 -97 0
-53 -108 0
-53 -119 0
-53 -130 0
-64 -75 0
-64 -86 0
-64 -97 0
-64 -108 0
-64 -119 0
-64 -130 0
-75 -86 0
-75 -97 0
-75 -108 0
-75 -119 0
-75 -130 0
-86 -97 0
-86 -108 0
-86 -119 0
-86 -130 0
-97 -108 0
-97 -119 0
-97 -130 0
-108 -119 0
-108 -130 0
-119 -130 0
-10 -21 0
-10 -32 0
-10 -43 0
-10 -54 0
-10 -65 0
-10 -76 0
-10 -87 0
-10 -98 0
-10 -109 0
-10 -120 0
-10 -131 0
-21 -32 0
-21 -43 0
-21 -54 0
-21 -65 0
-21 -76 0
-21 -87 0
-21 -98 0
-21 -109 0
-21 -120 0
-21 -131 0
-32 -43 0
-32 -54 0
-32 -65 0
-32 -76 0
-32 -87 0
-32 -98 0
-32 -109 0
-32 -120 0
-32 -131 0
-43 -54 0
-43 -65 0
-43 -76 0
-43 -87 0
-43 -98 0
-43 -109 0
-43 -120 0
-43 -131 0
-54 -65 0
-54 -76 0
-54 -87 0
-54 -98 0
-54 -109 0
-54 -120 0
-54 -131 0
-65 -76 0
-65 -87 0
-65 -98 0
-65 -109 0
-65 -120 0
-65 -131 0
-76 -87 0
-76 -98 0
-76 -109 0
-76 -120 0
-76 -131 0
-87 -98 0
-87 -109 0
-87 -120 0
-87 -131 0
-98 -109 0
-98 -120 0
-98 -131 0
-109 -120 0
-109 -131 0
-120 -131 0
-11 -22 0
-11 -33 0
-11 -44 0
-11 -55 0
-11 -66 0
-11 -77 0
-11 -88 0
-11 -99 0
-11 -110 0
-11 -121 0
-11 -132 0
-22 -33 0
-22 -44 0
-22 -55 0
-22 -66 0
-22 -77 0
-22 -88 0
-22 -99 0
-22 -110 0
-22 -121 0
-22 -132 0
-33 -44 0
-33 -55 0
-33 -66 0
-33 -77 0
-33 -88 0
-33 -99 0
-33 -110 0
-33 -121 0
-33 -132 0
-44 -55 0
-44 -66 0
-44 -77 0
-44 -88 0
-44 -99 0
-44 -110 0
-44 -121 0
-44 -132 0
-55 -66 0
-55 -77 0
-55 -88 0
-55 -99 0
-55 -110 0
-55 -121 0
-55 -132 0
-66 -77 0
-66 -88 0
-66 -99 0
-66 -110 0
-66 -121 0
-66 -132 0
-77 -88 0
-77 -99 0
-77 -110 0
-77 -121 0
-77 -132 0
-88 -99 0
-88 -110 0
-88 -121 0
-88 -132 0
-99 -110 0
-99 -121 0
-99 -132 0
-110 -121 0
-110 -132 0
-121 -132 0
-133 -145 0
-133 -157 0
-133 -169 0
-133 -181 0
-133 -193 0
-133 -205 0
-133 -217 0
-133 -229 0
-133 -241 0
-133 -253 0
-145 -157 0
-145 -169 0
-145 -181 0
-145 -193 0
-145 -205 0
-145 -217 0
-145 -229 0
-145 -241 0
-145 -253 0
-157 -169 0
-157 -181 0
-157 -193 0
-157 -205 0
-157 -217 0
-157 -229 0
-157 -241 0
-157 -253 0
-169 -181 0
-169 -193 0
-169 -205 0
-169 -217 0
-169 -229 0
-169 -241 0
-169 -253 0
-181 -193 0
-181 -205 0
-181 -217 0
-181 -229 0
-181 -241 0
-181 -253 0
-193 -205 0
-193 -217 0
-193 -229 0
-193 -241 0
-193 -253 0
-205 -217 0
-205 -229 0
-205 -241 0
-205 -253 0
-217 -229 0
-217 -241 0
-217 -253 0
-229 -241 0
-229 -253 0
-241 -253 0
-134 -146 0
-134 -158 0
-134 -170 0
-134 -182 0
-134 -194 0
-134 -206 0
-134 -218 0
-134 -230 0
-134 -242 0
-134 -254 0
-146 -158 0
-146 -170 0
-146 -182 0
-146 -194 0
-146 -206 0
-146 -218 0
-146 -230 0
-146 -242 0
-146 -254 0
-158 -170 0
-158 -182 0
-158 -194 0
-158 -206 0
-158 -218 0
-158 -230 0
-158 -242 0
-158 -254 0
-170 -182 0
-170 -194 0
-170 -206 0
-170 -218 0
-170 -230 0
-170 -242 0
-170 -254 0
-182 -194 0
-182 -206 0
-182 -218 0
-182 -230 0
-182 -242 0
-182 -254 0
-194 -206 0
-194 -218 0
-194 -230 0
-194 -242 0
-194 -254 0
-206 -218 0
-206 -230 0
-206 -242 0
-206 -254 0
-218 -230 0
-218 -242 0
-218 -254 0
-230 -242 0
-230 -254 0
-242 -254 0
-135 -147 0
-135 -159 0
-135 -171 0
-135 -183 0
-135 -195 0
-135 -207 0
-135 -219 0
-135 -231 0
-135 -243 0
-135 -255 0
-147 -159 0
-147 -171 0
-147 -183 0
-147 -195 0
-147 -207 0
-147 -219 0
-147 -231 0
-147 -243 0
-147 -255 0
-159 -171 0
-159 -183 0
-159 -195 0
-159 -207 0
-159 -219 0
-159 -231 0
-159 -243 0
-159 -255 0
-171 -183 0
-171 -195 0
-171 -207 0
-171 -219 0
-171 -231 0
-171 -243 0
-171 -255 0
-183 -195 0
-183 -207 0
-183 -219 0
-183 -231 0
-183 -243 0
-183 -255 0
-195 -207 0
-195 -219 0
-195 -231 0
-195 -243 0
-195 -255 0
-207 -219 0
-207 -231 0
-207 -243 0
-207 -255 0
-219 -231 0
-219 -243 0
-219 -255 0
-231 -243 0
-231 -255 0
-243 -255 0
-136 -148 0
-136 -160 0
-136 -172 0
-136 -184 0
-136 -196 0
-136 -208 0
-136 -220 0
-136 -232 0
-136 -244 0
-136 -256 0
-148 -160 0
-148 -172 0
-148 -184 0
-148 -196 0
-148 -208 0
-148 -220 0
-148 -232 0
-148 -244 0
-148 -256 0
-160 -172 0
-160 -184 0
-160 -196 0
-160 -208 0
-160 -220 0
-160 -232 0
-160 -244 0
-160 -256 0
-172 -184 0
-172 -196 0
-172 -208 0
-172 -220 0
-172 -232 0
-172 -244 0
-172 -256 0
-184 -196 0
-184 -208 0
-184 -220 0
-184 -232 0
-184 -244 0
-184 -256 0
-196 -208 0
-196 -220 0
-196 -232 0
-196 -244 0
-196 -256 0
-208 -220 0
-208 -232 0
-208 -244 0
-208 -256 0
-220 -232 0
-220 -244 0
-220 -256 0
-232 -244 0
-232 -256 0
-244 -256 0
-137 -149 0
-137 -161 0
-137 -173 0
-137 -185 0
-137 -197 0
-137 -209 0
-137 -221 0
-137 -233 0
-137 -245 0
-137 -257 0
-149 -161 0
-149 -173 0
-149 -185 0
-149 -197 0
-149 -209 0
-149 -221 0
-149 -233 0
-149 -245 0
-149 -257 0
-161 -173 0
-161 -185 0
-161 -197 0
-161 -209 0
-161 -221 0
-161 -233 0
-161 -245 0
-161 -257 0
-173 -185 0
-173 -197 0
-173 -209 0
-173 -221 0
-173 -233 0
-173 -245 0
-173 -257 0
-185 -197 0
-185 -209 0
-185 -221 0
-185 -233 0
-185 -245 0
-185 -257 0
-197 -209 0
-197 -221 0
-197 -233 0
-197 -245 0
-197 -257 0
-209 -221 0
-209 -233 0
-209 -245 0
-209 -257 0
-221 -233 0
-221 -245 0
-221 -257 0
-233 -245 0
-233 -257 0
-245 -257 0
-138 -150 0
-138 -162 0
-138 -174 0
-138 -186 0
-138 -198 0
-138 -210 0
-138 -222 0
-138 -234 0
-138 -246 0
-138 -258 0
-150 -162 0
-150 -174 0
-150 -186 0
-150 -198 0
-150 -210 0
-150 -222 0
-150 -234 0
-150 -246 0
-150 -258 0
-162 -174 0
-162 -186 0
-162 -198 0
-162 -210 0
-162 -222 0
-162 -234 0
-162 -246 0
-162 -258 0
-174 -186 0
-174 -198 0
-174 -210 0
-174 -222 0
-174 -234 0
-174 -246 0
-174 -258 0
-186 -198 0
-186 -210 0
-186 -222 0
-186 -234 0
-186 -246 0
-186 -258 0
-198 -210 0
-198 -222 0
-198 -234 0
-198 -246 0
-198 -258 0
-210 -222 0
-210 -234 0
-210 -246 0
-210 -258 0
-222 -234 0
-222 -246 0
-222 -258 0
-234 -246 0
-234 -258 0
-246 -258 0
-139 -151 0
-139 -163 0
-139 -175 0
-139 -187 0
-139 -199 0
-139 -211 0
-139 -223 0
-139 -235 0
-139 -247 0
-139 -259 0
-151 -163 0
-151 -175 0
-151 -187 0
-151 -199 0
-151 -211 0
-151 -223 0
-151 -235 0
-151 -247 0
-151 -259 0
-163 -175 0
-163 -187 0
-163 -199 0
-163 -211 0
-163 -223 0
-163 -235 0
-163 -247 0
-163 -259 0
-175 -187 0
-175 -199 0
-175 -211 0
-175 -223 0
-175 -235 0
-175 -247 0
-175 -259 0
-187 -199 0
-187 -211 0
-187 -223 0
-187 -235 0
-187 -247 0
-187 -259 0
-199 -211 0
-199 -223 0
-199 -235 0
-199 -247 0
-199 -259 0
-211 -223 0
-211 -235 0
-211 -247 0
-211 -259 0
-223 -235 0
-223 -247 0
-223 -259 0
-235 -247 0
-235 -259 0
-247 -259 0
-140 -152 0
-140 -164 0
-140 -176 0
-140 -188 0
-140 -200 0
-140 -212 0
-140 -224 0
-140 -236 0
-140 -248 0
-140 -260 0
-152 -164 0
-152 -176 0
-152 -188 0
-152 -200 0
-152 -212 0
-152 -224 0
-152 -236 0
-152 -248 0
-152 -260 0
-164 -176 0
-164 -188 0
-164 -200 0
-164 -212 0
-164 -224 0
-164 -236 0
-164 -248 0
-164 -260 0
-176 -188 0
-176 -200 0
-176 -212 0
-176 -224 0
-176 -236 0
-176 -248 0
-176 -260 0
-188 -200 0
-188 -212 0
-188 -224 0
-188 -236 0
-188 -248 0
-188 -260 0
-200 -212 0
-200 -224 0
-200 -236 0
-200 -248 0
-200 -260 0
-212 -224 0
-212 -236 0
-212 -248 0
-212 -260 0
-224 -236 0
-224 -248 0
-224 -260 0
-236 -248 0
-236 -260 0
-248 -260 0
-141 -153 0
-141 -165 0
-141 -177 0
-141 -189 0
-141 -201 0
-141 -213 0
-141 -225 0
-141 -237 0
-141 -249 0
-141 -261 0
-153 -165 0
-153 -177 0
-153 -189 0
-153 -201 0
-153 -213 0
-153 -225 0
-153 -237 0
-153 -249 0
-153 -261 0
-165 -177 0
-165 -189 0
-165 -201 0
-165 -213 0
-165 -225 0
-165 -237 0
-165 -249 0
-165 -261 0
-177 -189 0
-177 -201 0
-177 -213 0
-177 -225 0
-177 -237 0
-177 -249 0
-177 -261 0
-189 -201 0
-189 -213 0
-189 -225 0
-189 -237 0
-189 -249 0
-189 -261 0
-201 -213 0
-201 -225 0
-201 -237 0
-201 -249 0
-201 -261 0
-213 -225 0
-213 -237 0
-213 -249 0
-213 -261 0
-225 -237 0
-225 -249 0
-225 -261 0
-237 -249 0
-237 -261 0
-249 -261 0
-142 -154 0
-142 -166 0
-142 -178 0
-142 -190 0
-142 -202 0
-142 -214 0
-142 -226 0
-142 -238 0
-142 -250 0
-142 -262 0
-154 -166 0
-154 -178 0
-154 -190 0
-154 -202 0
-154 -214 0
-154 -226 0
-154 -238 0
-154 -250 0
-154 -262 0
-166 -178 0
-166 -190 0
-166 -202 0
-166 -214 0
-166 -226 0
-166 -238 0
-166 -250 0
-166 -262 0
-178 -190 0
-178 -202 0
-178 -214 0
-178 -226 0
-178 -238 0
-178 -250 0
-178 -262 0
-190 -202 0
-190 -214 0
-190 -226 0
-190 -238 0
-190 -250 0
-190 -262 0
-202 -214 0
-202 -226 0
-202 -238 0
-202 -250 0
-202 -262 0
-214 -226 0
-214 -238 0
-214 -250 0
-214 -262 0
-226 -238 0
-226 -250 0
-226 -262 0
-238 -250 0
-238 -262 0
-250 -262 0
-143 -155 0
-143 -167 0
-143 -179 0
-143 -191 0
-143 -203 0
-143 -215 0
-143 -227 0
-143 -239 0
-143 -251 0
-143 -263 0
-155 -167 0
-155 -179 0
-155 -191 0
-155 -203 0
-155 -215 0
-155 -227 0
-155 -239 0
-155 -251 0
-155 -263 0
-167 -179 0
-167 -191 0
-167 -203 0
-167 -215 0
-167 -227 0
-167 -239 0
-167 -251 0
-167 -263 0
-179 -191 0
-179 -203 0
-179 -215 0
-179 -227 0
-179 -239 0
-179 -251 0
-179 -263 0
-191 -203 0
-191 -215 0
-191 -227 0
-191 -239 0
-191 -251 0
-191 -263 0
-203 -215 0
-203 -227 0
-203 -239 0
-203 -251 0
-203 -263 0
-215 -227 0
-215 -239 0
-215 -251 0
-215 -263 0
-227 -239 0
-227 -251 0
-227 -263 0
-239 -251 0
-239 -263 0
-251 -263 0
-144 -156 0
-144 -168 0
-144 -180 0
-144 -192 0
-144 -204 0
-144 -216 0
-144 -228 0
-144 -240 0
-144 -252 0
-144 -264 0
-156 -168 0
-156 -180 0
-156 -192 0
-156 -204 0
-156 -216 0
-156 -228 0
-156 -240 0
-156 -252 0
-156 -264 0
-168 -180 0
-168 -192 0
-168 -204 0
-168 -216 0
-168 -228 0
-168 -240 0
-168 -252 0
-168 -264 0
-180 -192 0
-180 -204 0
-180 -216 0
-180 -228 0
-180 -240 0
-180 -252 0
-180 -264 0
-192 -204 0
-192 -216 0
-192 -228 0
-192 -240 0
-192 -252 0
-192 -264 0
-204 -216 0
-204 -228 0
-204 -240 0
-204 -252 0
-204 -264 0
-216 -228 0
-216 -240 0
-216 -252 0
-216 -264 0
-228 -240 0
-228 -252 0
-228 -264 0
-240 -252 0
-240 -264 0
-252 -264 0
