c Phase 3 generated performance instance
c family=capacity2_violation
c scale=8
c variant=phase4b
c noise_percent=0
c expected=UNSATISFIABLE
p cnf 136 5933
-1 -2 0
-1 -3 0
-1 -4 0
-1 -5 0
-1 -6 0
-1 -7 0
-1 -8 0
-2 -3 0
-2 -4 0
-2 -5 0
-2 -6 0
-2 -7 0
-2 -8 0
-3 -4 0
-3 -5 0
-3 -6 0
-3 -7 0
-3 -8 0
-4 -5 0
-4 -6 0
-4 -7 0
-4 -8 0
-5 -6 0
-5 -7 0
-5 -8 0
-6 -7 0
-6 -8 0
-7 -8 0
1 2 3 4 5 6 7 8 0
-9 -10 0
-9 -11 0
-9 -12 0
-9 -13 0
-9 -14 0
-9 -15 0
-9 -16 0
-10 -11 0
-10 -12 0
-10 -13 0
-10 -14 0
-10 -15 0
-10 -16 0
-11 -12 0
-11 -13 0
-11 -14 0
-11 -15 0
-11 -16 0
-12 -13 0
-12 -14 0
-12 -15 0
-12 -16 0
-13 -14 0
-13 -15 0
-13 -16 0
-14 -15 0
-14 -16 0
-15 -16 0
9 10 11 12 13 14 15 16 0
-17 -18 0
-17 -19 0
-17 -20 0
-17 -21 0
-17 -22 0
-17 -23 0
-17 -24 0
-18 -19 0
-18 -20 0
-18 -21 0
-18 -22 0
-18 -23 0
-18 -24 0
-19 -20 0
-19 -21 0
-19 -22 0
-19 -23 0
-19 -24 0
-20 -21 0
-20 -22 0
-20 -23 0
-20 -24 0
-21 -22 0
-21 -23 0
-21 -24 0
-22 -23 0
-22 -24 0
-23 -24 0
17 18 19 20 21 22 23 24 0
-25 -26 0
-25 -27 0
-25 -28 0
-25 -29 0
-25 -30 0
-25 -31 0
-25 -32 0
-26 -27 0
-26 -28 0
-26 -29 0
-26 -30 0
-26 -31 0
-26 -32 0
-27 -28 0
-27 -29 0
-27 -30 0
-27 -31 0
-27 -32 0
-28 -29 0
-28 -30 0
-28 -31 0
-28 -32 0
-29 -30 0
-29 -31 0
-29 -32 0
-30 -31 0
-30 -32 0
-31 -32 0
25 26 27 28 29 30 31 32 0
-33 -34 0
-33 -35 0
-33 -36 0
-33 -37 0
-33 -38 0
-33 -39 0
-33 -40 0
-34 -35 0
-34 -36 0
-34 -37 0
-34 -38 0
-34 -39 0
-34 -40 0
-35 -36 0
-35 -37 0
-35 -38 0
-35 -39 0
-35 -40 0
-36 -37 0
-36 -38 0
-36 -39 0
-36 -40 0
-37 -38 0
-37 -39 0
-37 -40 0
-38 -39 0
-38 -40 0
-39 -40 0
33 34 35 36 37 38 39 40 0
-41 -42 0
-41 -43 0
-41 -44 0
-41 -45 0
-41 -46 0
-41 -47 0
-41 -48 0
-42 -43 0
-42 -44 0
-42 -45 0
-42 -46 0
-42 -47 0
-42 -48 0
-43 -44 0
-43 -45 0
-43 -46 0
-43 -47 0
-43 -48 0
-44 -45 0
-44 -46 0
-44 -47 0
-44 -48 0
-45 -46 0
-45 -47 0
-45 -48 0
-46 -47 0
-46 -48 0
-47 -48 0
41 42 43 44 45 46 47 48 0
-49 -50 0
-49 -51 0
-49 -52 0
-49 -53 0
-49 -54 0
-49 -55 0
-49 -56 0
-50 -51 0
-50 -52 0
-50 -53 0
-50 -54 0
-50 -55 0
-50 -56 0
-51 -52 0
-51 -53 0
-51 -54 0
-51 -55 0
-51 -56 0
-52 -53 0
-52 -54 0
-52 -55 0
-52 -56 0
-53 -54 0
-53 -55 0
-53 -56 0
-54 -55 0
-54 -56 0
-55 -56 0
49 50 51 52 53 54 55 56 0
-57 -58 0
-57 -59 0
-57 -60 0
-57 -61 0
-57 -62 0
-57 -63 0
-57 -64 0
-58 -59 0
-58 -60 0
-58 -61 0
-58 -62 0
-58 -63 0
-58 -64 0
-59 -60 0
-59 -61 0
-59 -62 0
-59 -63 0
-59 -64 0
-60 -61 0
-60 -62 0
-60 -63 0
-60 -64 0
-61 -62 0
-61 -63 0
-61 -64 0
-62 -63 0
-62 -64 0
-63 -64 0
57 58 59 60 61 62 63 64 0
-65 -66 0
-65 -67 0
-65 -68 0
-65 -69 0
-65 -70 0
-65 -71 0
-65 -72 0
-66 -67 0
-66 -68 0
-66 -69 0
-66 -70 0
-66 -71 0
-66 -72 0
-67 -68 0
-67 -69 0
-67 -70 0
-67 -71 0
-67 -72 0
-68 -69 0
-68 -70 0
-68 -71 0
-68 -72 0
-69 -70 0
-69 -71 0
-69 -72 0
-70 -71 0
-70 -72 0
-71 -72 0
65 66 67 68 69 70 71 72 0
-73 -74 0
-73 -75 0
-73 -76 0
-73 -77 0
-73 -78 0
-73 -79 0
-73 -80 0
-74 -75 0
-74 -76 0
-74 -77 0
-74 -78 0
-74 -79 0
-74 -80 0
-75 -76 0
-75 -77 0
-75 -78 0
-75 -79 0
-75 -80 0
-76 -77 0
-76 -78 0
-76 -79 0
-76 -80 0
-77 -78 0
-77 -79 0
-77 -80 0
-78 -79 0
-78 -80 0
-79 -80 0
73 74 75 76 77 78 79 80 0
-81 -82 0
-81 -83 0
-81 -84 0
-81 -85 0
-81 -86 0
-81 -87 0
-81 -88 0
-82 -83 0
-82 -84 0
-82 -85 0
-82 -86 0
-82 -87 0
-82 -88 0
-83 -84 0
-83 -85 0
-83 -86 0
-83 -87 0
-83 -88 0
-84 -85 0
-84 -86 0
-84 -87 0
-84 -88 0
-85 -86 0
-85 -87 0
-85 -88 0
-86 -87 0
-86 -88 0
-87 -88 0
81 82 83 84 85 86 87 88 0
-89 -90 0
-89 -91 0
-89 -92 0
-89 -93 0
-89 -94 0
-89 -95 0
-89 -96 0
-90 -91 0
-90 -92 0
-90 -93 0
-90 -94 0
-90 -95 0
-90 -96 0
-91 -92 0
-91 -93 0
-91 -94 0
-91 -95 0
-91 -96 0
-92 -93 0
-92 -94 0
-92 -95 0
-92 -96 0
-93 -94 0
-93 -95 0
-93 -96 0
-94 -95 0
-94 -96 0
-95 -96 0
89 90 91 92 93 94 95 96 0
-97 -98 0
-97 -99 0
-97 -100 0
-97 -101 0
-97 -102 0
-97 -103 0
-97 -104 0
-98 -99 0
-98 -100 0
-98 -101 0
-98 -102 0
-98 -103 0
-98 -104 0
-99 -100 0
-99 -101 0
-99 -102 0
-99 -103 0
-99 -104 0
-100 -101 0
-100 -102 0
-100 -103 0
-100 -104 0
-101 -102 0
-101 -103 0
-101 -104 0
-102 -103 0
-102 -104 0
-103 -104 0
97 98 99 100 101 102 103 104 0
-105 -106 0
-105 -107 0
-105 -108 0
-105 -109 0
-105 -110 0
-105 -111 0
-105 -112 0
-106 -107 0
-106 -108 0
-106 -109 0
-106 -110 0
-106 -111 0
-106 -112 0
-107 -108 0
-107 -109 0
-107 -110 0
-107 -111 0
-107 -112 0
-108 -109 0
-108 -110 0
-108 -111 0
-108 -112 0
-109 -110 0
-109 -111 0
-109 -112 0
-110 -111 0
-110 -112 0
-111 -112 0
105 106 107 108 109 110 111 112 0
-113 -114 0
-113 -115 0
-113 -116 0
-113 -117 0
-113 -118 0
-113 -119 0
-113 -120 0
-114 -115 0
-114 -116 0
-114 -117 0
-114 -118 0
-114 -119 0
-114 -120 0
-115 -116 0
-115 -117 0
-115 -118 0
-115 -119 0
-115 -120 0
-116 -117 0
-116 -118 0
-116 -119 0
-116 -120 0
-117 -118 0
-117 -119 0
-117 -120 0
-118 -119 0
-118 -120 0
-119 -120 0
113 114 115 116 117 118 119 120 0
-121 -122 0
-121 -123 0
-121 -124 0
-121 -125 0
-121 -126 0
-121 -127 0
-121 -128 0
-122 -123 0
-122 -124 0
-122 -125 0
-122 -126 0
-122 -127 0
-122 -128 0
-123 -124 0
-123 -125 0
-123 -126 0
-123 -127 0
-123 -128 0
-124 -125 0
-124 -126 0
-124 -127 0
-124 -128 0
-125 -126 0
-125 -127 0
-125 -128 0
-126 -127 0
-126 -128 0
-127 -128 0
121 122 123 124 125 126 127 128 0
-129 -130 0
-129 -131 0
-129 -132 0
-129 -133 0
-129 -134 0
-129 -135 0
-129 -136 0
-130 -131 0
-130 -132 0
-130 -133 0
-130 -134 0
-130 -135 0
-130 -136 0
-131 -132 0
-131 -133 0
-131 -134 0
-131 -135 0
-131 -136 0
-132 -133 0
-132 -134 0
-132 -135 0
-132 -136 0
-133 -134 0
-133 -135 0
-133 -136 0
-134 -135 0
-134 -136 0
-135 -136 0
129 130 131 132 133 134 135 136 0
-1 -9 -17 0
-1 -9 -25 0
-1 -9 -33 0
-1 -9 -41 0
-1 -9 -49 0
-1 -9 -57 0
-1 -9 -65 0
-1 -9 -73 0
-1 -9 -81 0
-1 -9 -89 0
-1 -9 -97 0
-1 -9 -105 0
-1 -9 -113 0
-1 -9 -121 0
-1 -9 -129 0
-1 -17 -25 0
-1 -17 -33 0
-1 -17 -41 0
-1 -17 -49 0
-1 -17 -57 0
-1 -17 -65 0
-1 -17 -73 0
-1 -17 -81 0
-1 -17 -89 0
-1 -17 -97 0
-1 -17 -105 0
-1 -17 -113 0
-1 -17 -121 0
-1 -17 -129 0
-1 -25 -33 0
-1 -25 -41 0
-1 -25 -49 0
-1 -25 -57 0
-1 -25 -65 0
-1 -25 -73 0
-1 -25 -81 0
-1 -25 -89 0
-1 -25 -97 0
-1 -25 -105 0
-1 -25 -113 0
-1 -25 -121 0
-1 -25 -129 0
-1 -33 -41 0
-1 -33 -49 0
-1 -33 -57 0
-1 -33 -65 0
-1 -33 -73 0
-1 -33 -81 0
-1 -33 -89 0
-1 -33 -97 0
-1 -33 -105 0
-1 -33 -113 0
-1 -33 -121 0
-1 -33 -129 0
-1 -41 -49 0
-1 -41 -57 0
-1 -41 -65 0
-1 -41 -73 0
-1 -41 -81 0
-1 -41 -89 0
-1 -41 -97 0
-1 -41 -105 0
-1 -41 -113 0
-1 -41 -121 0
-1 -41 -129 0
-1 -49 -57 0
-1 -49 -65 0
-1 -49 -73 0
-1 -49 -81 0
-1 -49 -89 0
-1 -49 -97 0
-1 -49 -105 0
-1 -49 -113 0
-1 -49 -121 0
-1 -49 -129 0
-1 -57 -65 0
-1 -57 -73 0
-1 -57 -81 0
-1 -57 -89 0
-1 -57 -97 0
-1 -57 -105 0
-1 -57 -113 0
-1 -57 -121 0
-1 -57 -129 0
-1 -65 -73 0
-1 -65 -81 0
-1 -65 -89 0
-1 -65 -97 0
-1 -65 -105 0
-1 -65 -113 0
-1 -65 -121 0
-1 -65 -129 0
-1 -73 -81 0
-1 -73 -89 0
-1 -73 -97 0
-1 -73 -105 0
-1 -73 -113 0
-1 -73 -121 0
-1 -73 -129 0
-1 -81 -89 0
-1 -81 -97 0
-1 -81 -105 0
-1 -81 -113 0
-1 -81 -121 0
-1 -81 -129 0
-1 -89 -97 0
-1 -89 -105 0
-1 -89 -113 0
-1 -89 -121 0
-1 -89 -129 0
-1 -97 -105 0
-1 -97 -113 0
-1 -97 -121 0
-1 -97 -129 0
-1 -105 -113 0
-1 -105 -121 0
-1 -105 -129 0
-1 -113 -121 0
-1 -113 -129 0
-1 -121 -129 0
-9 -17 -25 0
-9 -17 -33 0
-9 -17 -41 0
-9 -17 -49 0
-9 -17 -57 0
-9 -17 -65 0
-9 -17 -73 0
-9 -17 -81 0
-9 -17 -89 0
-9 -17 -97 0
-9 -17 -105 0
-9 -17 -113 0
-9 -17 -121 0
-9 -17 -129 0
-9 -25 -33 0
-9 -25 -41 0
-9 -25 -49 0
-9 -25 -57 0
-9 -25 -65 0
-9 -25 -73 0
-9 -25 -81 0
-9 -25 -89 0
-9 -25 -97 0
-9 -25 -105 0
-9 -25 -113 0
-9 -25 -121 0
-9 -25 -129 0
-9 -33 -41 0
-9 -33 -49 0
-9 -33 -57 0
-9 -33 -65 0
-9 -33 -73 0
-9 -33 -81 0
-9 -33 -89 0
-9 -33 -97 0
-9 -33 -105 0
-9 -33 -113 0
-9 -33 -121 0
-9 -33 -129 0
-9 -41 -49 0
-9 -41 -57 0
-9 -41 -65 0
-9 -41 -73 0
-9 -41 -81 0
-9 -41 -89 0
-9 -41 -97 0
-9 -41 -105 0
-9 -41 -113 0
-9 -41 -121 0
-9 -41 -129 0
-9 -49 -57 0
-9 -49 -65 0
-9 -49 -73 0
-9 -49 -81 0
-9 -49 -89 0
-9 -49 -97 0
-9 -49 -105 0
-9 -49 -113 0
-9 -49 -121 0
-9 -49 -129 0
-9 -57 -65 0
-9 -57 -73 0
-9 -57 -81 0
-9 -57 -89 0
-9 -57 -97 0
-9 -57 -105 0
-9 -57 -113 0
-9 -57 -121 0
-9 -57 -129 0
-9 -65 -73 0
-9 -65 -81 0
-9 -65 -89 0
-9 -65 -97 0
-9 -65 -105 0
-9 -65 -113 0
-9 -65 -121 0
-9 -65 -129 0
-9 -73 -81 0
-9 -73 -89 0
-9 -73 -97 0
-9 -73 -105 0
-9 -73 -113 0
-9 -73 -121 0
-9 -73 -129 0
-9 -81 -89 0
-9 -81 -97 0
-9 -81 -105 0
-9 -81 -113 0
-9 -81 -121 0
-9 -81 -129 0
-9 -89 -97 0
-9 -89 -105 0
-9 -89 -113 0
-9 -89 -121 0
-9 -89 -129 0
-9 -97 -105 0
-9 -97 -113 0
-9 -97 -121 0
-9 -97 -129 0
-9 -105 -113 0
-9 -105 -121 0
-9 -105 -129 0
-9 -113 -121 0
-9 -113 -129 0
-9 -121 -129 0
-17 -25 -33 0
-17 -25 -41 0
-17 -25 -49 0
-17 -25 -57 0
-17 -25 -65 0
-17 -25 -73 0
-17 -25 -81 0
-17 -25 -89 0
-17 -25 -97 0
-17 -25 -105 0
-17 -25 -113 0
-17 -25 -121 0
-17 -25 -129 0
-17 -33 -41 0
-17 -33 -49 0
-17 -33 -57 0
-17 -33 -65 0
-17 -33 -73 0
-17 -33 -81 0
-17 -33 -89 0
-17 -33 -97 0
-17 -33 -105 0
-17 -33 -113 0
-17 -33 -121 0
-17 -33 -129 0
-17 -41 -49 0
-17 -41 -57 0
-17 -41 -65 0
-17 -41 -73 0
-17 -41 -81 0
-17 -41 -89 0
-17 -41 -97 0
-17 -41 -105 0
-17 -41 -113 0
-17 -41 -121 0
-17 -41 -129 0
-17 -49 -57 0
-17 -49 -65 0
-17 -49 -73 0
-17 -49 -81 0
-17 -49 -89 0
-17 -49 -97 0
-17 -49 -105 0
-17 -49 -113 0
-17 -49 -121 0
-17 -49 -129 0
-17 -57 -65 0
-17 -57 -73 0
-17 -57 -81 0
-17 -57 -89 0
-17 -57 -97 0
-17 -57 -105 0
-17 -57 -113 0
-17 -57 -121 0
-17 -57 -129 0
-17 -65 -73 0
-17 -65 -81 0
-17 -65 -89 0
-17 -65 -97 0
-17 -65 -105 0
-17 -65 -113 0
-17 -65 -121 0
-17 -65 -129 0
-17 -73 -81 0
-17 -73 -89 0
-17 -73 -97 0
-17 -73 -105 0
-17 -73 -113 0
-17 -73 -121 0
-17 -73 -129 0
-17 -81 -89 0
-17 -81 -97 0
-17 -81 -105 0
-17 -81 -113 0
-17 -81 -121 0
-17 -81 -129 0
-17 -89 -97 0
-17 -89 -105 0
-17 -89 -113 0
-17 -89 -121 0
-17 -89 -129 0
-17 -97 -105 0
-17 -97 -113 0
-17 -97 -121 0
-17 -97 -129 0
-17 -105 -113 0
-17 -105 -121 0
-17 -105 -129 0
-17 -113 -121 0
-17 -113 -129 0
-17 -121 -129 0
-25 -33 -41 0
-25 -33 -49 0
-25 -33 -57 0
-25 -33 -65 0
-25 -33 -73 0
-25 -33 -81 0
-25 -33 -89 0
-25 -33 -97 0
-25 -33 -105 0
-25 -33 -113 0
-25 -33 -121 0
-25 -33 -129 0
-25 -41 -49 0
-25 -41 -57 0
-25 -41 -65 0
-25 -41 -73 0
-25 -41 -81 0
-25 -41 -89 0
-25 -41 -97 0
-25 -41 -105 0
-25 -41 -113 0
-25 -41 -121 0
-25 -41 -129 0
-25 -49 -57 0
-25 -49 -65 0
-25 -49 -73 0
-25 -49 -81 0
-25 -49 -89 0
-25 -49 -97 0
-25 -49 -105 0
-25 -49 -113 0
-25 -49 -121 0
-25 -49 -129 0
-25 -57 -65 0
-25 -57 -73 0
-25 -57 -81 0
-25 -57 -89 0
-25 -57 -97 0
-25 -57 -105 0
-25 -57 -113 0
-25 -57 -121 0
-25 -57 -129 0
-25 -65 -73 0
-25 -65 -81 0
-25 -65 -89 0
-25 -65 -97 0
-25 -65 -105 0
-25 -65 -113 0
-25 -65 -121 0
-25 -65 -129 0
-25 -73 -81 0
-25 -73 -89 0
-25 -73 -97 0
-25 -73 -105 0
-25 -73 -113 0
-25 -73 -121 0
-25 -73 -129 0
-25 -81 -89 0
-25 -81 -97 0
-25 -81 -105 0
-25 -81 -113 0
-25 -81 -121 0
-25 -81 -129 0
-25 -89 -97 0
-25 -89 -105 0
-25 -89 -113 0
-25 -89 -121 0
-25 -89 -129 0
-25 -97 -105 0
-25 -97 -113 0
-25 -97 -121 0
-25 -97 -129 0
-25 -105 -113 0
-25 -105 -121 0
-25 -105 -129 0
-25 -113 -121 0
-25 -113 -129 0
-25 -121 -129 0
-33 -41 -49 0
-33 -41 -57 0
-33 -41 -65 0
-33 -41 -73 0
-33 -41 -81 0
-33 -41 -89 0
-33 -41 -97 0
-33 -41 -105 0
-33 -41 -113 0
-33 -41 -121 0
-33 -41 -129 0
-33 -49 -57 0
-33 -49 -65 0
-33 -49 -73 0
-33 -49 -81 0
-33 -49 -89 0
-33 -49 -97 0
-33 -49 -105 0
-33 -49 -113 0
-33 -49 -121 0
-33 -49 -129 0
-33 -57 -65 0
-33 -57 -73 0
-33 -57 -81 0
-33 -57 -89 0
-33 -57 -97 0
-33 -57 -105 0
-33 -57 -113 0
-33 -57 -121 0
-33 -57 -129 0
-33 -65 -73 0
-33 -65 -81 0
-33 -65 -89 0
-33 -65 -97 0
-33 -65 -105 0
-33 -65 -113 0
-33 -65 -121 0
-33 -65 -129 0
-33 -73 -81 0
-33 -73 -89 0
-33 -73 -97 0
-33 -73 -105 0
-33 -73 -113 0
-33 -73 -121 0
-33 -73 -129 0
-33 -81 -89 0
-33 -81 -97 0
-33 -81 -105 0
-33 -81 -113 0
-33 -81 -121 0
-33 -81 -129 0
-33 -89 -97 0
-33 -89 -105 0
-33 -89 -113 0
-33 -89 -121 0
-33 -89 -129 0
-33 -97 -105 0
-33 -97 -113 0
-33 -97 -121 0
-33 -97 -129 0
-33 -105 -113 0
-33 -105 -121 0
-33 -105 -129 0
-33 -113 -121 0
-33 -113 -129 0
-33 -121 -129 0
-41 -49 -57 0
-41 -49 -65 0
-41 -49 -73 0
-41 -49 -81 0
-41 -49 -89 0
-41 -49 -97 0
-41 -49 -105 0
-41 -49 -113 0
-41 -49 -121 0
-41 -49 -129 0
-41 -57 -65 0
-41 -57 -73 0
-41 -57 -81 0
-41 -57 -89 0
-41 -57 -97 0
-41 -57 -105 0
-41 -57 -113 0
-41 -57 -121 0
-41 -57 -129 0
-41 -65 -73 0
-41 -65 -81 0
-41 -65 -89 0
-41 -65 -97 0
-41 -65 -105 0
-41 -65 -113 0
-41 -65 -121 0
-41 -65 -129 0
-41 -73 -81 0
-41 -73 -89 0
-41 -73 -97 0
-41 -73 -105 0
-41 -73 -113 0
-41 -73 -121 0
-41 -73 -129 0
-41 -81 -89 0
-41 -81 -97 0
-41 -81 -105 0
-41 -81 -113 0
-41 -81 -121 0
-41 -81 -129 0
-41 -89 -97 0
-41 -89 -105 0
-41 -89 -113 0
-41 -89 -121 0
-41 -89 -129 0
-41 -97 -105 0
-41 -97 -113 0
-41 -97 -121 0
-41 -97 -129 0
-41 -105 -113 0
-41 -105 -121 0
-41 -105 -129 0
-41 -113 -121 0
-41 -113 -129 0
-41 -121 -129 0
-49 -57 -65 0
-49 -57 -73 0
-49 -57 -81 0
-49 -57 -89 0
-49 -57 -97 0
-49 -57 -105 0
-49 -57 -113 0
-49 -57 -121 0
-49 -57 -129 0
-49 -65 -73 0
-49 -65 -81 0
-49 -65 -89 0
-49 -65 -97 0
-49 -65 -105 0
-49 -65 -113 0
-49 -65 -121 0
-49 -65 -129 0
-49 -73 -81 0
-49 -73 -89 0
-49 -73 -97 0
-49 -73 -105 0
-49 -73 -113 0
-49 -73 -121 0
-49 -73 -129 0
-49 -81 -89 0
-49 -81 -97 0
-49 -81 -105 0
-49 -81 -113 0
-49 -81 -121 0
-49 -81 -129 0
-49 -89 -97 0
-49 -89 -105 0
-49 -89 -113 0
-49 -89 -121 0
-49 -89 -129 0
-49 -97 -105 0
-49 -97 -113 0
-49 -97 -121 0
-49 -97 -129 0
-49 -105 -113 0
-49 -105 -121 0
-49 -105 -129 0
-49 -113 -121 0
-49 -113 -129 0
-49 -121 -129 0
-57 -65 -73 0
-57 -65 -81 0
-57 -65 -89 0
-57 -65 -97 0
-57 -65 -105 0
-57 -65 -113 0
-57 -65 -121 0
-57 -65 -129 0
-57 -73 -81 0
-57 -73 -89 0
-57 -73 -97 0
-57 -73 -105 0
-57 -73 -113 0
-57 -73 -121 0
-57 -73 -129 0
-57 -81 -89 0
-57 -81 -97 0
-57 -81 -105 0
-57 -81 -113 0
-57 -81 -121 0
-57 -81 -129 0
-57 -89 -97 0
-57 -89 -105 0
-57 -89 -113 0
-57 -89 -121 0
-57 -89 -129 0
-57 -97 -105 0
-57 -97 -113 0
-57 -97 -121 0
-57 -97 -129 0
-57 -105 -113 0
-57 -105 -121 0
-57 -105 -129 0
-57 -113 -121 0
-57 -113 -129 0
-57 -121 -129 0
-65 -73 -81 0
-65 -73 -89 0
-65 -73 -97 0
-65 -73 -105 0
-65 -73 -113 0
-65 -73 -121 0
-65 -73 -129 0
-65 -81 -89 0
-65 -81 -97 0
-65 -81 -105 0
-65 -81 -113 0
-65 -81 -121 0
-65 -81 -129 0
-65 -89 -97 0
-65 -89 -105 0
-65 -89 -113 0
-65 -89 -121 0
-65 -89 -129 0
-65 -97 -105 0
-65 -97 -113 0
-65 -97 -121 0
-65 -97 -129 0
-65 -105 -113 0
-65 -105 -121 0
-65 -105 -129 0
-65 -113 -121 0
-65 -113 -129 0
-65 -121 -129 0
-73 -81 -89 0
-73 -81 -97 0
-73 -81 -105 0
-73 -81 -113 0
-73 -81 -121 0
-73 -81 -129 0
-73 -89 -97 0
-73 -89 -105 0
-73 -89 -113 0
-73 -89 -121 0
-73 -89 -129 0
-73 -97 -105 0
-73 -97 -113 0
-73 -97 -121 0
-73 -97 -129 0
-73 -105 -113 0
-73 -105 -121 0
-73 -105 -129 0
-73 -113 -121 0
-73 -113 -129 0
-73 -121 -129 0
-81 -89 -97 0
-81 -89 -105 0
-81 -89 -113 0
-81 -89 -121 0
-81 -89 -129 0
-81 -97 -105 0
-81 -97 -113 0
-81 -97 -121 0
-81 -97 -129 0
-81 -105 -113 0
-81 -105 -121 0
-81 -105 -129 0
-81 -113 -121 0
-81 -113 -129 0
-81 -121 -129 0
-89 -97 -105 0
-89 -97 -113 0
-89 -97 -121 0
-89 -97 -129 0
-89 -105 -113 0
-89 -105 -121 0
-89 -105 -129 0
-89 -113 -121 0
-89 -113 -129 0
-89 -121 -129 0
-97 -105 -113 0
-97 -105 -121 0
-97 -105 -129 0
-97 -113 -121 0
-97 -113 -129 0
-97 -121 -129 0
-105 -113 -121 0
-105 -113 -129 0
-105 -121 -129 0
-113 -121 -129 0
-2 -10 -18 0
-2 -10 -26 0
-2 -10 -34 0
-2 -10 -42 0
-2 -10 -50 0
-2 -10 -58 0
-2 -10 -66 0
-2 -10 -74 0
-2 -10 -82 0
-2 -10 -90 0
-2 -10 -98 0
-2 -10 -106 0
-2 -10 -114 0
-2 -10 -122 0
-2 -10 -130 0
-2 -18 -26 0
-2 -18 -34 0
-2 -18 -42 0
-2 -18 -50 0
-2 -18 -58 0
-2 -18 -66 0
-2 -18 -74 0
-2 -18 -82 0
-2 -18 -90 0
-2 -18 -98 0
-2 -18 -106 0
-2 -18 -114 0
-2 -18 -122 0
-2 -18 -130 0
-2 -26 -34 0
-2 -26 -42 0
-2 -26 -50 0
-2 -26 -58 0
-2 -26 -66 0
-2 -26 -74 0
-2 -26 -82 0
-2 -26 -90 0
-2 -26 -98 0
-2 -26 -106 0
-2 -26 -114 0
-2 -26 -122 0
-2 -26 -130 0
-2 -34 -42 0
-2 -34 -50 0
-2 -34 -58 0
-2 -34 -66 0
-2 -34 -74 0
-2 -34 -82 0
-2 -34 -90 0
-2 -34 -98 0
-2 -34 -106 0
-2 -34 -114 0
-2 -34 -122 0
-2 -34 -130 0
-2 -42 -50 0
-2 -42 -58 0
-2 -42 -66 0
-2 -42 -74 0
-2 -42 -82 0
-2 -42 -90 0
-2 -42 -98 0
-2 -42 -106 0
-2 -42 -114 0
-2 -42 -122 0
-2 -42 -130 0
-2 -50 -58 0
-2 -50 -66 0
-2 -50 -74 0
-2 -50 -82 0
-2 -50 -90 0
-2 -50 -98 0
-2 -50 -106 0
-2 -50 -114 0
-2 -50 -122 0
-2 -50 -130 0
-2 -58 -66 0
-2 -58 -74 0
-2 -58 -82 0
-2 -58 -90 0
-2 -58 -98 0
-2 -58 -106 0
-2 -58 -114 0
-2 -58 -122 0
-2 -58 -130 0
-2 -66 -74 0
-2 -66 -82 0
-2 -66 -90 0
-2 -66 -98 0
-2 -66 -106 0
-2 -66 -114 0
-2 -66 -122 0
-2 -66 -130 0
-2 -74 -82 0
-2 -74 -90 0
-2 -74 -98 0
-2 -74 -106 0
-2 -74 -114 0
-2 -74 -122 0
-2 -74 -130 0
-2 -82 -90 0
-2 -82 -98 0
-2 -82 -106 0
-2 -82 -114 0
-2 -82 -122 0
-2 -82 -130 0
-2 -90 -98 0
-2 -90 -106 0
-2 -90 -114 0
-2 -90 -122 0
-2 -90 -130 0
-2 -98 -106 0
-2 -98 -114 0
-2 -98 -122 0
-2 -98 -130 0
-2 -106 -114 0
-2 -106 -122 0
-2 -106 -130 0
-2 -114 -122 0
-2 -114 -130 0
-2 -122 -130 0
-10 -18 -26 0
-10 -18 -34 0
-10 -18 -42 0
-10 -18 -50 0
-10 -18 -58 0
-10 -18 -66 0
-10 -18 -74 0
-10 -18 -82 0
-10 -18 -90 0
-10 -18 -98 0
-10 -18 -106 0
-10 -18 -114 0
-10 -18 -122 0
-10 -18 -130 0
-10 -26 -34 0
-10 -26 -42 0
-10 -26 -50 0
-10 -26 -58 0
-10 -26 -66 0
-10 -26 -74 0
-10 -26 -82 0
-10 -26 -90 0
-10 -26 -98 0
-10 -26 -106 0
-10 -26 -114 0
-10 -26 -122 0
-10 -26 -130 0
-10 -34 -42 0
-10 -34 -50 0
-10 -34 -58 0
-10 -34 -66 0
-10 -34 -74 0
-10 -34 -82 0
-10 -34 -90 0
-10 -34 -98 0
-10 -34 -106 0
-10 -34 -114 0
-10 -34 -122 0
-10 -34 -130 0
-10 -42 -50 0
-10 -42 -58 0
-10 -42 -66 0
-10 -42 -74 0
-10 -42 -82 0
-10 -42 -90 0
-10 -42 -98 0
-10 -42 -106 0
-10 -42 -114 0
-10 -42 -122 0
-10 -42 -130 0
-10 -50 -58 0
-10 -50 -66 0
-10 -50 -74 0
-10 -50 -82 0
-10 -50 -90 0
-10 -50 -98 0
-10 -50 -106 0
-10 -50 -114 0
-10 -50 -122 0
-10 -50 -130 0
-10 -58 -66 0
-10 -58 -74 0
-10 -58 -82 0
-10 -58 -90 0
-10 -58 -98 0
-10 -58 -106 0
-10 -58 -114 0
-10 -58 -122 0
-10 -58 -130 0
-10 -66 -74 0
-10 -66 -82 0
-10 -66 -90 0
-10 -66 -98 0
-10 -66 -106 0
-10 -66 -114 0
-10 -66 -122 0
-10 -66 -130 0
-10 -74 -82 0
-10 -74 -90 0
-10 -74 -98 0
-10 -74 -106 0
-10 -74 -114 0
-10 -74 -122 0
-10 -74 -130 0
-10 -82 -90 0
-10 -82 -98 0
-10 -82 -106 0
-10 -82 -114 0
-10 -82 -122 0
-10 -82 -130 0
-10 -90 -98 0
-10 -90 -106 0
-10 -90 -114 0
-10 -90 -122 0
-10 -90 -130 0
-10 -98 -106 0
-10 -98 -114 0
-10 -98 -122 0
-10 -98 -130 0
-10 -106 -114 0
-10 -106 -122 0
-10 -106 -130 0
-10 -114 -122 0
-10 -114 -130 0
-10 -122 -130 0
-18 -26 -34 0
-18 -26 -42 0
-18 -26 -50 0
-18 -26 -58 0
-18 -26 -66 0
-18 -26 -74 0
-18 -26 -82 0
-18 -26 -90 0
-18 -26 -98 0
-18 -26 -106 0
-18 -26 -114 0
-18 -26 -122 0
-18 -26 -130 0
-18 -34 -42 0
-18 -34 -50 0
-18 -34 -58 0
-18 -34 -66 0
-18 -34 -74 0
-18 -34 -82 0
-18 -34 -90 0
-18 -34 -98 0
-18 -34 -106 0
-18 -34 -114 0
-18 -34 -122 0
-18 -34 -130 0
-18 -42 -50 0
-18 -42 -58 0
-18 -42 -66 0
-18 -42 -74 0
-18 -42 -82 0
-18 -42 -90 0
-18 -42 -98 0
-18 -42 -106 0
-18 -42 -114 0
-18 -42 -122 0
-18 -42 -130 0
-18 -50 -58 0
-18 -50 -66 0
-18 -50 -74 0
-18 -50 -82 0
-18 -50 -90 0
-18 -50 -98 0
-18 -50 -106 0
-18 -50 -114 0
-18 -50 -122 0
-18 -50 -130 0
-18 -58 -66 0
-18 -58 -74 0
-18 -58 -82 0
-18 -58 -90 0
-18 -58 -98 0
-18 -58 -106 0
-18 -58 -114 0
-18 -58 -122 0
-18 -58 -130 0
-18 -66 -74 0
-18 -66 -82 0
-18 -66 -90 0
-18 -66 -98 0
-18 -66 -106 0
-18 -66 -114 0
-18 -66 -122 0
-18 -66 -130 0
-18 -74 -82 0
-18 -74 -90 0
-18 -74 -98 0
-18 -74 -106 0
-18 -74 -114 0
-18 -74 -122 0
-18 -74 -130 0
-18 -82 -90 0
-18 -82 -98 0
-18 -82 -106 0
-18 -82 -114 0
-18 -82 -122 0
-18 -82 -130 0
-18 -90 -98 0
-18 -90 -106 0
-18 -90 -114 0
-18 -90 -122 0
-18 -90 -130 0
-18 -98 -106 0
-18 -98 -114 0
-18 -98 -122 0
-18 -98 -130 0
-18 -106 -114 0
-18 -106 -122 0
-18 -106 -130 0
-18 -114 -122 0
-18 -114 -130 0
-18 -122 -130 0
-26 -34 -42 0
-26 -34 -50 0
-26 -34 -58 0
-26 -34 -66 0
-26 -34 -74 0
-26 -34 -82 0
-26 -34 -90 0
-26 -34 -98 0
-26 -34 -106 0
-26 -34 -114 0
-26 -34 -122 0
-26 -34 -130 0
-26 -42 -50 0
-26 -42 -58 0
-26 -42 -66 0
-26 -42 -74 0
-26 -42 -82 0
-26 -42 -90 0
-26 -42 -98 0
-26 -42 -106 0
-26 -42 -114 0
-26 -42 -122 0
-26 -42 -130 0
-26 -50 -58 0
-26 -50 -66 0
-26 -50 -74 0
-26 -50 -82 0
-26 -50 -90 0
-26 -50 -98 0
-26 -50 -106 0
-26 -50 -114 0
-26 -50 -122 0
-26 -50 -130 0
-26 -58 -66 0
-26 -58 -74 0
-26 -58 -82 0
-26 -58 -90 0
-26 -58 -98 0
-26 -58 -106 0
-26 -58 -114 0
-26 -58 -122 0
-26 -58 -130 0
-26 -66 -74 0
-26 -66 -82 0
-26 -66 -90 0
-26 -66 -98 0
-26 -66 -106 0
-26 -66 -114 0
-26 -66 -122 0
-26 -66 -130 0
-26 -74 -82 0
-26 -74 -90 0
-26 -74 -98 0
-26 -74 -106 0
-26 -74 -114 0
-26 -74 -122 0
-26 -74 -130 0
-26 -82 -90 0
-26 -82 -98 0
-26 -82 -106 0
-26 -82 -114 0
-26 -82 -122 0
-26 -82 -130 0
-26 -90 -98 0
-26 -90 -106 0
-26 -90 -114 0
-26 -90 -122 0
-26 -90 -130 0
-26 -98 -106 0
-26 -98 -114 0
-26 -98 -122 0
-26 -98 -130 0
-26 -106 -114 0
-26 -106 -122 0
-26 -106 -130 0
-26 -114 -122 0
-26 -114 -130 0
-26 -122 -130 0
-34 -42 -50 0
-34 -42 -58 0
-34 -42 -66 0
-34 -42 -74 0
-34 -42 -82 0
-34 -42 -90 0
-34 -42 -98 0
-34 -42 -106 0
-34 -42 -114 0
-34 -42 -122 0
-34 -42 -130 0
-34 -50 -58 0
-34 -50 -66 0
-34 -50 -74 0
-34 -50 -82 0
-34 -50 -90 0
-34 -50 -98 0
-34 -50 -106 0
-34 -50 -114 0
-34 -50 -122 0
-34 -50 -130 0
-34 -58 -66 0
-34 -58 -74 0
-34 -58 -82 0
-34 -58 -90 0
-34 -58 -98 0
-34 -58 -106 0
-34 -58 -114 0
-34 -58 -122 0
-34 -58 -130 0
-34 -66 -74 0
-34 -66 -82 0
-34 -66 -90 0
-34 -66 -98 0
-34 -66 -106 0
-34 -66 -114 0
-34 -66 -122 0
-34 -66 -130 0
-34 -74 -82 0
-34 -74 -90 0
-34 -74 -98 0
-34 -74 -106 0
-34 -74 -114 0
-34 -74 -122 0
-34 -74 -130 0
-34 -82 -90 0
-34 -82 -98 0
-34 -82 -106 0
-34 -82 -114 0
-34 -82 -122 0
-34 -82 -130 0
-34 -90 -98 0
-34 -90 -106 0
-34 -90 -114 0
-34 -90 -122 0
-34 -90 -130 0
-34 -98 -106 0
-34 -98 -114 0
-34 -98 -122 0
-34 -98 -130 0
-34 -106 -114 0
-34 -106 -122 0
-34 -106 -130 0
-34 -114 -122 0
-34 -114 -130 0
-34 -122 -130 0
-42 -50 -58 0
-42 -50 -66 0
-42 -50 -74 0
-42 -50 -82 0
-42 -50 -90 0
-42 -50 -98 0
-42 -50 -106 0
-42 -50 -114 0
-42 -50 -122 0
-42 -50 -130 0
-42 -58 -66 0
-42 -58 -74 0
-42 -58 -82 0
-42 -58 -90 0
-42 -58 -98 0
-42 -58 -106 0
-42 -58 -114 0
-42 -58 -122 0
-42 -58 -130 0
-42 -66 -74 0
-42 -66 -82 0
-42 -66 -90 0
-42 -66 -98 0
-42 -66 -106 0
-42 -66 -114 0
-42 -66 -122 0
-42 -66 -130 0
-42 -74 -82 0
-42 -74 -90 0
-42 -74 -98 0
-42 -74 -106 0
-42 -74 -114 0
-42 -74 -122 0
-42 -74 -130 0
-42 -82 -90 0
-42 -82 -98 0
-42 -82 -106 0
-42 -82 -114 0
-42 -82 -122 0
-42 -82 -130 0
-42 -90 -98 0
-42 -90 -106 0
-42 -90 -114 0
-42 -90 -122 0
-42 -90 -130 0
-42 -98 -106 0
-42 -98 -114 0
-42 -98 -122 0
-42 -98 -130 0
-42 -106 -114 0
-42 -106 -122 0
-42 -106 -130 0
-42 -114 -122 0
-42 -114 -130 0
-42 -122 -130 0
-50 -58 -66 0
-50 -58 -74 0
-50 -58 -82 0
-50 -58 -90 0
-50 -58 -98 0
-50 -58 -106 0
-50 -58 -114 0
-50 -58 -122 0
-50 -58 -130 0
-50 -66 -74 0
-50 -66 -82 0
-50 -66 -90 0
-50 -66 -98 0
-50 -66 -106 0
-50 -66 -114 0
-50 -66 -122 0
-50 -66 -130 0
-50 -74 -82 0
-50 -74 -90 0
-50 -74 -98 0
-50 -74 -106 0
-50 -74 -114 0
-50 -74 -122 0
-50 -74 -130 0
-50 -82 -90 0
-50 -82 -98 0
-50 -82 -106 0
-50 -82 -114 0
-50 -82 -122 0
-50 -82 -130 0
-50 -90 -98 0
-50 -90 -106 0
-50 -90 -114 0
-50 -90 -122 0
-50 -90 -130 0
-50 -98 -106 0
-50 -98 -114 0
-50 -98 -122 0
-50 -98 -130 0
-50 -106 -114 0
-50 -106 -122 0
-50 -106 -130 0
-50 -114 -122 0
-50 -114 -130 0
-50 -122 -130 0
-58 -66 -74 0
-58 -66 -82 0
-58 -66 -90 0
-58 -66 -98 0
-58 -66 -106 0
-58 -66 -114 0
-58 -66 -122 0
-58 -66 -130 0
-58 -74 -82 0
-58 -74 -90 0
-58 -74 -98 0
-58 -74 -106 0
-58 -74 -114 0
-58 -74 -122 0
-58 -74 -130 0
-58 -82 -90 0
-58 -82 -98 0
-58 -82 -106 0
-58 -82 -114 0
-58 -82 -122 0
-58 -82 -130 0
-58 -90 -98 0
-58 -90 -106 0
-58 -90 -114 0
-58 -90 -122 0
-58 -90 -130 0
-58 -98 -106 0
-58 -98 -114 0
-58 -98 -122 0
-58 -98 -130 0
-58 -106 -114 0
-58 -106 -122 0
-58 -106 -130 0
-58 -114 -122 0
-58 -114 -130 0
-58 -122 -130 0
-66 -74 -82 0
-66 -74 -90 0
-66 -74 -98 0
-66 -74 -106 0
-66 -74 -114 0
-66 -74 -122 0
-66 -74 -130 0
-66 -82 -90 0
-66 -82 -98 0
-66 -82 -106 0
-66 -82 -114 0
-66 -82 -122 0
-66 -82 -130 0
-66 -90 -98 0
-66 -90 -106 0
-66 -90 -114 0
-66 -90 -122 0
-66 -90 -130 0
-66 -98 -106 0
-66 -98 -114 0
-66 -98 -122 0
-66 -98 -130 0
-66 -106 -114 0
-66 -106 -122 0
-66 -106 -130 0
-66 -114 -122 0
-66 -114 -130 0
-66 -122 -130 0
-74 -82 -90 0
-74 -82 -98 0
-74 -82 -106 0
-74 -82 -114 0
-74 -82 -122 0
-74 -82 -130 0
-74 -90 -98 0
-74 -90 -106 0
-74 -90 -114 0
-74 -90 -122 0
-74 -90 -130 0
-74 -98 -106 0
-74 -98 -114 0
-74 -98 -122 0
-74 -98 -130 0
-74 -106 -114 0
-74 -106 -122 0
-74 -106 -130 0
-74 -114 -122 0
-74 -114 -130 0
-74 -122 -130 0
-82 -90 -98 0
-82 -90 -106 0
-82 -90 -114 0
-82 -90 -122 0
-82 -90 -130 0
-82 -98 -106 0
-82 -98 -114 0
-82 -98 -122 0
-82 -98 -130 0
-82 -106 -114 0
-82 -106 -122 0
-82 -106 -130 0
-82 -114 -122 0
-82 -114 -130 0
-82 -122 -130 0
-90 -98 -106 0
-90 -98 -114 0
-90 -98 -122 0
-90 -98 -130 0
-90 -106 -114 0
-90 -106 -122 0
-90 -106 -130 0
-90 -114 -122 0
-90 -114 -130 0
-90 -122 -130 0
-98 -106 -114 0
-98 -106 -122 0
-98 -106 -130 0
-98 -114 -122 0
-98 -114 -130 0
-98 -122 -130 0
-106 -114 -122 0
-106 -114 -130 0
-106 -122 -130 0
-114 -122 -130 0
-3 -11 -19 0
-3 -11 -27 0
-3 -11 -35 0
-3 -11 -43 0
-3 -11 -51 0
-3 -11 -59 0
-3 -11 -67 0
-3 -11 -75 0
-3 -11 -83 0
-3 -11 -91 0
-3 -11 -99 0
-3 -11 -107 0
-3 -11 -115 0
-3 -11 -123 0
-3 -11 -131 0
-3 -19 -27 0
-3 -19 -35 0
-3 -19 -43 0
-3 -19 -51 0
-3 -19 -59 0
-3 -19 -67 0
-3 -19 -75 0
-3 -19 -83 0
-3 -19 -91 0
-3 -19 -99 0
-3 -19 -107 0
-3 -19 -115 0
-3 -19 -123 0
-3 -19 -131 0
-3 -27 -35 0
-3 -27 -43 0
-3 -27 -51 0
-3 -27 -59 0
-3 -27 -67 0
-3 -27 -75 0
-3 -27 -83 0
-3 -27 -91 0
-3 -27 -99 0
-3 -27 -107 0
-3 -27 -115 0
-3 -27 -123 0
-3 -27 -131 0
-3 -35 -43 0
-3 -35 -51 0
-3 -35 -59 0
-3 -35 -67 0
-3 -35 -75 0
-3 -35 -83 0
-3 -35 -91 0
-3 -35 -99 0
-3 -35 -107 0
-3 -35 -115 0
-3 -35 -123 0
-3 -35 -131 0
-3 -43 -51 0
-3 -43 -59 0
-3 -43 -67 0
-3 -43 -75 0
-3 -43 -83 0
-3 -43 -91 0
-3 -43 -99 0
-3 -43 -107 0
-3 -43 -115 0
-3 -43 -123 0
-3 -43 -131 0
-3 -51 -59 0
-3 -51 -67 0
-3 -51 -75 0
-3 -51 -83 0
-3 -51 -91 0
-3 -51 -99 0
-3 -51 -107 0
-3 -51 -115 0
-3 -51 -123 0
-3 -51 -131 0
-3 -59 -67 0
-3 -59 -75 0
-3 -59 -83 0
-3 -59 -91 0
-3 -59 -99 0
-3 -59 -107 0
-3 -59 -115 0
-3 -59 -123 0
-3 -59 -131 0
-3 -67 -75 0
-3 -67 -83 0
-3 -67 -91 0
-3 -67 -99 0
-3 -67 -107 0
-3 -67 -115 0
-3 -67 -123 0
-3 -67 -131 0
-3 -75 -83 0
-3 -75 -91 0
-3 -75 -99 0
-3 -75 -107 0
-3 -75 -115 0
-3 -75 -123 0
-3 -75 -131 0
-3 -83 -91 0
-3 -83 -99 0
-3 -83 -107 0
-3 -83 -115 0
-3 -83 -123 0
-3 -83 -131 0
-3 -91 -99 0
-3 -91 -107 0
-3 -91 -115 0
-3 -91 -123 0
-3 -91 -131 0
-3 -99 -107 0
-3 -99 -115 0
-3 -99 -123 0
-3 -99 -131 0
-3 -107 -115 0
-3 -107 -123 0
-3 -107 -131 0
-3 -115 -123 0
-3 -115 -131 0
-3 -123 -131 0
-11 -19 -27 0
-11 -19 -35 0
-11 -19 -43 0
-11 -19 -51 0
-11 -19 -59 0
-11 -19 -67 0
-11 -19 -75 0
-11 -19 -83 0
-11 -19 -91 0
-11 -19 -99 0
-11 -19 -107 0
-11 -19 -115 0
-11 -19 -123 0
-11 -19 -131 0
-11 -27 -35 0
-11 -27 -43 0
-11 -27 -51 0
-11 -27 -59 0
-11 -27 -67 0
-11 -27 -75 0
-11 -27 -83 0
-11 -27 -91 0
-11 -27 -99 0
-11 -27 -107 0
-11 -27 -115 0
-11 -27 -123 0
-11 -27 -131 0
-11 -35 -43 0
-11 -35 -51 0
-11 -35 -59 0
-11 -35 -67 0
-11 -35 -75 0
-11 -35 -83 0
-11 -35 -91 0
-11 -35 -99 0
-11 -35 -107 0
-11 -35 -115 0
-11 -35 -123 0
-11 -35 -131 0
-11 -43 -51 0
-11 -43 -59 0
-11 -43 -67 0
-11 -43 -75 0
-11 -43 -83 0
-11 -43 -91 0
-11 -43 -99 0
-11 -43 -107 0
-11 -43 -115 0
-11 -43 -123 0
-11 -43 -131 0
-11 -51 -59 0
-11 -51 -67 0
-11 -51 -75 0
-11 -51 -83 0
-11 -51 -91 0
-11 -51 -99 0
-11 -51 -107 0
-11 -51 -115 0
-11 -51 -123 0
-11 -51 -131 0
-11 -59 -67 0
-11 -59 -75 0
-11 -59 -83 0
-11 -59 -91 0
-11 -59 -99 0
-11 -59 -107 0
-11 -59 -115 0
-11 -59 -123 0
-11 -59 -131 0
-11 -67 -75 0
-11 -67 -83 0
-11 -67 -91 0
-11 -67 -99 0
-11 -67 -107 0
-11 -67 -115 0
-11 -67 -123 0
-11 -67 -131 0
-11 -75 -83 0
-11 -75 -91 0
-11 -75 -99 0
-11 -75 -107 0
-11 -75 -115 0
-11 -75 -123 0
-11 -75 -131 0
-11 -83 -91 0
-11 -83 -99 0
-11 -83 -107 0
-11 -83 -115 0
-11 -83 -123 0
-11 -83 -131 0
-11 -91 -99 0
-11 -91 -107 0
-11 -91 -115 0
-11 -91 -123 0
-11 -91 -131 0
-11 -99 -107 0
-11 -99 -115 0
-11 -99 -123 0
-11 -99 -131 0
-11 -107 -115 0
-11 -107 -123 0
-11 -107 -131 0
-11 -115 -123 0
-11 -115 -131 0
-11 -123 -131 0
-19 -27 -35 0
-19 -27 -43 0
-19 -27 -51 0
-19 -27 -59 0
-19 -27 -67 0
-19 -27 -75 0
-19 -27 -83 0
-19 -27 -91 0
-19 -27 -99 0
-19 -27 -107 0
-19 -27 -115 0
-19 -27 -123 0
-19 -27 -131 0
-19 -35 -43 0
-19 -35 -51 0
-19 -35 -59 0
-19 -35 -67 0
-19 -35 -75 0
-19 -35 -83 0
-19 -35 -91 0
-19 -35 -99 0
-19 -35 -107 0
-19 -35 -115 0
-19 -35 -123 0
-19 -35 -131 0
-19 -43 -51 0
-19 -43 -59 0
-19 -43 -67 0
-19 -43 -75 0
-19 -43 -83 0
-19 -43 -91 0
-19 -43 -99 0
-19 -43 -107 0
-19 -43 -115 0
-19 -43 -123 0
-19 -43 -131 0
-19 -51 -59 0
-19 -51 -67 0
-19 -51 -75 0
-19 -51 -83 0
-19 -51 -91 0
-19 -51 -99 0
-19 -51 -107 0
-19 -51 -115 0
-19 -51 -123 0
-19 -51 -131 0
-19 -59 -67 0
-19 -59 -75 0
-19 -59 -83 0
-19 -59 -91 0
-19 -59 -99 0
-19 -59 -107 0
-19 -59 -115 0
-19 -59 -123 0
-19 -59 -131 0
-19 -67 -75 0
-19 -67 -83 0
-19 -67 -91 0
-19 -67 -99 0
-19 -67 -107 0
-19 -67 -115 0
-19 -67 -123 0
-19 -67 -131 0
-19 -75 -83 0
-19 -75 -91 0
-19 -75 -99 0
-19 -75 -107 0
-19 -75 -115 0
-19 -75 -123 0
-19 -75 -131 0
-19 -83 -91 0
-19 -83 -99 0
-19 -83 -107 0
-19 -83 -115 0
-19 -83 -123 0
-19 -83 -131 0
-19 -91 -99 0
-19 -91 -107 0
-19 -91 -115 0
-19 -91 -123 0
-19 -91 -131 0
-19 -99 -107 0
-19 -99 -115 0
-19 -99 -123 0
-19 -99 -131 0
-19 -107 -115 0
-19 -107 -123 0
-19 -107 -131 0
-19 -115 -123 0
-19 -115 -131 0
-19 -123 -131 0
-27 -35 -43 0
-27 -35 -51 0
-27 -35 -59 0
-27 -35 -67 0
-27 -35 -75 0
-27 -35 -83 0
-27 -35 -91 0
-27 -35 -99 0
-27 -35 -107 0
-27 -35 -115 0
-27 -35 -123 0
-27 -35 -131 0
-27 -43 -51 0
-27 -43 -59 0
-27 -43 -67 0
-27 -43 -75 0
-27 -43 -83 0
-27 -43 -91 0
-27 -43 -99 0
-27 -43 -107 0
-27 -43 -115 0
-27 -43 -123 0
-27 -43 -131 0
-27 -51 -59 0
-27 -51 -67 0
-27 -51 -75 0
-27 -51 -83 0
-27 -51 -91 0
-27 -51 -99 0
-27 -51 -107 0
-27 -51 -115 0
-27 -51 -123 0
-27 -51 -131 0
-27 -59 -67 0
-27 -59 -75 0
-27 -59 -83 0
-27 -59 -91 0
-27 -59 -99 0
-27 -59 -107 0
-27 -59 -115 0
-27 -59 -123 0
-27 -59 -131 0
-27 -67 -75 0
-27 -67 -83 0
-27 -67 -91 0
-27 -67 -99 0
-27 -67 -107 0
-27 -67 -115 0
-27 -67 -123 0
-27 -67 -131 0
-27 -75 -83 0
-27 -75 -91 0
-27 -75 -99 0
-27 -75 -107 0
-27 -75 -115 0
-27 -75 -123 0
-27 -75 -131 0
-27 -83 -91 0
-27 -83 -99 0
-27 -83 -107 0
-27 -83 -115 0
-27 -83 -123 0
-27 -83 -131 0
-27 -91 -99 0
-27 -91 -107 0
-27 -91 -115 0
-27 -91 -123 0
-27 -91 -131 0
-27 -99 -107 0
-27 -99 -115 0
-27 -99 -123 0
-27 -99 -131 0
-27 -107 -115 0
-27 -107 -123 0
-27 -107 -131 0
-27 -115 -123 0
-27 -115 -131 0
-27 -123 -131 0
-35 -43 -51 0
-35 -43 -59 0
-35 -43 -67 0
-35 -43 -75 0
-35 -43 -83 0
-35 -43 -91 0
-35 -43 -99 0
-35 -43 -107 0
-35 -43 -115 0
-35 -43 -123 0
-35 -43 -131 0
-35 -51 -59 0
-35 -51 -67 0
-35 -51 -75 0
-35 -51 -83 0
-35 -51 -91 0
-35 -51 -99 0
-35 -51 -107 0
-35 -51 -115 0
-35 -51 -123 0
-35 -51 -131 0
-35 -59 -67 0
-35 -59 -75 0
-35 -59 -83 0
-35 -59 -91 0
-35 -59 -99 0
-35 -59 -107 0
-35 -59 -115 0
-35 -59 -123 0
-35 -59 -131 0
-35 -67 -75 0
-35 -67 -83 0
-35 -67 -91 0
-35 -67 -99 0
-35 -67 -107 0
-35 -67 -115 0
-35 -67 -123 0
-35 -67 -131 0
-35 -75 -83 0
-35 -75 -91 0
-35 -75 -99 0
-35 -75 -107 0
-35 -75 -115 0
-35 -75 -123 0
-35 -75 -131 0
-35 -83 -91 0
-35 -83 -99 0
-35 -83 -107 0
-35 -83 -115 0
-35 -83 -123 0
-35 -83 -131 0
-35 -91 -99 0
-35 -91 -107 0
-35 -91 -115 0
-35 -91 -123 0
-35 -91 -131 0
-35 -99 -107 0
-35 -99 -115 0
-35 -99 -123 0
-35 -99 -131 0
-35 -107 -115 0
-35 -107 -123 0
-35 -107 -131 0
-35 -115 -123 0
-35 -115 -131 0
-35 -123 -131 0
-43 -51 -59 0
-43 -51 -67 0
-43 -51 -75 0
-43 -51 -83 0
-43 -51 -91 0
-43 -51 -99 0
-43 -51 -107 0
-43 -51 -115 0
-43 -51 -123 0
-43 -51 -131 0
-43 -59 -67 0
-43 -59 -75 0
-43 -59 -83 0
-43 -59 -91 0
-43 -59 -99 0
-43 -59 -107 0
-43 -59 -115 0
-43 -59 -123 0
-43 -59 -131 0
-43 -67 -75 0
-43 -67 -83 0
-43 -67 -91 0
-43 -67 -99 0
-43 -67 -107 0
-43 -67 -115 0
-43 -67 -123 0
-43 -67 -131 0
-43 -75 -83 0
-43 -75 -91 0
-43 -75 -99 0
-43 -75 -107 0
-43 -75 -115 0
-43 -75 -123 0
-43 -75 -131 0
-43 -83 -91 0
-43 -83 -99 0
-43 -83 -107 0
-43 -83 -115 0
-43 -83 -123 0
-43 -83 -131 0
-43 -91 -99 0
-43 -91 -107 0
-43 -91 -115 0
-43 -91 -123 0
-43 -91 -131 0
-43 -99 -107 0
-43 -99 -115 0
-43 -99 -123 0
-43 -99 -131 0
-43 -107 -115 0
-43 -107 -123 0
-43 -107 -131 0
-43 -115 -123 0
-43 -115 -131 0
-43 -123 -131 0
-51 -59 -67 0
-51 -59 -75 0
-51 -59 -83 0
-51 -59 -91 0
-51 -59 -99 0
-51 -59 -107 0
-51 -59 -115 0
-51 -59 -123 0
-51 -59 -131 0
-51 -67 -75 0
-51 -67 -83 0
-51 -67 -91 0
-51 -67 -99 0
-51 -67 -107 0
-51 -67 -115 0
-51 -67 -123 0
-51 -67 -131 0
-51 -75 -83 0
-51 -75 -91 0
-51 -75 -99 0
-51 -75 -107 0
-51 -75 -115 0
-51 -75 -123 0
-51 -75 -131 0
-51 -83 -91 0
-51 -83 -99 0
-51 -83 -107 0
-51 -83 -115 0
-51 -83 -123 0
-51 -83 -131 0
-51 -91 -99 0
-51 -91 -107 0
-51 -91 -115 0
-51 -91 -123 0
-51 -91 -131 0
-51 -99 -107 0
-51 -99 -115 0
-51 -99 -123 0
-51 -99 -131 0
-51 -107 -115 0
-51 -107 -123 0
-51 -107 -131 0
-51 -115 -123 0
-51 -115 -131 0
-51 -123 -131 0
-59 -67 -75 0
-59 -67 -83 0
-59 -67 -91 0
-59 -67 -99 0
-59 -67 -107 0
-59 -67 -115 0
-59 -67 -123 0
-59 -67 -131 0
-59 -75 -83 0
-59 -75 -91 0
-59 -75 -99 0
-59 -75 -107 0
-59 -75 -115 0
-59 -75 -123 0
-59 -75 -131 0
-59 -83 -91 0
-59 -83 -99 0
-59 -83 -107 0
-59 -83 -115 0
-59 -83 -123 0
-59 -83 -131 0
-59 -91 -99 0
-59 -91 -107 0
-59 -91 -115 0
-59 -91 -123 0
-59 -91 -131 0
-59 -99 -107 0
-59 -99 -115 0
-59 -99 -123 0
-59 -99 -131 0
-59 -107 -115 0
-59 -107 -123 0
-59 -107 -131 0
-59 -115 -123 0
-59 -115 -131 0
-59 -123 -131 0
-67 -75 -83 0
-67 -75 -91 0
-67 -75 -99 0
-67 -75 -107 0
-67 -75 -115 0
-67 -75 -123 0
-67 -75 -131 0
-67 -83 -91 0
-67 -83 -99 0
-67 -83 -107 0
-67 -83 -115 0
-67 -83 -123 0
-67 -83 -131 0
-67 -91 -99 0
-67 -91 -107 0
-67 -91 -115 0
-67 -91 -123 0
-67 -91 -131 0
-67 -99 -107 0
-67 -99 -115 0
-67 -99 -123 0
-67 -99 -131 0
-67 -107 -115 0
-67 -107 -123 0
-67 -107 -131 0
-67 -115 -123 0
-67 -115 -131 0
-67 -123 -131 0
-75 -83 -91 0
-75 -83 -99 0
-75 -83 -107 0
-75 -83 -115 0
-75 -83 -123 0
-75 -83 -131 0
-75 -91 -99 0
-75 -91 -107 0
-75 -91 -115 0
-75 -91 -123 0
-75 -91 -131 0
-75 -99 -107 0
-75 -99 -115 0
-75 -99 -123 0
-75 -99 -131 0
-75 -107 -115 0
-75 -107 -123 0
-75 -107 -131 0
-75 -115 -123 0
-75 -115 -131 0
-75 -123 -131 0
-83 -91 -99 0
-83 -91 -107 0
-83 -91 -115 0
-83 -91 -123 0
-83 -91 -131 0
-83 -99 -107 0
-83 -99 -115 0
-83 -99 -123 0
-83 -99 -131 0
-83 -107 -115 0
-83 -107 -123 0
-83 -107 -131 0
-83 -115 -123 0
-83 -115 -131 0
-83 -123 -131 0
-91 -99 -107 0
-91 -99 -115 0
-91 -99 -123 0
-91 -99 -131 0
-91 -107 -115 0
-91 -107 -123 0
-91 -107 -131 0
-91 -115 -123 0
-91 -115 -131 0
-91 -123 -131 0
-99 -107 -115 0
-99 -107 -123 0
-99 -107 -131 0
-99 -115 -123 0
-99 -115 -131 0
-99 -123 -131 0
-107 -115 -123 0
-107 -115 -131 0
-107 -123 -131 0
-115 -123 -131 0
-4 -12 -20 0
-4 -12 -28 0
-4 -12 -36 0
-4 -12 -44 0
-4 -12 -52 0
-4 -12 -60 0
-4 -12 -68 0
-4 -12 -76 0
-4 -12 -84 0
-4 -12 -92 0
-4 -12 -100 0
-4 -12 -108 0
-4 -12 -116 0
-4 -12 -124 0
-4 -12 -132 0
-4 -20 -28 0
-4 -20 -36 0
-4 -20 -44 0
-4 -20 -52 0
-4 -20 -60 0
-4 -20 -68 0
-4 -20 -76 0
-4 -20 -84 0
-4 -20 -92 0
-4 -20 -100 0
-4 -20 -108 0
-4 -20 -116 0
-4 -20 -124 0
-4 -20 -132 0
-4 -28 -36 0
-4 -28 -44 0
-4 -28 -52 0
-4 -28 -60 0
-4 -28 -68 0
-4 -28 -76 0
-4 -28 -84 0
-4 -28 -92 0
-4 -28 -100 0
-4 -28 -108 0
-4 -28 -116 0
-4 -28 -124 0
-4 -28 -132 0
-4 -36 -44 0
-4 -36 -52 0
-4 -36 -60 0
-4 -36 -68 0
-4 -36 -76 0
-4 -36 -84 0
-4 -36 -92 0
-4 -36 -100 0
-4 -36 -108 0
-4 -36 -116 0
-4 -36 -124 0
-4 -36 -132 0
-4 -44 -52 0
-4 -44 -60 0
-4 -44 -68 0
-4 -44 -76 0
-4 -44 -84 0
-4 -44 -92 0
-4 -44 -100 0
-4 -44 -108 0
-4 -44 -116 0
-4 -44 -124 0
-4 -44 -132 0
-4 -52 -60 0
-4 -52 -68 0
-4 -52 -76 0
-4 -52 -84 0
-4 -52 -92 0
-4 -52 -100 0
-4 -52 -108 0
-4 -52 -116 0
-4 -52 -124 0
-4 -52 -132 0
-4 -60 -68 0
-4 -60 -76 0
-4 -60 -84 0
-4 -60 -92 0
-4 -60 -100 0
-4 -60 -108 0
-4 -60 -116 0
-4 -60 -124 0
-4 -60 -132 0
-4 -68 -76 0
-4 -68 -84 0
-4 -68 -92 0
-4 -68 -100 0
-4 -68 -108 0
-4 -68 -116 0
-4 -68 -124 0
-4 -68 -132 0
-4 -76 -84 0
-4 -76 -92 0
-4 -76 -100 0
-4 -76 -108 0
-4 -76 -116 0
-4 -76 -124 0
-4 -76 -132 0
-4 -84 -92 0
-4 -84 -100 0
-4 -84 -108 0
-4 -84 -116 0
-4 -84 -124 0
-4 -84 -132 0
-4 -92 -100 0
-4 -92 -108 0
-4 -92 -116 0
-4 -92 -124 0
-4 -92 -132 0
-4 -100 -108 0
-4 -100 -116 0
-4 -100 -124 0
-4 -100 -132 0
-4 -108 -116 0
-4 -108 -124 0
-4 -108 -132 0
-4 -116 -124 0
-4 -116 -132 0
-4 -124 -132 0
-12 -20 -28 0
-12 -20 -36 0
-12 -20 -44 0
-12 -20 -52 0
-12 -20 -60 0
-12 -20 -68 0
-12 -20 -76 0
-12 -20 -84 0
-12 -20 -92 0
-12 -20 -100 0
-12 -20 -108 0
-12 -20 -116 0
-12 -20 -124 0
-12 -20 -132 0
-12 -28 -36 0
-12 -28 -44 0
-12 -28 -52 0
-12 -28 -60 0
-12 -28 -68 0
-12 -28 -76 0
-12 -28 -84 0
-12 -28 -92 0
-12 -28 -100 0
-12 -28 -108 0
-12 -28 -116 0
-12 -28 -124 0
-12 -28 -132 0
-12 -36 -44 0
-12 -36 -52 0
-12 -36 -60 0
-12 -36 -68 0
-12 -36 -76 0
-12 -36 -84 0
-12 -36 -92 0
-12 -36 -100 0
-12 -36 -108 0
-12 -36 -116 0
-12 -36 -124 0
-12 -36 -132 0
-12 -44 -52 0
-12 -44 -60 0
-12 -44 -68 0
-12 -44 -76 0
-12 -44 -84 0
-12 -44 -92 0
-12 -44 -100 0
-12 -44 -108 0
-12 -44 -116 0
-12 -44 -124 0
-12 -44 -132 0
-12 -52 -60 0
-12 -52 -68 0
-12 -52 -76 0
-12 -52 -84 0
-12 -52 -92 0
-12 -52 -100 0
-12 -52 -108 0
-12 -52 -116 0
-12 -52 -124 0
-12 -52 -132 0
-12 -60 -68 0
-12 -60 -76 0
-12 -60 -84 0
-12 -60 -92 0
-12 -60 -100 0
-12 -60 -108 0
-12 -60 -116 0
-12 -60 -124 0
-12 -60 -132 0
-12 -68 -76 0
-12 -68 -84 0
-12 -68 -92 0
-12 -68 -100 0
-12 -68 -108 0
-12 -68 -116 0
-12 -68 -124 0
-12 -68 -132 0
-12 -76 -84 0
-12 -76 -92 0
-12 -76 -100 0
-12 -76 -108 0
-12 -76 -116 0
-12 -76 -124 0
-12 -76 -132 0
-12 -84 -92 0
-12 -84 -100 0
-12 -84 -108 0
-12 -84 -116 0
-12 -84 -124 0
-12 -84 -132 0
-12 -92 -100 0
-12 -92 -108 0
-12 -92 -116 0
-12 -92 -124 0
-12 -92 -132 0
-12 -100 -108 0
-12 -100 -116 0
-12 -100 -124 0
-12 -100 -132 0
-12 -108 -116 0
-12 -108 -124 0
-12 -108 -132 0
-12 -116 -124 0
-12 -116 -132 0
-12 -124 -132 0
-20 -28 -36 0
-20 -28 -44 0
-20 -28 -52 0
-20 -28 -60 0
-20 -28 -68 0
-20 -28 -76 0
-20 -28 -84 0
-20 -28 -92 0
-20 -28 -100 0
-20 -28 -108 0
-20 -28 -116 0
-20 -28 -124 0
-20 -28 -132 0
-20 -36 -44 0
-20 -36 -52 0
-20 -36 -60 0
-20 -36 -68 0
-20 -36 -76 0
-20 -36 -84 0
-20 -36 -92 0
-20 -36 -100 0
-20 -36 -108 0
-20 -36 -116 0
-20 -36 -124 0
-20 -36 -132 0
-20 -44 -52 0
-20 -44 -60 0
-20 -44 -68 0
-20 -44 -76 0
-20 -44 -84 0
-20 -44 -92 0
-20 -44 -100 0
-20 -44 -108 0
-20 -44 -116 0
-20 -44 -124 0
-20 -44 -132 0
-20 -52 -60 0
-20 -52 -68 0
-20 -52 -76 0
-20 -52 -84 0
-20 -52 -92 0
-20 -52 -100 0
-20 -52 -108 0
-20 -52 -116 0
-20 -52 -124 0
-20 -52 -132 0
-20 -60 -68 0
-20 -60 -76 0
-20 -60 -84 0
-20 -60 -92 0
-20 -60 -100 0
-20 -60 -108 0
-20 -60 -116 0
-20 -60 -124 0
-20 -60 -132 0
-20 -68 -76 0
-20 -68 -84 0
-20 -68 -92 0
-20 -68 -100 0
-20 -68 -108 0
-20 -68 -116 0
-20 -68 -124 0
-20 -68 -132 0
-20 -76 -84 0
-20 -76 -92 0
-20 -76 -100 0
-20 -76 -108 0
-20 -76 -116 0
-20 -76 -124 0
-20 -76 -132 0
-20 -84 -92 0
-20 -84 -100 0
-20 -84 -108 0
-20 -84 -116 0
-20 -84 -124 0
-20 -84 -132 0
-20 -92 -100 0
-20 -92 -108 0
-20 -92 -116 0
-20 -92 -124 0
-20 -92 -132 0
-20 -100 -108 0
-20 -100 -116 0
-20 -100 -124 0
-20 -100 -132 0
-20 -108 -116 0
-20 -108 -124 0
-20 -108 -132 0
-20 -116 -124 0
-20 -116 -132 0
-20 -124 -132 0
-28 -36 -44 0
-28 -36 -52 0
-28 -36 -60 0
-28 -36 -68 0
-28 -36 -76 0
-28 -36 -84 0
-28 -36 -92 0
-28 -36 -100 0
-28 -36 -108 0
-28 -36 -116 0
-28 -36 -124 0
-28 -36 -132 0
-28 -44 -52 0
-28 -44 -60 0
-28 -44 -68 0
-28 -44 -76 0
-28 -44 -84 0
-28 -44 -92 0
-28 -44 -100 0
-28 -44 -108 0
-28 -44 -116 0
-28 -44 -124 0
-28 -44 -132 0
-28 -52 -60 0
-28 -52 -68 0
-28 -52 -76 0
-28 -52 -84 0
-28 -52 -92 0
-28 -52 -100 0
-28 -52 -108 0
-28 -52 -116 0
-28 -52 -124 0
-28 -52 -132 0
-28 -60 -68 0
-28 -60 -76 0
-28 -60 -84 0
-28 -60 -92 0
-28 -60 -100 0
-28 -60 -108 0
-28 -60 -116 0
-28 -60 -124 0
-28 -60 -132 0
-28 -68 -76 0
-28 -68 -84 0
-28 -68 -92 0
-28 -68 -100 0
-28 -68 -108 0
-28 -68 -116 0
-28 -68 -124 0
-28 -68 -132 0
-28 -76 -84 0
-28 -76 -92 0
-28 -76 -100 0
-28 -76 -108 0
-28 -76 -116 0
-28 -76 -124 0
-28 -76 -132 0
-28 -84 -92 0
-28 -84 -100 0
-28 -84 -108 0
-28 -84 -116 0
-28 -84 -124 0
-28 -84 -132 0
-28 -92 -100 0
-28 -92 -108 0
-28 -92 -116 0
-28 -92 -124 0
-28 -92 -132 0
-28 -100 -108 0
-28 -100 -116 0
-28 -100 -124 0
-28 -100 -132 0
-28 -108 -116 0
-28 -108 -124 0
-28 -108 -132 0
-28 -116 -124 0
-28 -116 -132 0
-28 -124 -132 0
-36 -44 -52 0
-36 -44 -60 0
-36 -44 -68 0
-36 -44 -76 0
-36 -44 -84 0
-36 -44 -92 0
-36 -44 -100 0
-36 -44 -108 0
-36 -44 -116 0
-36 -44 -124 0
-36 -44 -132 0
-36 -52 -60 0
-36 -52 -68 0
-36 -52 -76 0
-36 -52 -84 0
-36 -52 -92 0
-36 -52 -100 0
-36 -52 -108 0
-36 -52 -116 0
-36 -52 -124 0
-36 -52 -132 0
-36 -60 -68 0
-36 -60 -76 0
-36 -60 -84 0
-36 -60 -92 0
-36 -60 -100 0
-36 -60 -108 0
-36 -60 -116 0
-36 -60 -124 0
-36 -60 -132 0
-36 -68 -76 0
-36 -68 -84 0
-36 -68 -92 0
-36 -68 -100 0
-36 -68 -108 0
-36 -68 -116 0
-36 -68 -124 0
-36 -68 -132 0
-36 -76 -84 0
-36 -76 -92 0
-36 -76 -100 0
-36 -76 -108 0
-36 -76 -116 0
-36 -76 -124 0
-36 -76 -132 0
-36 -84 -92 0
-36 -84 -100 0
-36 -84 -108 0
-36 -84 -116 0
-36 -84 -124 0
-36 -84 -132 0
-36 -92 -100 0
-36 -92 -108 0
-36 -92 -116 0
-36 -92 -124 0
-36 -92 -132 0
-36 -100 -108 0
-36 -100 -116 0
-36 -100 -124 0
-36 -100 -132 0
-36 -108 -116 0
-36 -108 -124 0
-36 -108 -132 0
-36 -116 -124 0
-36 -116 -132 0
-36 -124 -132 0
-44 -52 -60 0
-44 -52 -68 0
-44 -52 -76 0
-44 -52 -84 0
-44 -52 -92 0
-44 -52 -100 0
-44 -52 -108 0
-44 -52 -116 0
-44 -52 -124 0
-44 -52 -132 0
-44 -60 -68 0
-44 -60 -76 0
-44 -60 -84 0
-44 -60 -92 0
-44 -60 -100 0
-44 -60 -108 0
-44 -60 -116 0
-44 -60 -124 0
-44 -60 -132 0
-44 -68 -76 0
-44 -68 -84 0
-44 -68 -92 0
-44 -68 -100 0
-44 -68 -108 0
-44 -68 -116 0
-44 -68 -124 0
-44 -68 -132 0
-44 -76 -84 0
-44 -76 -92 0
-44 -76 -100 0
-44 -76 -108 0
-44 -76 -116 0
-44 -76 -124 0
-44 -76 -132 0
-44 -84 -92 0
-44 -84 -100 0
-44 -84 -108 0
-44 -84 -116 0
-44 -84 -124 0
-44 -84 -132 0
-44 -92 -100 0
-44 -92 -108 0
-44 -92 -116 0
-44 -92 -124 0
-44 -92 -132 0
-44 -100 -108 0
-44 -100 -116 0
-44 -100 -124 0
-44 -100 -132 0
-44 -108 -116 0
-44 -108 -124 0
-44 -108 -132 0
-44 -116 -124 0
-44 -116 -132 0
-44 -124 -132 0
-52 -60 -68 0
-52 -60 -76 0
-52 -60 -84 0
-52 -60 -92 0
-52 -60 -100 0
-52 -60 -108 0
-52 -60 -116 0
-52 -60 -124 0
-52 -60 -132 0
-52 -68 -76 0
-52 -68 -84 0
-52 -68 -92 0
-52 -68 -100 0
-52 -68 -108 0
-52 -68 -116 0
-52 -68 -124 0
-52 -68 -132 0
-52 -76 -84 0
-52 -76 -92 0
-52 -76 -100 0
-52 -76 -108 0
-52 -76 -116 0
-52 -76 -124 0
-52 -76 -132 0
-52 -84 -92 0
-52 -84 -100 0
-52 -84 -108 0
-52 -84 -116 0
-52 -84 -124 0
-52 -84 -132 0
-52 -92 -100 0
-52 -92 -108 0
-52 -92 -116 0
-52 -92 -124 0
-52 -92 -132 0
-52 -100 -108 0
-52 -100 -116 0
-52 -100 -124 0
-52 -100 -132 0
-52 -108 -116 0
-52 -108 -124 0
-52 -108 -132 0
-52 -116 -124 0
-52 -116 -132 0
-52 -124 -132 0
-60 -68 -76 0
-60 -68 -84 0
-60 -68 -92 0
-60 -68 -100 0
-60 -68 -108 0
-60 -68 -116 0
-60 -68 -124 0
-60 -68 -132 0
-60 -76 -84 0
-60 -76 -92 0
-60 -76 -100 0
-60 -76 -108 0
-60 -76 -116 0
-60 -76 -124 0
-60 -76 -132 0
-60 -84 -92 0
-60 -84 -100 0
-60 -84 -108 0
-60 -84 -116 0
-60 -84 -124 0
-60 -84 -132 0
-60 -92 -100 0
-60 -92 -108 0
-60 -92 -116 0
-60 -92 -124 0
-60 -92 -132 0
-60 -100 -108 0
-60 -100 -116 0
-60 -100 -124 0
-60 -100 -132 0
-60 -108 -116 0
-60 -108 -124 0
-60 -108 -132 0
-60 -116 -124 0
-60 -116 -132 0
-60 -124 -132 0
-68 -76 -84 0
-68 -76 -92 0
-68 -76 -100 0
-68 -76 -108 0
-68 -76 -116 0
-68 -76 -124 0
-68 -76 -132 0
-68 -84 -92 0
-68 -84 -100 0
-68 -84 -108 0
-68 -84 -116 0
-68 -84 -124 0
-68 -84 -132 0
-68 -92 -100 0
-68 -92 -108 0
-68 -92 -116 0
-68 -92 -124 0
-68 -92 -132 0
-68 -100 -108 0
-68 -100 -116 0
-68 -100 -124 0
-68 -100 -132 0
-68 -108 -116 0
-68 -108 -124 0
-68 -108 -132 0
-68 -116 -124 0
-68 -116 -132 0
-68 -124 -132 0
-76 -84 -92 0
-76 -84 -100 0
-76 -84 -108 0
-76 -84 -116 0
-76 -84 -124 0
-76 -84 -132 0
-76 -92 -100 0
-76 -92 -108 0
-76 -92 -116 0
-76 -92 -124 0
-76 -92 -132 0
-76 -100 -108 0
-76 -100 -116 0
-76 -100 -124 0
-76 -100 -132 0
-76 -108 -116 0
-76 -108 -124 0
-76 -108 -132 0
-76 -116 -124 0
-76 -116 -132 0
-76 -124 -132 0
-84 -92 -100 0
-84 -92 -108 0
-84 -92 -116 0
-84 -92 -124 0
-84 -92 -132 0
-84 -100 -108 0
-84 -100 -116 0
-84 -100 -124 0
-84 -100 -132 0
-84 -108 -116 0
-84 -108 -124 0
-84 -108 -132 0
-84 -116 -124 0
-84 -116 -132 0
-84 -124 -132 0
-92 -100 -108 0
-92 -100 -116 0
-92 -100 -124 0
-92 -100 -132 0
-92 -108 -116 0
-92 -108 -124 0
-92 -108 -132 0
-92 -116 -124 0
-92 -116 -132 0
-92 -124 -132 0
-100 -108 -116 0
-100 -108 -124 0
-100 -108 -132 0
-100 -116 -124 0
-100 -116 -132 0
-100 -124 -132 0
-108 -116 -124 0
-108 -116 -132 0
-108 -124 -132 0
-116 -124 -132 0
-5 -13 -21 0
-5 -13 -29 0
-5 -13 -37 0
-5 -13 -45 0
-5 -13 -53 0
-5 -13 -61 0
-5 -13 -69 0
-5 -13 -77 0
-5 -13 -85 0
-5 -13 -93 0
-5 -13 -101 0
-5 -13 -109 0
-5 -13 -117 0
-5 -13 -125 0
-5 -13 -133 0
-5 -21 -29 0
-5 -21 -37 0
-5 -21 -45 0
-5 -21 -53 0
-5 -21 -61 0
-5 -21 -69 0
-5 -21 -77 0
-5 -21 -85 0
-5 -21 -93 0
-5 -21 -101 0
-5 -21 -109 0
-5 -21 -117 0
-5 -21 -125 0
-5 -21 -133 0
-5 -29 -37 0
-5 -29 -45 0
-5 -29 -53 0
-5 -29 -61 0
-5 -29 -69 0
-5 -29 -77 0
-5 -29 -85 0
-5 -29 -93 0
-5 -29 -101 0
-5 -29 -109 0
-5 -29 -117 0
-5 -29 -125 0
-5 -29 -133 0
-5 -37 -45 0
-5 -37 -53 0
-5 -37 -61 0
-5 -37 -69 0
-5 -37 -77 0
-5 -37 -85 0
-5 -37 -93 0
-5 -37 -101 0
-5 -37 -109 0
-5 -37 -117 0
-5 -37 -125 0
-5 -37 -133 0
-5 -45 -53 0
-5 -45 -61 0
-5 -45 -69 0
-5 -45 -77 0
-5 -45 -85 0
-5 -45 -93 0
-5 -45 -101 0
-5 -45 -109 0
-5 -45 -117 0
-5 -45 -125 0
-5 -45 -133 0
-5 -53 -61 0
-5 -53 -69 0
-5 -53 -77 0
-5 -53 -85 0
-5 -53 -93 0
-5 -53 -101 0
-5 -53 -109 0
-5 -53 -117 0
-5 -53 -125 0
-5 -53 -133 0
-5 -61 -69 0
-5 -61 -77 0
-5 -61 -85 0
-5 -61 -93 0
-5 -61 -101 0
-5 -61 -109 0
-5 -61 -117 0
-5 -61 -125 0
-5 -61 -133 0
-5 -69 -77 0
-5 -69 -85 0
-5 -69 -93 0
-5 -69 -101 0
-5 -69 -109 0
-5 -69 -117 0
-5 -69 -125 0
-5 -69 -133 0
-5 -77 -85 0
-5 -77 -93 0
-5 -77 -101 0
-5 -77 -109 0
-5 -77 -117 0
-5 -77 -125 0
-5 -77 -133 0
-5 -85 -93 0
-5 -85 -101 0
-5 -85 -109 0
-5 -85 -117 0
-5 -85 -125 0
-5 -85 -133 0
-5 -93 -101 0
-5 -93 -109 0
-5 -93 -117 0
-5 -93 -125 0
-5 -93 -133 0
-5 -101 -109 0
-5 -101 -117 0
-5 -101 -125 0
-5 -101 -133 0
-5 -109 -117 0
-5 -109 -125 0
-5 -109 -133 0
-5 -117 -125 0
-5 -117 -133 0
-5 -125 -133 0
-13 -21 -29 0
-13 -21 -37 0
-13 -21 -45 0
-13 -21 -53 0
-13 -21 -61 0
-13 -21 -69 0
-13 -21 -77 0
-13 -21 -85 0
-13 -21 -93 0
-13 -21 -101 0
-13 -21 -109 0
-13 -21 -117 0
-13 -21 -125 0
-13 -21 -133 0
-13 -29 -37 0
-13 -29 -45 0
-13 -29 -53 0
-13 -29 -61 0
-13 -29 -69 0
-13 -29 -77 0
-13 -29 -85 0
-13 -29 -93 0
-13 -29 -101 0
-13 -29 -109 0
-13 -29 -117 0
-13 -29 -125 0
-13 -29 -133 0
-13 -37 -45 0
-13 -37 -53 0
-13 -37 -61 0
-13 -37 -69 0
-13 -37 -77 0
-13 -37 -85 0
-13 -37 -93 0
-13 -37 -101 0
-13 -37 -109 0
-13 -37 -117 0
-13 -37 -125 0
-13 -37 -133 0
-13 -45 -53 0
-13 -45 -61 0
-13 -45 -69 0
-13 -45 -77 0
-13 -45 -85 0
-13 -45 -93 0
-13 -45 -101 0
-13 -45 -109 0
-13 -45 -117 0
-13 -45 -125 0
-13 -45 -133 0
-13 -53 -61 0
-13 -53 -69 0
-13 -53 -77 0
-13 -53 -85 0
-13 -53 -93 0
-13 -53 -101 0
-13 -53 -109 0
-13 -53 -117 0
-13 -53 -125 0
-13 -53 -133 0
-13 -61 -69 0
-13 -61 -77 0
-13 -61 -85 0
-13 -61 -93 0
-13 -61 -101 0
-13 -61 -109 0
-13 -61 -117 0
-13 -61 -125 0
-13 -61 -133 0
-13 -69 -77 0
-13 -69 -85 0
-13 -69 -93 0
-13 -69 -101 0
-13 -69 -109 0
-13 -69 -117 0
-13 -69 -125 0
-13 -69 -133 0
-13 -77 -85 0
-13 -77 -93 0
-13 -77 -101 0
-13 -77 -109 0
-13 -77 -117 0
-13 -77 -125 0
-13 -77 -133 0
-13 -85 -93 0
-13 -85 -101 0
-13 -85 -109 0
-13 -85 -117 0
-13 -85 -125 0
-13 -85 -133 0
-13 -93 -101 0
-13 -93 -109 0
-13 -93 -117 0
-13 -93 -125 0
-13 -93 -133 0
-13 -101 -109 0
-13 -101 -117 0
-13 -101 -125 0
-13 -101 -133 0
-13 -109 -117 0
-13 -109 -125 0
-13 -109 -133 0
-13 -117 -125 0
-13 -117 -133 0
-13 -125 -133 0
-21 -29 -37 0
-21 -29 -45 0
-21 -29 -53 0
-21 -29 -61 0
-21 -29 -69 0
-21 -29 -77 0
-21 -29 -85 0
-21 -29 -93 0
-21 -29 -101 0
-21 -29 -109 0
-21 -29 -117 0
-21 -29 -125 0
-21 -29 -133 0
-21 -37 -45 0
-21 -37 -53 0
-21 -37 -61 0
-21 -37 -69 0
-21 -37 -77 0
-21 -37 -85 0
-21 -37 -93 0
-21 -37 -101 0
-21 -37 -109 0
-21 -37 -117 0
-21 -37 -125 0
-21 -37 -133 0
-21 -45 -53 0
-21 -45 -61 0
-21 -45 -69 0
-21 -45 -77 0
-21 -45 -85 0
-21 -45 -93 0
-21 -45 -101 0
-21 -45 -109 0
-21 -45 -117 0
-21 -45 -125 0
-21 -45 -133 0
-21 -53 -61 0
-21 -53 -69 0
-21 -53 -77 0
-21 -53 -85 0
-21 -53 -93 0
-21 -53 -101 0
-21 -53 -109 0
-21 -53 -117 0
-21 -53 -125 0
-21 -53 -133 0
-21 -61 -69 0
-21 -61 -77 0
-21 -61 -85 0
-21 -61 -93 0
-21 -61 -101 0
-21 -61 -109 0
-21 -61 -117 0
-21 -61 -125 0
-21 -61 -133 0
-21 -69 -77 0
-21 -69 -85 0
-21 -69 -93 0
-21 -69 -101 0
-21 -69 -109 0
-21 -69 -117 0
-21 -69 -125 0
-21 -69 -133 0
-21 -77 -85 0
-21 -77 -93 0
-21 -77 -101 0
-21 -77 -109 0
-21 -77 -117 0
-21 -77 -125 0
-21 -77 -133 0
-21 -85 -93 0
-21 -85 -101 0
-21 -85 -109 0
-21 -85 -117 0
-21 -85 -125 0
-21 -85 -133 0
-21 -93 -101 0
-21 -93 -109 0
-21 -93 -117 0
-21 -93 -125 0
-21 -93 -133 0
-21 -101 -109 0
-21 -101 -117 0
-21 -101 -125 0
-21 -101 -133 0
-21 -109 -117 0
-21 -109 -125 0
-21 -109 -133 0
-21 -117 -125 0
-21 -117 -133 0
-21 -125 -133 0
-29 -37 -45 0
-29 -37 -53 0
-29 -37 -61 0
-29 -37 -69 0
-29 -37 -77 0
-29 -37 -85 0
-29 -37 -93 0
-29 -37 -101 0
-29 -37 -109 0
-29 -37 -117 0
-29 -37 -125 0
-29 -37 -133 0
-29 -45 -53 0
-29 -45 -61 0
-29 -45 -69 0
-29 -45 -77 0
-29 -45 -85 0
-29 -45 -93 0
-29 -45 -101 0
-29 -45 -109 0
-29 -45 -117 0
-29 -45 -125 0
-29 -45 -133 0
-29 -53 -61 0
-29 -53 -69 0
-29 -53 -77 0
-29 -53 -85 0
-29 -53 -93 0
-29 -53 -101 0
-29 -53 -109 0
-29 -53 -117 0
-29 -53 -125 0
-29 -53 -133 0
-29 -61 -69 0
-29 -61 -77 0
-29 -61 -85 0
-29 -61 -93 0
-29 -61 -101 0
-29 -61 -109 0
-29 -61 -117 0
-29 -61 -125 0
-29 -61 -133 0
-29 -69 -77 0
-29 -69 -85 0
-29 -69 -93 0
-29 -69 -101 0
-29 -69 -109 0
-29 -69 -117 0
-29 -69 -125 0
-29 -69 -133 0
-29 -77 -85 0
-29 -77 -93 0
-29 -77 -101 0
-29 -77 -109 0
-29 -77 -117 0
-29 -77 -125 0
-29 -77 -133 0
-29 -85 -93 0
-29 -85 -101 0
-29 -85 -109 0
-29 -85 -117 0
-29 -85 -125 0
-29 -85 -133 0
-29 -93 -101 0
-29 -93 -109 0
-29 -93 -117 0
-29 -93 -125 0
-29 -93 -133 0
-29 -101 -109 0
-29 -101 -117 0
-29 -101 -125 0
-29 -101 -133 0
-29 -109 -117 0
-29 -109 -125 0
-29 -109 -133 0
-29 -117 -125 0
-29 -117 -133 0
-29 -125 -133 0
-37 -45 -53 0
-37 -45 -61 0
-37 -45 -69 0
-37 -45 -77 0
-37 -45 -85 0
-37 -45 -93 0
-37 -45 -101 0
-37 -45 -109 0
-37 -45 -117 0
-37 -45 -125 0
-37 -45 -133 0
-37 -53 -61 0
-37 -53 -69 0
-37 -53 -77 0
-37 -53 -85 0
-37 -53 -93 0
-37 -53 -101 0
-37 -53 -109 0
-37 -53 -117 0
-37 -53 -125 0
-37 -53 -133 0
-37 -61 -69 0
-37 -61 -77 0
-37 -61 -85 0
-37 -61 -93 0
-37 -61 -101 0
-37 -61 -109 0
-37 -61 -117 0
-37 -61 -125 0
-37 -61 -133 0
-37 -69 -77 0
-37 -69 -85 0
-37 -69 -93 0
-37 -69 -101 0
-37 -69 -109 0
-37 -69 -117 0
-37 -69 -125 0
-37 -69 -133 0
-37 -77 -85 0
-37 -77 -93 0
-37 -77 -101 0
-37 -77 -109 0
-37 -77 -117 0
-37 -77 -125 0
-37 -77 -133 0
-37 -85 -93 0
-37 -85 -101 0
-37 -85 -109 0
-37 -85 -117 0
-37 -85 -125 0
-37 -85 -133 0
-37 -93 -101 0
-37 -93 -109 0
-37 -93 -117 0
-37 -93 -125 0
-37 -93 -133 0
-37 -101 -109 0
-37 -101 -117 0
-37 -101 -125 0
-37 -101 -133 0
-37 -109 -117 0
-37 -109 -125 0
-37 -109 -133 0
-37 -117 -125 0
-37 -117 -133 0
-37 -125 -133 0
-45 -53 -61 0
-45 -53 -69 0
-45 -53 -77 0
-45 -53 -85 0
-45 -53 -93 0
-45 -53 -101 0
-45 -53 -109 0
-45 -53 -117 0
-45 -53 -125 0
-45 -53 -133 0
-45 -61 -69 0
-45 -61 -77 0
-45 -61 -85 0
-45 -61 -93 0
-45 -61 -101 0
-45 -61 -109 0
-45 -61 -117 0
-45 -61 -125 0
-45 -61 -133 0
-45 -69 -77 0
-45 -69 -85 0
-45 -69 -93 0
-45 -69 -101 0
-45 -69 -109 0
-45 -69 -117 0
-45 -69 -125 0
-45 -69 -133 0
-45 -77 -85 0
-45 -77 -93 0
-45 -77 -101 0
-45 -77 -109 0
-45 -77 -117 0
-45 -77 -125 0
-45 -77 -133 0
-45 -85 -93 0
-45 -85 -101 0
-45 -85 -109 0
-45 -85 -117 0
-45 -85 -125 0
-45 -85 -133 0
-45 -93 -101 0
-45 -93 -109 0
-45 -93 -117 0
-45 -93 -125 0
-45 -93 -133 0
-45 -101 -109 0
-45 -101 -117 0
-45 -101 -125 0
-45 -101 -133 0
-45 -109 -117 0
-45 -109 -125 0
-45 -109 -133 0
-45 -117 -125 0
-45 -117 -133 0
-45 -125 -133 0
-53 -61 -69 0
-53 -61 -77 0
-53 -61 -85 0
-53 -61 -93 0
-53 -61 -101 0
-53 -61 -109 0
-53 -61 -117 0
-53 -61 -125 0
-53 -61 -133 0
-53 -69 -77 0
-53 -69 -85 0
-53 -69 -93 0
-53 -69 -101 0
-53 -69 -109 0
-53 -69 -117 0
-53 -69 -125 0
-53 -69 -133 0
-53 -77 -85 0
-53 -77 -93 0
-53 -77 -101 0
-53 -77 -109 0
-53 -77 -117 0
-53 -77 -125 0
-53 -77 -133 0
-53 -85 -93 0
-53 -85 -101 0
-53 -85 -109 0
-53 -85 -117 0
-53 -85 -125 0
-53 -85 -133 0
-53 -93 -101 0
-53 -93 -109 0
-53 -93 -117 0
-53 -93 -125 0
-53 -93 -133 0
-53 -101 -109 0
-53 -101 -117 0
-53 -101 -125 0
-53 -101 -133 0
-53 -109 -117 0
-53 -109 -125 0
-53 -109 -133 0
-53 -117 -125 0
-53 -117 -133 0
-53 -125 -133 0
-61 -69 -77 0
-61 -69 -85 0
-61 -69 -93 0
-61 -69 -101 0
-61 -69 -109 0
-61 -69 -117 0
-61 -69 -125 0
-61 -69 -133 0
-61 -77 -85 0
-61 -77 -93 0
-61 -77 -101 0
-61 -77 -109 0
-61 -77 -117 0
-61 -77 -125 0
-61 -77 -133 0
-61 -85 -93 0
-61 -85 -101 0
-61 -85 -109 0
-61 -85 -117 0
-61 -85 -125 0
-61 -85 -133 0
-61 -93 -101 0
-61 -93 -109 0
-61 -93 -117 0
-61 -93 -125 0
-61 -93 -133 0
-61 -101 -109 0
-61 -101 -117 0
-61 -101 -125 0
-61 -101 -133 0
-61 -109 -117 0
-61 -109 -125 0
-61 -109 -133 0
-61 -117 -125 0
-61 -117 -133 0
-61 -125 -133 0
-69 -77 -85 0
-69 -77 -93 0
-69 -77 -101 0
-69 -77 -109 0
-69 -77 -117 0
-69 -77 -125 0
-69 -77 -133 0
-69 -85 -93 0
-69 -85 -101 0
-69 -85 -109 0
-69 -85 -117 0
-69 -85 -125 0
-69 -85 -133 0
-69 -93 -101 0
-69 -93 -109 0
-69 -93 -117 0
-69 -93 -125 0
-69 -93 -133 0
-69 -101 -109 0
-69 -101 -117 0
-69 -101 -125 0
-69 -101 -133 0
-69 -109 -117 0
-69 -109 -125 0
-69 -109 -133 0
-69 -117 -125 0
-69 -117 -133 0
-69 -125 -133 0
-77 -85 -93 0
-77 -85 -101 0
-77 -85 -109 0
-77 -85 -117 0
-77 -85 -125 0
-77 -85 -133 0
-77 -93 -101 0
-77 -93 -109 0
-77 -93 -117 0
-77 -93 -125 0
-77 -93 -133 0
-77 -101 -109 0
-77 -101 -117 0
-77 -101 -125 0
-77 -101 -133 0
-77 -109 -117 0
-77 -109 -125 0
-77 -109 -133 0
-77 -117 -125 0
-77 -117 -133 0
-77 -125 -133 0
-85 -93 -101 0
-85 -93 -109 0
-85 -93 -117 0
-85 -93 -125 0
-85 -93 -133 0
-85 -101 -109 0
-85 -101 -117 0
-85 -101 -125 0
-85 -101 -133 0
-85 -109 -117 0
-85 -109 -125 0
-85 -109 -133 0
-85 -117 -125 0
-85 -117 -133 0
-85 -125 -133 0
-93 -101 -109 0
-93 -101 -117 0
-93 -101 -125 0
-93 -101 -133 0
-93 -109 -117 0
-93 -109 -125 0
-93 -109 -133 0
-93 -117 -125 0
-93 -117 -133 0
-93 -125 -133 0
-101 -109 -117 0
-101 -109 -125 0
-101 -109 -133 0
-101 -117 -125 0
-101 -117 -133 0
-101 -125 -133 0
-109 -117 -125 0
-109 -117 -133 0
-109 -125 -133 0
-117 -125 -133 0
-6 -14 -22 0
-6 -14 -30 0
-6 -14 -38 0
-6 -14 -46 0
-6 -14 -54 0
-6 -14 -62 0
-6 -14 -70 0
-6 -14 -78 0
-6 -14 -86 0
-6 -14 -94 0
-6 -14 -102 0
-6 -14 -110 0
-6 -14 -118 0
-6 -14 -126 0
-6 -14 -134 0
-6 -22 -30 0
-6 -22 -38 0
-6 -22 -46 0
-6 -22 -54 0
-6 -22 -62 0
-6 -22 -70 0
-6 -22 -78 0
-6 -22 -86 0
-6 -22 -94 0
-6 -22 -102 0
-6 -22 -110 0
-6 -22 -118 0
-6 -22 -126 0
-6 -22 -134 0
-6 -30 -38 0
-6 -30 -46 0
-6 -30 -54 0
-6 -30 -62 0
-6 -30 -70 0
-6 -30 -78 0
-6 -30 -86 0
-6 -30 -94 0
-6 -30 -102 0
-6 -30 -110 0
-6 -30 -118 0
-6 -30 -126 0
-6 -30 -134 0
-6 -38 -46 0
-6 -38 -54 0
-6 -38 -62 0
-6 -38 -70 0
-6 -38 -78 0
-6 -38 -86 0
-6 -38 -94 0
-6 -38 -102 0
-6 -38 -110 0
-6 -38 -118 0
-6 -38 -126 0
-6 -38 -134 0
-6 -46 -54 0
-6 -46 -62 0
-6 -46 -70 0
-6 -46 -78 0
-6 -46 -86 0
-6 -46 -94 0
-6 -46 -102 0
-6 -46 -110 0
-6 -46 -118 0
-6 -46 -126 0
-6 -46 -134 0
-6 -54 -62 0
-6 -54 -70 0
-6 -54 -78 0
-6 -54 -86 0
-6 -54 -94 0
-6 -54 -102 0
-6 -54 -110 0
-6 -54 -118 0
-6 -54 -126 0
-6 -54 -134 0
-6 -62 -70 0
-6 -62 -78 0
-6 -62 -86 0
-6 -62 -94 0
-6 -62 -102 0
-6 -62 -110 0
-6 -62 -118 0
-6 -62 -126 0
-6 -62 -134 0
-6 -70 -78 0
-6 -70 -86 0
-6 -70 -94 0
-6 -70 -102 0
-6 -70 -110 0
-6 -70 -118 0
-6 -70 -126 0
-6 -70 -134 0
-6 -78 -86 0
-6 -78 -94 0
-6 -78 -102 0
-6 -78 -110 0
-6 -78 -118 0
-6 -78 -126 0
-6 -78 -134 0
-6 -86 -94 0
-6 -86 -102 0
-6 -86 -110 0
-6 -86 -118 0
-6 -86 -126 0
-6 -86 -134 0
-6 -94 -102 0
-6 -94 -110 0
-6 -94 -118 0
-6 -94 -126 0
-6 -94 -134 0
-6 -102 -110 0
-6 -102 -118 0
-6 -102 -126 0
-6 -102 -134 0
-6 -110 -118 0
-6 -110 -126 0
-6 -110 -134 0
-6 -118 -126 0
-6 -118 -134 0
-6 -126 -134 0
-14 -22 -30 0
-14 -22 -38 0
-14 -22 -46 0
-14 -22 -54 0
-14 -22 -62 0
-14 -22 -70 0
-14 -22 -78 0
-14 -22 -86 0
-14 -22 -94 0
-14 -22 -102 0
-14 -22 -110 0
-14 -22 -118 0
-14 -22 -126 0
-14 -22 -134 0
-14 -30 -38 0
-14 -30 -46 0
-14 -30 -54 0
-14 -30 -62 0
-14 -30 -70 0
-14 -30 -78 0
-14 -30 -86 0
-14 -30 -94 0
-14 -30 -102 0
-14 -30 -110 0
-14 -30 -118 0
-14 -30 -126 0
-14 -30 -134 0
-14 -38 -46 0
-14 -38 -54 0
-14 -38 -62 0
-14 -38 -70 0
-14 -38 -78 0
-14 -38 -86 0
-14 -38 -94 0
-14 -38 -102 0
-14 -38 -110 0
-14 -38 -118 0
-14 -38 -126 0
-14 -38 -134 0
-14 -46 -54 0
-14 -46 -62 0
-14 -46 -70 0
-14 -46 -78 0
-14 -46 -86 0
-14 -46 -94 0
-14 -46 -102 0
-14 -46 -110 0
-14 -46 -118 0
-14 -46 -126 0
-14 -46 -134 0
-14 -54 -62 0
-14 -54 -70 0
-14 -54 -78 0
-14 -54 -86 0
-14 -54 -94 0
-14 -54 -102 0
-14 -54 -110 0
-14 -54 -118 0
-14 -54 -126 0
-14 -54 -134 0
-14 -62 -70 0
-14 -62 -78 0
-14 -62 -86 0
-14 -62 -94 0
-14 -62 -102 0
-14 -62 -110 0
-14 -62 -118 0
-14 -62 -126 0
-14 -62 -134 0
-14 -70 -78 0
-14 -70 -86 0
-14 -70 -94 0
-14 -70 -102 0
-14 -70 -110 0
-14 -70 -118 0
-14 -70 -126 0
-14 -70 -134 0
-14 -78 -86 0
-14 -78 -94 0
-14 -78 -102 0
-14 -78 -110 0
-14 -78 -118 0
-14 -78 -126 0
-14 -78 -134 0
-14 -86 -94 0
-14 -86 -102 0
-14 -86 -110 0
-14 -86 -118 0
-14 -86 -126 0
-14 -86 -134 0
-14 -94 -102 0
-14 -94 -110 0
-14 -94 -118 0
-14 -94 -126 0
-14 -94 -134 0
-14 -102 -110 0
-14 -102 -118 0
-14 -102 -126 0
-14 -102 -134 0
-14 -110 -118 0
-14 -110 -126 0
-14 -110 -134 0
-14 -118 -126 0
-14 -118 -134 0
-14 -126 -134 0
-22 -30 -38 0
-22 -30 -46 0
-22 -30 -54 0
-22 -30 -62 0
-22 -30 -70 0
-22 -30 -78 0
-22 -30 -86 0
-22 -30 -94 0
-22 -30 -102 0
-22 -30 -110 0
-22 -30 -118 0
-22 -30 -126 0
-22 -30 -134 0
-22 -38 -46 0
-22 -38 -54 0
-22 -38 -62 0
-22 -38 -70 0
-22 -38 -78 0
-22 -38 -86 0
-22 -38 -94 0
-22 -38 -102 0
-22 -38 -110 0
-22 -38 -118 0
-22 -38 -126 0
-22 -38 -134 0
-22 -46 -54 0
-22 -46 -62 0
-22 -46 -70 0
-22 -46 -78 0
-22 -46 -86 0
-22 -46 -94 0
-22 -46 -102 0
-22 -46 -110 0
-22 -46 -118 0
-22 -46 -126 0
-22 -46 -134 0
-22 -54 -62 0
-22 -54 -70 0
-22 -54 -78 0
-22 -54 -86 0
-22 -54 -94 0
-22 -54 -102 0
-22 -54 -110 0
-22 -54 -118 0
-22 -54 -126 0
-22 -54 -134 0
-22 -62 -70 0
-22 -62 -78 0
-22 -62 -86 0
-22 -62 -94 0
-22 -62 -102 0
-22 -62 -110 0
-22 -62 -118 0
-22 -62 -126 0
-22 -62 -134 0
-22 -70 -78 0
-22 -70 -86 0
-22 -70 -94 0
-22 -70 -102 0
-22 -70 -110 0
-22 -70 -118 0
-22 -70 -126 0
-22 -70 -134 0
-22 -78 -86 0
-22 -78 -94 0
-22 -78 -102 0
-22 -78 -110 0
-22 -78 -118 0
-22 -78 -126 0
-22 -78 -134 0
-22 -86 -94 0
-22 -86 -102 0
-22 -86 -110 0
-22 -86 -118 0
-22 -86 -126 0
-22 -86 -134 0
-22 -94 -102 0
-22 -94 -110 0
-22 -94 -118 0
-22 -94 -126 0
-22 -94 -134 0
-22 -102 -110 0
-22 -102 -118 0
-22 -102 -126 0
-22 -102 -134 0
-22 -110 -118 0
-22 -110 -126 0
-22 -110 -134 0
-22 -118 -126 0
-22 -118 -134 0
-22 -126 -134 0
-30 -38 -46 0
-30 -38 -54 0
-30 -38 -62 0
-30 -38 -70 0
-30 -38 -78 0
-30 -38 -86 0
-30 -38 -94 0
-30 -38 -102 0
-30 -38 -110 0
-30 -38 -118 0
-30 -38 -126 0
-30 -38 -134 0
-30 -46 -54 0
-30 -46 -62 0
-30 -46 -70 0
-30 -46 -78 0
-30 -46 -86 0
-30 -46 -94 0
-30 -46 -102 0
-30 -46 -110 0
-30 -46 -118 0
-30 -46 -126 0
-30 -46 -134 0
-30 -54 -62 0
-30 -54 -70 0
-30 -54 -78 0
-30 -54 -86 0
-30 -54 -94 0
-30 -54 -102 0
-30 -54 -110 0
-30 -54 -118 0
-30 -54 -126 0
-30 -54 -134 0
-30 -62 -70 0
-30 -62 -78 0
-30 -62 -86 0
-30 -62 -94 0
-30 -62 -102 0
-30 -62 -110 0
-30 -62 -118 0
-30 -62 -126 0
-30 -62 -134 0
-30 -70 -78 0
-30 -70 -86 0
-30 -70 -94 0
-30 -70 -102 0
-30 -70 -110 0
-30 -70 -118 0
-30 -70 -126 0
-30 -70 -134 0
-30 -78 -86 0
-30 -78 -94 0
-30 -78 -102 0
-30 -78 -110 0
-30 -78 -118 0
-30 -78 -126 0
-30 -78 -134 0
-30 -86 -94 0
-30 -86 -102 0
-30 -86 -110 0
-30 -86 -118 0
-30 -86 -126 0
-30 -86 -134 0
-30 -94 -102 0
-30 -94 -110 0
-30 -94 -118 0
-30 -94 -126 0
-30 -94 -134 0
-30 -102 -110 0
-30 -102 -118 0
-30 -102 -126 0
-30 -102 -134 0
-30 -110 -118 0
-30 -110 -126 0
-30 -110 -134 0
-30 -118 -126 0
-30 -118 -134 0
-30 -126 -134 0
-38 -46 -54 0
-38 -46 -62 0
-38 -46 -70 0
-38 -46 -78 0
-38 -46 -86 0
-38 -46 -94 0
-38 -46 -102 0
-38 -46 -110 0
-38 -46 -118 0
-38 -46 -126 0
-38 -46 -134 0
-38 -54 -62 0
-38 -54 -70 0
-38 -54 -78 0
-38 -54 -86 0
-38 -54 -94 0
-38 -54 -102 0
-38 -54 -110 0
-38 -54 -118 0
-38 -54 -126 0
-38 -54 -134 0
-38 -62 -70 0
-38 -62 -78 0
-38 -62 -86 0
-38 -62 -94 0
-38 -62 -102 0
-38 -62 -110 0
-38 -62 -118 0
-38 -62 -126 0
-38 -62 -134 0
-38 -70 -78 0
-38 -70 -86 0
-38 -70 -94 0
-38 -70 -102 0
-38 -70 -110 0
-38 -70 -118 0
-38 -70 -126 0
-38 -70 -134 0
-38 -78 -86 0
-38 -78 -94 0
-38 -78 -102 0
-38 -78 -110 0
-38 -78 -118 0
-38 -78 -126 0
-38 -78 -134 0
-38 -86 -94 0
-38 -86 -102 0
-38 -86 -110 0
-38 -86 -118 0
-38 -86 -126 0
-38 -86 -134 0
-38 -94 -102 0
-38 -94 -110 0
-38 -94 -118 0
-38 -94 -126 0
-38 -94 -134 0
-38 -102 -110 0
-38 -102 -118 0
-38 -102 -126 0
-38 -102 -134 0
-38 -110 -118 0
-38 -110 -126 0
-38 -110 -134 0
-38 -118 -126 0
-38 -118 -134 0
-38 -126 -134 0
-46 -54 -62 0
-46 -54 -70 0
-46 -54 -78 0
-46 -54 -86 0
-46 -54 -94 0
-46 -54 -102 0
-46 -54 -110 0
-46 -54 -118 0
-46 -54 -126 0
-46 -54 -134 0
-46 -62 -70 0
-46 -62 -78 0
-46 -62 -86 0
-46 -62 -94 0
-46 -62 -102 0
-46 -62 -110 0
-46 -62 -118 0
-46 -62 -126 0
-46 -62 -134 0
-46 -70 -78 0
-46 -70 -86 0
-46 -70 -94 0
-46 -70 -102 0
-46 -70 -110 0
-46 -70 -118 0
-46 -70 -126 0
-46 -70 -134 0
-46 -78 -86 0
-46 -78 -94 0
-46 -78 -102 0
-46 -78 -110 0
-46 -78 -118 0
-46 -78 -126 0
-46 -78 -134 0
-46 -86 -94 0
-46 -86 -102 0
-46 -86 -110 0
-46 -86 -118 0
-46 -86 -126 0
-46 -86 -134 0
-46 -94 -102 0
-46 -94 -110 0
-46 -94 -118 0
-46 -94 -126 0
-46 -94 -134 0
-46 -102 -110 0
-46 -102 -118 0
-46 -102 -126 0
-46 -102 -134 0
-46 -110 -118 0
-46 -110 -126 0
-46 -110 -134 0
-46 -118 -126 0
-46 -118 -134 0
-46 -126 -134 0
-54 -62 -70 0
-54 -62 -78 0
-54 -62 -86 0
-54 -62 -94 0
-54 -62 -102 0
-54 -62 -110 0
-54 -62 -118 0
-54 -62 -126 0
-54 -62 -134 0
-54 -70 -78 0
-54 -70 -86 0
-54 -70 -94 0
-54 -70 -102 0
-54 -70 -110 0
-54 -70 -118 0
-54 -70 -126 0
-54 -70 -134 0
-54 -78 -86 0
-54 -78 -94 0
-54 -78 -102 0
-54 -78 -110 0
-54 -78 -118 0
-54 -78 -126 0
-54 -78 -134 0
-54 -86 -94 0
-54 -86 -102 0
-54 -86 -110 0
-54 -86 -118 0
-54 -86 -126 0
-54 -86 -134 0
-54 -94 -102 0
-54 -94 -110 0
-54 -94 -118 0
-54 -94 -126 0
-54 -94 -134 0
-54 -102 -110 0
-54 -102 -118 0
-54 -102 -126 0
-54 -102 -134 0
-54 -110 -118 0
-54 -110 -126 0
-54 -110 -134 0
-54 -118 -126 0
-54 -118 -134 0
-54 -126 -134 0
-62 -70 -78 0
-62 -70 -86 0
-62 -70 -94 0
-62 -70 -102 0
-62 -70 -110 0
-62 -70 -118 0
-62 -70 -126 0
-62 -70 -134 0
-62 -78 -86 0
-62 -78 -94 0
-62 -78 -102 0
-62 -78 -110 0
-62 -78 -118 0
-62 -78 -126 0
-62 -78 -134 0
-62 -86 -94 0
-62 -86 -102 0
-62 -86 -110 0
-62 -86 -118 0
-62 -86 -126 0
-62 -86 -134 0
-62 -94 -102 0
-62 -94 -110 0
-62 -94 -118 0
-62 -94 -126 0
-62 -94 -134 0
-62 -102 -110 0
-62 -102 -118 0
-62 -102 -126 0
-62 -102 -134 0
-62 -110 -118 0
-62 -110 -126 0
-62 -110 -134 0
-62 -118 -126 0
-62 -118 -134 0
-62 -126 -134 0
-70 -78 -86 0
-70 -78 -94 0
-70 -78 -102 0
-70 -78 -110 0
-70 -78 -118 0
-70 -78 -126 0
-70 -78 -134 0
-70 -86 -94 0
-70 -86 -102 0
-70 -86 -110 0
-70 -86 -118 0
-70 -86 -126 0
-70 -86 -134 0
-70 -94 -102 0
-70 -94 -110 0
-70 -94 -118 0
-70 -94 -126 0
-70 -94 -134 0
-70 -102 -110 0
-70 -102 -118 0
-70 -102 -126 0
-70 -102 -134 0
-70 -110 -118 0
-70 -110 -126 0
-70 -110 -134 0
-70 -118 -126 0
-70 -118 -134 0
-70 -126 -134 0
-78 -86 -94 0
-78 -86 -102 0
-78 -86 -110 0
-78 -86 -118 0
-78 -86 -126 0
-78 -86 -134 0
-78 -94 -102 0
-78 -94 -110 0
-78 -94 -118 0
-78 -94 -126 0
-78 -94 -134 0
-78 -102 -110 0
-78 -102 -118 0
-78 -102 -126 0
-78 -102 -134 0
-78 -110 -118 0
-78 -110 -126 0
-78 -110 -134 0
-78 -118 -126 0
-78 -118 -134 0
-78 -126 -134 0
-86 -94 -102 0
-86 -94 -110 0
-86 -94 -118 0
-86 -94 -126 0
-86 -94 -134 0
-86 -102 -110 0
-86 -102 -118 0
-86 -102 -126 0
-86 -102 -134 0
-86 -110 -118 0
-86 -110 -126 0
-86 -110 -134 0
-86 -118 -126 0
-86 -118 -134 0
-86 -126 -134 0
-94 -102 -110 0
-94 -102 -118 0
-94 -102 -126 0
-94 -102 -134 0
-94 -110 -118 0
-94 -110 -126 0
-94 -110 -134 0
-94 -118 -126 0
-94 -118 -134 0
-94 -126 -134 0
-102 -110 -118 0
-102 -110 -126 0
-102 -110 -134 0
-102 -118 -126 0
-102 -118 -134 0
-102 -126 -134 0
-110 -118 -126 0
-110 -118 -134 0
-110 -126 -134 0
-118 -126 -134 0
-7 -15 -23 0
-7 -15 -31 0
-7 -15 -39 0
-7 -15 -47 0
-7 -15 -55 0
-7 -15 -63 0
-7 -15 -71 0
-7 -15 -79 0
-7 -15 -87 0
-7 -15 -95 0
-7 -15 -103 0
-7 -15 -111 0
-7 -15 -119 0
-7 -15 -127 0
-7 -15 -135 0
-7 -23 -31 0
-7 -23 -39 0
-7 -23 -47 0
-7 -23 -55 0
-7 -23 -63 0
-7 -23 -71 0
-7 -23 -79 0
-7 -23 -87 0
-7 -23 -95 0
-7 -23 -103 0
-7 -23 -111 0
-7 -23 -119 0
-7 -23 -127 0
-7 -23 -135 0
-7 -31 -39 0
-7 -31 -47 0
-7 -31 -55 0
-7 -31 -63 0
-7 -31 -71 0
-7 -31 -79 0
-7 -31 -87 0
-7 -31 -95 0
-7 -31 -103 0
-7 -31 -111 0
-7 -31 -119 0
-7 -31 -127 0
-7 -31 -135 0
-7 -39 -47 0
-7 -39 -55 0
-7 -39 -63 0
-7 -39 -71 0
-7 -39 -79 0
-7 -39 -87 0
-7 -39 -95 0
-7 -39 -103 0
-7 -39 -111 0
-7 -39 -119 0
-7 -39 -127 0
-7 -39 -135 0
-7 -47 -55 0
-7 -47 -63 0
-7 -47 -71 0
-7 -47 -79 0
-7 -47 -87 0
-7 -47 -95 0
-7 -47 -103 0
-7 -47 -111 0
-7 -47 -119 0
-7 -47 -127 0
-7 -47 -135 0
-7 -55 -63 0
-7 -55 -71 0
-7 -55 -79 0
-7 -55 -87 0
-7 -55 -95 0
-7 -55 -103 0
-7 -55 -111 0
-7 -55 -119 0
-7 -55 -127 0
-7 -55 -135 0
-7 -63 -71 0
-7 -63 -79 0
-7 -63 -87 0
-7 -63 -95 0
-7 -63 -103 0
-7 -63 -111 0
-7 -63 -119 0
-7 -63 -127 0
-7 -63 -135 0
-7 -71 -79 0
-7 -71 -87 0
-7 -71 -95 0
-7 -71 -103 0
-7 -71 -111 0
-7 -71 -119 0
-7 -71 -127 0
-7 -71 -135 0
-7 -79 -87 0
-7 -79 -95 0
-7 -79 -103 0
-7 -79 -111 0
-7 -79 -119 0
-7 -79 -127 0
-7 -79 -135 0
-7 -87 -95 0
-7 -87 -103 0
-7 -87 -111 0
-7 -87 -119 0
-7 -87 -127 0
-7 -87 -135 0
-7 -95 -103 0
-7 -95 -111 0
-7 -95 -119 0
-7 -95 -127 0
-7 -95 -135 0
-7 -103 -111 0
-7 -103 -119 0
-7 -103 -127 0
-7 -103 -135 0
-7 -111 -119 0
-7 -111 -127 0
-7 -111 -135 0
-7 -119 -127 0
-7 -119 -135 0
-7 -127 -135 0
-15 -23 -31 0
-15 -23 -39 0
-15 -23 -47 0
-15 -23 -55 0
-15 -23 -63 0
-15 -23 -71 0
-15 -23 -79 0
-15 -23 -87 0
-15 -23 -95 0
-15 -23 -103 0
-15 -23 -111 0
-15 -23 -119 0
-15 -23 -127 0
-15 -23 -135 0
-15 -31 -39 0
-15 -31 -47 0
-15 -31 -55 0
-15 -31 -63 0
-15 -31 -71 0
-15 -31 -79 0
-15 -31 -87 0
-15 -31 -95 0
-15 -31 -103 0
-15 -31 -111 0
-15 -31 -119 0
-15 -31 -127 0
-15 -31 -135 0
-15 -39 -47 0
-15 -39 -55 0
-15 -39 -63 0
-15 -39 -71 0
-15 -39 -79 0
-15 -39 -87 0
-15 -39 -95 0
-15 -39 -103 0
-15 -39 -111 0
-15 -39 -119 0
-15 -39 -127 0
-15 -39 -135 0
-15 -47 -55 0
-15 -47 -63 0
-15 -47 -71 0
-15 -47 -79 0
-15 -47 -87 0
-15 -47 -95 0
-15 -47 -103 0
-15 -47 -111 0
-15 -47 -119 0
-15 -47 -127 0
-15 -47 -135 0
-15 -55 -63 0
-15 -55 -71 0
-15 -55 -79 0
-15 -55 -87 0
-15 -55 -95 0
-15 -55 -103 0
-15 -55 -111 0
-15 -55 -119 0
-15 -55 -127 0
-15 -55 -135 0
-15 -63 -71 0
-15 -63 -79 0
-15 -63 -87 0
-15 -63 -95 0
-15 -63 -103 0
-15 -63 -111 0
-15 -63 -119 0
-15 -63 -127 0
-15 -63 -135 0
-15 -71 -79 0
-15 -71 -87 0
-15 -71 -95 0
-15 -71 -103 0
-15 -71 -111 0
-15 -71 -119 0
-15 -71 -127 0
-15 -71 -135 0
-15 -79 -87 0
-15 -79 -95 0
-15 -79 -103 0
-15 -79 -111 0
-15 -79 -119 0
-15 -79 -127 0
-15 -79 -135 0
-15 -87 -95 0
-15 -87 -103 0
-15 -87 -111 0
-15 -87 -119 0
-15 -87 -127 0
-15 -87 -135 0
-15 -95 -103 0
-15 -95 -111 0
-15 -95 -119 0
-15 -95 -127 0
-15 -95 -135 0
-15 -103 -111 0
-15 -103 -119 0
-15 -103 -127 0
-15 -103 -135 0
-15 -111 -119 0
-15 -111 -127 0
-15 -111 -135 0
-15 -119 -127 0
-15 -119 -135 0
-15 -127 -135 0
-23 -31 -39 0
-23 -31 -47 0
-23 -31 -55 0
-23 -31 -63 0
-23 -31 -71 0
-23 -31 -79 0
-23 -31 -87 0
-23 -31 -95 0
-23 -31 -103 0
-23 -31 -111 0
-23 -31 -119 0
-23 -31 -127 0
-23 -31 -135 0
-23 -39 -47 0
-23 -39 -55 0
-23 -39 -63 0
-23 -39 -71 0
-23 -39 -79 0
-23 -39 -87 0
-23 -39 -95 0
-23 -39 -103 0
-23 -39 -111 0
-23 -39 -119 0
-23 -39 -127 0
-23 -39 -135 0
-23 -47 -55 0
-23 -47 -63 0
-23 -47 -71 0
-23 -47 -79 0
-23 -47 -87 0
-23 -47 -95 0
-23 -47 -103 0
-23 -47 -111 0
-23 -47 -119 0
-23 -47 -127 0
-23 -47 -135 0
-23 -55 -63 0
-23 -55 -71 0
-23 -55 -79 0
-23 -55 -87 0
-23 -55 -95 0
-23 -55 -103 0
-23 -55 -111 0
-23 -55 -119 0
-23 -55 -127 0
-23 -55 -135 0
-23 -63 -71 0
-23 -63 -79 0
-23 -63 -87 0
-23 -63 -95 0
-23 -63 -103 0
-23 -63 -111 0
-23 -63 -119 0
-23 -63 -127 0
-23 -63 -135 0
-23 -71 -79 0
-23 -71 -87 0
-23 -71 -95 0
-23 -71 -103 0
-23 -71 -111 0
-23 -71 -119 0
-23 -71 -127 0
-23 -71 -135 0
-23 -79 -87 0
-23 -79 -95 0
-23 -79 -103 0
-23 -79 -111 0
-23 -79 -119 0
-23 -79 -127 0
-23 -79 -135 0
-23 -87 -95 0
-23 -87 -103 0
-23 -87 -111 0
-23 -87 -119 0
-23 -87 -127 0
-23 -87 -135 0
-23 -95 -103 0
-23 -95 -111 0
-23 -95 -119 0
-23 -95 -127 0
-23 -95 -135 0
-23 -103 -111 0
-23 -103 -119 0
-23 -103 -127 0
-23 -103 -135 0
-23 -111 -119 0
-23 -111 -127 0
-23 -111 -135 0
-23 -119 -127 0
-23 -119 -135 0
-23 -127 -135 0
-31 -39 -47 0
-31 -39 -55 0
-31 -39 -63 0
-31 -39 -71 0
-31 -39 -79 0
-31 -39 -87 0
-31 -39 -95 0
-31 -39 -103 0
-31 -39 -111 0
-31 -39 -119 0
-31 -39 -127 0
-31 -39 -135 0
-31 -47 -55 0
-31 -47 -63 0
-31 -47 -71 0
-31 -47 -79 0
-31 -47 -87 0
-31 -47 -95 0
-31 -47 -103 0
-31 -47 -111 0
-31 -47 -119 0
-31 -47 -127 0
-31 -47 -135 0
-31 -55 -63 0
-31 -55 -71 0
-31 -55 -79 0
-31 -55 -87 0
-31 -55 -95 0
-31 -55 -103 0
-31 -55 -111 0
-31 -55 -119 0
-31 -55 -127 0
-31 -55 -135 0
-31 -63 -71 0
-31 -63 -79 0
-31 -63 -87 0
-31 -63 -95 0
-31 -63 -103 0
-31 -63 -111 0
-31 -63 -119 0
-31 -63 -127 0
-31 -63 -135 0
-31 -71 -79 0
-31 -71 -87 0
-31 -71 -95 0
-31 -71 -103 0
-31 -71 -111 0
-31 -71 -119 0
-31 -71 -127 0
-31 -71 -135 0
-31 -79 -87 0
-31 -79 -95 0
-31 -79 -103 0
-31 -79 -111 0
-31 -79 -119 0
-31 -79 -127 0
-31 -79 -135 0
-31 -87 -95 0
-31 -87 -103 0
-31 -87 -111 0
-31 -87 -119 0
-31 -87 -127 0
-31 -87 -135 0
-31 -95 -103 0
-31 -95 -111 0
-31 -95 -119 0
-31 -95 -127 0
-31 -95 -135 0
-31 -103 -111 0
-31 -103 -119 0
-31 -103 -127 0
-31 -103 -135 0
-31 -111 -119 0
-31 -111 -127 0
-31 -111 -135 0
-31 -119 -127 0
-31 -119 -135 0
-31 -127 -135 0
-39 -47 -55 0
-39 -47 -63 0
-39 -47 -71 0
-39 -47 -79 0
-39 -47 -87 0
-39 -47 -95 0
-39 -47 -103 0
-39 -47 -111 0
-39 -47 -119 0
-39 -47 -127 0
-39 -47 -135 0
-39 -55 -63 0
-39 -55 -71 0
-39 -55 -79 0
-39 -55 -87 0
-39 -55 -95 0
-39 -55 -103 0
-39 -55 -111 0
-39 -55 -119 0
-39 -55 -127 0
-39 -55 -135 0
-39 -63 -71 0
-39 -63 -79 0
-39 -63 -87 0
-39 -63 -95 0
-39 -63 -103 0
-39 -63 -111 0
-39 -63 -119 0
-39 -63 -127 0
-39 -63 -135 0
-39 -71 -79 0
-39 -71 -87 0
-39 -71 -95 0
-39 -71 -103 0
-39 -71 -111 0
-39 -71 -119 0
-39 -71 -127 0
-39 -71 -135 0
-39 -79 -87 0
-39 -79 -95 0
-39 -79 -103 0
-39 -79 -111 0
-39 -79 -119 0
-39 -79 -127 0
-39 -79 -135 0
-39 -87 -95 0
-39 -87 -103 0
-39 -87 -111 0
-39 -87 -119 0
-39 -87 -127 0
-39 -87 -135 0
-39 -95 -103 0
-39 -95 -111 0
-39 -95 -119 0
-39 -95 -127 0
-39 -95 -135 0
-39 -103 -111 0
-39 -103 -119 0
-39 -103 -127 0
-39 -103 -135 0
-39 -111 -119 0
-39 -111 -127 0
-39 -111 -135 0
-39 -119 -127 0
-39 -119 -135 0
-39 -127 -135 0
-47 -55 -63 0
-47 -55 -71 0
-47 -55 -79 0
-47 -55 -87 0
-47 -55 -95 0
-47 -55 -103 0
-47 -55 -111 0
-47 -55 -119 0
-47 -55 -127 0
-47 -55 -135 0
-47 -63 -71 0
-47 -63 -79 0
-47 -63 -87 0
-47 -63 -95 0
-47 -63 -103 0
-47 -63 -111 0
-47 -63 -119 0
-47 -63 -127 0
-47 -63 -135 0
-47 -71 -79 0
-47 -71 -87 0
-47 -71 -95 0
-47 -71 -103 0
-47 -71 -111 0
-47 -71 -119 0
-47 -71 -127 0
-47 -71 -135 0
-47 -79 -87 0
-47 -79 -95 0
-47 -79 -103 0
-47 -79 -111 0
-47 -79 -119 0
-47 -79 -127 0
-47 -79 -135 0
-47 -87 -95 0
-47 -87 -103 0
-47 -87 -111 0
-47 -87 -119 0
-47 -87 -127 0
-47 -87 -135 0
-47 -95 -103 0
-47 -95 -111 0
-47 -95 -119 0
-47 -95 -127 0
-47 -95 -135 0
-47 -103 -111 0
-47 -103 -119 0
-47 -103 -127 0
-47 -103 -135 0
-47 -111 -119 0
-47 -111 -127 0
-47 -111 -135 0
-47 -119 -127 0
-47 -119 -135 0
-47 -127 -135 0
-55 -63 -71 0
-55 -63 -79 0
-55 -63 -87 0
-55 -63 -95 0
-55 -63 -103 0
-55 -63 -111 0
-55 -63 -119 0
-55 -63 -127 0
-55 -63 -135 0
-55 -71 -79 0
-55 -71 -87 0
-55 -71 -95 0
-55 -71 -103 0
-55 -71 -111 0
-55 -71 -119 0
-55 -71 -127 0
-55 -71 -135 0
-55 -79 -87 0
-55 -79 -95 0
-55 -79 -103 0
-55 -79 -111 0
-55 -79 -119 0
-55 -79 -127 0
-55 -79 -135 0
-55 -87 -95 0
-55 -87 -103 0
-55 -87 -111 0
-55 -87 -119 0
-55 -87 -127 0
-55 -87 -135 0
-55 -95 -103 0
-55 -95 -111 0
-55 -95 -119 0
-55 -95 -127 0
-55 -95 -135 0
-55 -103 -111 0
-55 -103 -119 0
-55 -103 -127 0
-55 -103 -135 0
-55 -111 -119 0
-55 -111 -127 0
-55 -111 -135 0
-55 -119 -127 0
-55 -119 -135 0
-55 -127 -135 0
-63 -71 -79 0
-63 -71 -87 0
-63 -71 -95 0
-63 -71 -103 0
-63 -71 -111 0
-63 -71 -119 0
-63 -71 -127 0
-63 -71 -135 0
-63 -79 -87 0
-63 -79 -95 0
-63 -79 -103 0
-63 -79 -111 0
-63 -79 -119 0
-63 -79 -127 0
-63 -79 -135 0
-63 -87 -95 0
-63 -87 -103 0
-63 -87 -111 0
-63 -87 -119 0
-63 -87 -127 0
-63 -87 -135 0
-63 -95 -103 0
-63 -95 -111 0
-63 -95 -119 0
-63 -95 -127 0
-63 -95 -135 0
-63 -103 -111 0
-63 -103 -119 0
-63 -103 -127 0
-63 -103 -135 0
-63 -111 -119 0
-63 -111 -127 0
-63 -111 -135 0
-63 -119 -127 0
-63 -119 -135 0
-63 -127 -135 0
-71 -79 -87 0
-71 -79 -95 0
-71 -79 -103 0
-71 -79 -111 0
-71 -79 -119 0
-71 -79 -127 0
-71 -79 -135 0
-71 -87 -95 0
-71 -87 -103 0
-71 -87 -111 0
-71 -87 -119 0
-71 -87 -127 0
-71 -87 -135 0
-71 -95 -103 0
-71 -95 -111 0
-71 -95 -119 0
-71 -95 -127 0
-71 -95 -135 0
-71 -103 -111 0
-71 -103 -119 0
-71 -103 -127 0
-71 -103 -135 0
-71 -111 -119 0
-71 -111 -127 0
-71 -111 -135 0
-71 -119 -127 0
-71 -119 -135 0
-71 -127 -135 0
-79 -87 -95 0
-79 -87 -103 0
-79 -87 -111 0
-79 -87 -119 0
-79 -87 -127 0
-79 -87 -135 0
-79 -95 -103 0
-79 -95 -111 0
-79 -95 -119 0
-79 -95 -127 0
-79 -95 -135 0
-79 -103 -111 0
-79 -103 -119 0
-79 -103 -127 0
-79 -103 -135 0
-79 -111 -119 0
-79 -111 -127 0
-79 -111 -135 0
-79 -119 -127 0
-79 -119 -135 0
-79 -127 -135 0
-87 -95 -103 0
-87 -95 -111 0
-87 -95 -119 0
-87 -95 -127 0
-87 -95 -135 0
-87 -103 -111 0
-87 -103 -119 0
-87 -103 -127 0
-87 -103 -135 0
-87 -111 -119 0
-87 -111 -127 0
-87 -111 -135 0
-87 -119 -127 0
-87 -119 -135 0
-87 -127 -135 0
-95 -103 -111 0
-95 -103 -119 0
-95 -103 -127 0
-95 -103 -135 0
-95 -111 -119 0
-95 -111 -127 0
-95 -111 -135 0
-95 -119 -127 0
-95 -119 -135 0
-95 -127 -135 0
-103 -111 -119 0
-103 -111 -127 0
-103 -111 -135 0
-103 -119 -127 0
-103 -119 -135 0
-103 -127 -135 0
-111 -119 -127 0
-111 -119 -135 0
-111 -127 -135 0
-119 -127 -135 0
-8 -16 -24 0
-8 -16 -32 0
-8 -16 -40 0
-8 -16 -48 0
-8 -16 -56 0
-8 -16 -64 0
-8 -16 -72 0
-8 -16 -80 0
-8 -16 -88 0
-8 -16 -96 0
-8 -16 -104 0
-8 -16 -112 0
-8 -16 -120 0
-8 -16 -128 0
-8 -16 -136 0
-8 -24 -32 0
-8 -24 -40 0
-8 -24 -48 0
-8 -24 -56 0
-8 -24 -64 0
-8 -24 -72 0
-8 -24 -80 0
-8 -24 -88 0
-8 -24 -96 0
-8 -24 -104 0
-8 -24 -112 0
-8 -24 -120 0
-8 -24 -128 0
-8 -24 -136 0
-8 -32 -40 0
-8 -32 -48 0
-8 -32 -56 0
-8 -32 -64 0
-8 -32 -72 0
-8 -32 -80 0
-8 -32 -88 0
-8 -32 -96 0
-8 -32 -104 0
-8 -32 -112 0
-8 -32 -120 0
-8 -32 -128 0
-8 -32 -136 0
-8 -40 -48 0
-8 -40 -56 0
-8 -40 -64 0
-8 -40 -72 0
-8 -40 -80 0
-8 -40 -88 0
-8 -40 -96 0
-8 -40 -104 0
-8 -40 -112 0
-8 -40 -120 0
-8 -40 -128 0
-8 -40 -136 0
-8 -48 -56 0
-8 -48 -64 0
-8 -48 -72 0
-8 -48 -80 0
-8 -48 -88 0
-8 -48 -96 0
-8 -48 -104 0
-8 -48 -112 0
-8 -48 -120 0
-8 -48 -128 0
-8 -48 -136 0
-8 -56 -64 0
-8 -56 -72 0
-8 -56 -80 0
-8 -56 -88 0
-8 -56 -96 0
-8 -56 -104 0
-8 -56 -112 0
-8 -56 -120 0
-8 -56 -128 0
-8 -56 -136 0
-8 -64 -72 0
-8 -64 -80 0
-8 -64 -88 0
-8 -64 -96 0
-8 -64 -104 0
-8 -64 -112 0
-8 -64 -120 0
-8 -64 -128 0
-8 -64 -136 0
-8 -72 -80 0
-8 -72 -88 0
-8 -72 -96 0
-8 -72 -104 0
-8 -72 -112 0
-8 -72 -120 0
-8 -72 -128 0
-8 -72 -136 0
-8 -80 -88 0
-8 -80 -96 0
-8 -80 -104 0
-8 -80 -112 0
-8 -80 -120 0
-8 -80 -128 0
-8 -80 -136 0
-8 -88 -96 0
-8 -88 -104 0
-8 -88 -112 0
-8 -88 -120 0
-8 -88 -128 0
-8 -88 -136 0
-8 -96 -104 0
-8 -96 -112 0
-8 -96 -120 0
-8 -96 -128 0
-8 -96 -136 0
-8 -104 -112 0
-8 -104 -120 0
-8 -104 -128 0
-8 -104 -136 0
-8 -112 -120 0
-8 -112 -128 0
-8 -112 -136 0
-8 -120 -128 0
-8 -120 -136 0
-8 -128 -136 0
-16 -24 -32 0
-16 -24 -40 0
-16 -24 -48 0
-16 -24 -56 0
-16 -24 -64 0
-16 -24 -72 0
-16 -24 -80 0
-16 -24 -88 0
-16 -24 -96 0
-16 -24 -104 0
-16 -24 -112 0
-16 -24 -120 0
-16 -24 -128 0
-16 -24 -136 0
-16 -32 -40 0
-16 -32 -48 0
-16 -32 -56 0
-16 -32 -64 0
-16 -32 -72 0
-16 -32 -80 0
-16 -32 -88 0
-16 -32 -96 0
-16 -32 -104 0
-16 -32 -112 0
-16 -32 -120 0
-16 -32 -128 0
-16 -32 -136 0
-16 -40 -48 0
-16 -40 -56 0
-16 -40 -64 0
-16 -40 -72 0
-16 -40 -80 0
-16 -40 -88 0
-16 -40 -96 0
-16 -40 -104 0
-16 -40 -112 0
-16 -40 -120 0
-16 -40 -128 0
-16 -40 -136 0
-16 -48 -56 0
-16 -48 -64 0
-16 -48 -72 0
-16 -48 -80 0
-16 -48 -88 0
-16 -48 -96 0
-16 -48 -104 0
-16 -48 -112 0
-16 -48 -120 0
-16 -48 -128 0
-16 -48 -136 0
-16 -56 -64 0
-16 -56 -72 0
-16 -56 -80 0
-16 -56 -88 0
-16 -56 -96 0
-16 -56 -104 0
-16 -56 -112 0
-16 -56 -120 0
-16 -56 -128 0
-16 -56 -136 0
-16 -64 -72 0
-16 -64 -80 0
-16 -64 -88 0
-16 -64 -96 0
-16 -64 -104 0
-16 -64 -112 0
-16 -64 -120 0
-16 -64 -128 0
-16 -64 -136 0
-16 -72 -80 0
-16 -72 -88 0
-16 -72 -96 0
-16 -72 -104 0
-16 -72 -112 0
-16 -72 -120 0
-16 -72 -128 0
-16 -72 -136 0
-16 -80 -88 0
-16 -80 -96 0
-16 -80 -104 0
-16 -80 -112 0
-16 -80 -120 0
-16 -80 -128 0
-16 -80 -136 0
-16 -88 -96 0
-16 -88 -104 0
-16 -88 -112 0
-16 -88 -120 0
-16 -88 -128 0
-16 -88 -136 0
-16 -96 -104 0
-16 -96 -112 0
-16 -96 -120 0
-16 -96 -128 0
-16 -96 -136 0
-16 -104 -112 0
-16 -104 -120 0
-16 -104 -128 0
-16 -104 -136 0
-16 -112 -120 0
-16 -112 -128 0
-16 -112 -136 0
-16 -120 -128 0
-16 -120 -136 0
-16 -128 -136 0
-24 -32 -40 0
-24 -32 -48 0
-24 -32 -56 0
-24 -32 -64 0
-24 -32 -72 0
-24 -32 -80 0
-24 -32 -88 0
-24 -32 -96 0
-24 -32 -104 0
-24 -32 -112 0
-24 -32 -120 0
-24 -32 -128 0
-24 -32 -136 0
-24 -40 -48 0
-24 -40 -56 0
-24 -40 -64 0
-24 -40 -72 0
-24 -40 -80 0
-24 -40 -88 0
-24 -40 -96 0
-24 -40 -104 0
-24 -40 -112 0
-24 -40 -120 0
-24 -40 -128 0
-24 -40 -136 0
-24 -48 -56 0
-24 -48 -64 0
-24 -48 -72 0
-24 -48 -80 0
-24 -48 -88 0
-24 -48 -96 0
-24 -48 -104 0
-24 -48 -112 0
-24 -48 -120 0
-24 -48 -128 0
-24 -48 -136 0
-24 -56 -64 0
-24 -56 -72 0
-24 -56 -80 0
-24 -56 -88 0
-24 -56 -96 0
-24 -56 -104 0
-24 -56 -112 0
-24 -56 -120 0
-24 -56 -128 0
-24 -56 -136 0
-24 -64 -72 0
-24 -64 -80 0
-24 -64 -88 0
-24 -64 -96 0
-24 -64 -104 0
-24 -64 -112 0
-24 -64 -120 0
-24 -64 -128 0
-24 -64 -136 0
-24 -72 -80 0
-24 -72 -88 0
-24 -72 -96 0
-24 -72 -104 0
-24 -72 -112 0
-24 -72 -120 0
-24 -72 -128 0
-24 -72 -136 0
-24 -80 -88 0
-24 -80 -96 0
-24 -80 -104 0
-24 -80 -112 0
-24 -80 -120 0
-24 -80 -128 0
-24 -80 -136 0
-24 -88 -96 0
-24 -88 -104 0
-24 -88 -112 0
-24 -88 -120 0
-24 -88 -128 0
-24 -88 -136 0
-24 -96 -104 0
-24 -96 -112 0
-24 -96 -120 0
-24 -96 -128 0
-24 -96 -136 0
-24 -104 -112 0
-24 -104 -120 0
-24 -104 -128 0
-24 -104 -136 0
-24 -112 -120 0
-24 -112 -128 0
-24 -112 -136 0
-24 -120 -128 0
-24 -120 -136 0
-24 -128 -136 0
-32 -40 -48 0
-32 -40 -56 0
-32 -40 -64 0
-32 -40 -72 0
-32 -40 -80 0
-32 -40 -88 0
-32 -40 -96 0
-32 -40 -104 0
-32 -40 -112 0
-32 -40 -120 0
-32 -40 -128 0
-32 -40 -136 0
-32 -48 -56 0
-32 -48 -64 0
-32 -48 -72 0
-32 -48 -80 0
-32 -48 -88 0
-32 -48 -96 0
-32 -48 -104 0
-32 -48 -112 0
-32 -48 -120 0
-32 -48 -128 0
-32 -48 -136 0
-32 -56 -64 0
-32 -56 -72 0
-32 -56 -80 0
-32 -56 -88 0
-32 -56 -96 0
-32 -56 -104 0
-32 -56 -112 0
-32 -56 -120 0
-32 -56 -128 0
-32 -56 -136 0
-32 -64 -72 0
-32 -64 -80 0
-32 -64 -88 0
-32 -64 -96 0
-32 -64 -104 0
-32 -64 -112 0
-32 -64 -120 0
-32 -64 -128 0
-32 -64 -136 0
-32 -72 -80 0
-32 -72 -88 0
-32 -72 -96 0
-32 -72 -104 0
-32 -72 -112 0
-32 -72 -120 0
-32 -72 -128 0
-32 -72 -136 0
-32 -80 -88 0
-32 -80 -96 0
-32 -80 -104 0
-32 -80 -112 0
-32 -80 -120 0
-32 -80 -128 0
-32 -80 -136 0
-32 -88 -96 0
-32 -88 -104 0
-32 -88 -112 0
-32 -88 -120 0
-32 -88 -128 0
-32 -88 -136 0
-32 -96 -104 0
-32 -96 -112 0
-32 -96 -120 0
-32 -96 -128 0
-32 -96 -136 0
-32 -104 -112 0
-32 -104 -120 0
-32 -104 -128 0
-32 -104 -136 0
-32 -112 -120 0
-32 -112 -128 0
-32 -112 -136 0
-32 -120 -128 0
-32 -120 -136 0
-32 -128 -136 0
-40 -48 -56 0
-40 -48 -64 0
-40 -48 -72 0
-40 -48 -80 0
-40 -48 -88 0
-40 -48 -96 0
-40 -48 -104 0
-40 -48 -112 0
-40 -48 -120 0
-40 -48 -128 0
-40 -48 -136 0
-40 -56 -64 0
-40 -56 -72 0
-40 -56 -80 0
-40 -56 -88 0
-40 -56 -96 0
-40 -56 -104 0
-40 -56 -112 0
-40 -56 -120 0
-40 -56 -128 0
-40 -56 -136 0
-40 -64 -72 0
-40 -64 -80 0
-40 -64 -88 0
-40 -64 -96 0
-40 -64 -104 0
-40 -64 -112 0
-40 -64 -120 0
-40 -64 -128 0
-40 -64 -136 0
-40 -72 -80 0
-40 -72 -88 0
-40 -72 -96 0
-40 -72 -104 0
-40 -72 -112 0
-40 -72 -120 0
-40 -72 -128 0
-40 -72 -136 0
-40 -80 -88 0
-40 -80 -96 0
-40 -80 -104 0
-40 -80 -112 0
-40 -80 -120 0
-40 -80 -128 0
-40 -80 -136 0
-40 -88 -96 0
-40 -88 -104 0
-40 -88 -112 0
-40 -88 -120 0
-40 -88 -128 0
-40 -88 -136 0
-40 -96 -104 0
-40 -96 -112 0
-40 -96 -120 0
-40 -96 -128 0
-40 -96 -136 0
-40 -104 -112 0
-40 -104 -120 0
-40 -104 -128 0
-40 -104 -136 0
-40 -112 -120 0
-40 -112 -128 0
-40 -112 -136 0
-40 -120 -128 0
-40 -120 -136 0
-40 -128 -136 0
-48 -56 -64 0
-48 -56 -72 0
-48 -56 -80 0
-48 -56 -88 0
-48 -56 -96 0
-48 -56 -104 0
-48 -56 -112 0
-48 -56 -120 0
-48 -56 -128 0
-48 -56 -136 0
-48 -64 -72 0
-48 -64 -80 0
-48 -64 -88 0
-48 -64 -96 0
-48 -64 -104 0
-48 -64 -112 0
-48 -64 -120 0
-48 -64 -128 0
-48 -64 -136 0
-48 -72 -80 0
-48 -72 -88 0
-48 -72 -96 0
-48 -72 -104 0
-48 -72 -112 0
-48 -72 -120 0
-48 -72 -128 0
-48 -72 -136 0
-48 -80 -88 0
-48 -80 -96 0
-48 -80 -104 0
-48 -80 -112 0
-48 -80 -120 0
-48 -80 -128 0
-48 -80 -136 0
-48 -88 -96 0
-48 -88 -104 0
-48 -88 -112 0
-48 -88 -120 0
-48 -88 -128 0
-48 -88 -136 0
-48 -96 -104 0
-48 -96 -112 0
-48 -96 -120 0
-48 -96 -128 0
-48 -96 -136 0
-48 -104 -112 0
-48 -104 -120 0
-48 -104 -128 0
-48 -104 -136 0
-48 -112 -120 0
-48 -112 -128 0
-48 -112 -136 0
-48 -120 -128 0
-48 -120 -136 0
-48 -128 -136 0
-56 -64 -72 0
-56 -64 -80 0
-56 -64 -88 0
-56 -64 -96 0
-56 -64 -104 0
-56 -64 -112 0
-56 -64 -120 0
-56 -64 -128 0
-56 -64 -136 0
-56 -72 -80 0
-56 -72 -88 0
-56 -72 -96 0
-56 -72 -104 0
-56 -72 -112 0
-56 -72 -120 0
-56 -72 -128 0
-56 -72 -136 0
-56 -80 -88 0
-56 -80 -96 0
-56 -80 -104 0
-56 -80 -112 0
-56 -80 -120 0
-56 -80 -128 0
-56 -80 -136 0
-56 -88 -96 0
-56 -88 -104 0
-56 -88 -112 0
-56 -88 -120 0
-56 -88 -128 0
-56 -88 -136 0
-56 -96 -104 0
-56 -96 -112 0
-56 -96 -120 0
-56 -96 -128 0
-56 -96 -136 0
-56 -104 -112 0
-56 -104 -120 0
-56 -104 -128 0
-56 -104 -136 0
-56 -112 -120 0
-56 -112 -128 0
-56 -112 -136 0
-56 -120 -128 0
-56 -120 -136 0
-56 -128 -136 0
-64 -72 -80 0
-64 -72 -88 0
-64 -72 -96 0
-64 -72 -104 0
-64 -72 -112 0
-64 -72 -120 0
-64 -72 -128 0
-64 -72 -136 0
-64 -80 -88 0
-64 -80 -96 0
-64 -80 -104 0
-64 -80 -112 0
-64 -80 -120 0
-64 -80 -128 0
-64 -80 -136 0
-64 -88 -96 0
-64 -88 -104 0
-64 -88 -112 0
-64 -88 -120 0
-64 -88 -128 0
-64 -88 -136 0
-64 -96 -104 0
-64 -96 -112 0
-64 -96 -120 0
-64 -96 -128 0
-64 -96 -136 0
-64 -104 -112 0
-64 -104 -120 0
-64 -104 -128 0
-64 -104 -136 0
-64 -112 -120 0
-64 -112 -128 0
-64 -112 -136 0
-64 -120 -128 0
-64 -120 -136 0
-64 -128 -136 0
-72 -80 -88 0
-72 -80 -96 0
-72 -80 -104 0
-72 -80 -112 0
-72 -80 -120 0
-72 -80 -128 0
-72 -80 -136 0
-72 -88 -96 0
-72 -88 -104 0
-72 -88 -112 0
-72 -88 -120 0
-72 -88 -128 0
-72 -88 -136 0
-72 -96 -104 0
-72 -96 -112 0
-72 -96 -120 0
-72 -96 -128 0
-72 -96 -136 0
-72 -104 -112 0
-72 -104 -120 0
-72 -104 -128 0
-72 -104 -136 0
-72 -112 -120 0
-72 -112 -128 0
-72 -112 -136 0
-72 -120 -128 0
-72 -120 -136 0
-72 -128 -136 0
-80 -88 -96 0
-80 -88 -104 0
-80 -88 -112 0
-80 -88 -120 0
-80 -88 -128 0
-80 -88 -136 0
-80 -96 -104 0
-80 -96 -112 0
-80 -96 -120 0
-80 -96 -128 0
-80 -96 -136 0
-80 -104 -112 0
-80 -104 -120 0
-80 -104 -128 0
-80 -104 -136 0
-80 -112 -120 0
-80 -112 -128 0
-80 -112 -136 0
-80 -120 -128 0
-80 -120 -136 0
-80 -128 -136 0
-88 -96 -104 0
-88 -96 -112 0
-88 -96 -120 0
-88 -96 -128 0
-88 -96 -136 0
-88 -104 -112 0
-88 -104 -120 0
-88 -104 -128 0
-88 -104 -136 0
-88 -112 -120 0
-88 -112 -128 0
-88 -112 -136 0
-88 -120 -128 0
-88 -120 -136 0
-88 -128 -136 0
-96 -104 -112 0
-96 -104 -120 0
-96 -104 -128 0
-96 -104 -136 0
-96 -112 -120 0
-96 -112 -128 0
-96 -112 -136 0
-96 -120 -128 0
-96 -120 -136 0
-96 -128 -136 0
-104 -112 -120 0
-104 -112 -128 0
-104 -112 -136 0
-104 -120 -128 0
-104 -120 -136 0
-104 -128 -136 0
-112 -120 -128 0
-112 -120 -136 0
-112 -128 -136 0
-120 -128 -136 0
