c Phase 3 generated performance instance
c family=satisfiable_capacity_control
c scale=16
c variant=phase4b
c noise_percent=0
c expected=SATISFIABLE
p cnf 256 3856
-1 -2 0
-1 -3 0
-1 -4 0
-1 -5 0
-1 -6 0
-1 -7 0
-1 -8 0
-1 -9 0
-1 -10 0
-1 -11 0
-1 -12 0
-1 -13 0
-1 -14 0
-1 -15 0
-1 -16 0
-2 -3 0
-2 -4 0
-2 -5 0
-2 -6 0
-2 -7 0
-2 -8 0
-2 -9 0
-2 -10 0
-2 -11 0
-2 -12 0
-2 -13 0
-2 -14 0
-2 -15 0
-2 -16 0
-3 -4 0
-3 -5 0
-3 -6 0
-3 -7 0
-3 -8 0
-3 -9 0
-3 -10 0
-3 -11 0
-3 -12 0
-3 -13 0
-3 -14 0
-3 -15 0
-3 -16 0
-4 -5 0
-4 -6 0
-4 -7 0
-4 -8 0
-4 -9 0
-4 -10 0
-4 -11 0
-4 -12 0
-4 -13 0
-4 -14 0
-4 -15 0
-4 -16 0
-5 -6 0
-5 -7 0
-5 -8 0
-5 -9 0
-5 -10 0
-5 -11 0
-5 -12 0
-5 -13 0
-5 -14 0
-5 -15 0
-5 -16 0
-6 -7 0
-6 -8 0
-6 -9 0
-6 -10 0
-6 -11 0
-6 -12 0
-6 -13 0
-6 -14 0
-6 -15 0
-6 -16 0
-7 -8 0
-7 -9 0
-7 -10 0
-7 -11 0
-7 -12 0
-7 -13 0
-7 -14 0
-7 -15 0
-7 -16 0
-8 -9 0
-8 -10 0
-8 -11 0
-8 -12 0
-8 -13 0
-8 -14 0
-8 -15 0
-8 -16 0
-9 -10 0
-9 -11 0
-9 -12 0
-9 -13 0
-9 -14 0
-9 -15 0
-9 -16 0
-10 -11 0
-10 -12 0
-10 -13 0
-10 -14 0
-10 -15 0
-10 -16 0
-11 -12 0
-11 -13 0
-11 -14 0
-11 -15 0
-11 -16 0
-12 -13 0
-12 -14 0
-12 -15 0
-12 -16 0
-13 -14 0
-13 -15 0
-13 -16 0
-14 -15 0
-14 -16 0
-15 -16 0
1 2 3 4 5 6 7 8 9 10 11 12 13 14 15 16 0
-17 -18 0
-17 -19 0
-17 -20 0
-17 -21 0
-17 -22 0
-17 -23 0
-17 -24 0
-17 -25 0
-17 -26 0
-17 -27 0
-17 -28 0
-17 -29 0
-17 -30 0
-17 -31 0
-17 -32 0
-18 -19 0
-18 -20 0
-18 -21 0
-18 -22 0
-18 -23 0
-18 -24 0
-18 -25 0
-18 -26 0
-18 -27 0
-18 -28 0
-18 -29 0
-18 -30 0
-18 -31 0
-18 -32 0
-19 -20 0
-19 -21 0
-19 -22 0
-19 -23 0
-19 -24 0
-19 -25 0
-19 -26 0
-19 -27 0
-19 -28 0
-19 -29 0
-19 -30 0
-19 -31 0
-19 -32 0
-20 -21 0
-20 -22 0
-20 -23 0
-20 -24 0
-20 -25 0
-20 -26 0
-20 -27 0
-20 -28 0
-20 -29 0
-20 -30 0
-20 -31 0
-20 -32 0
-21 -22 0
-21 -23 0
-21 -24 0
-21 -25 0
-21 -26 0
-21 -27 0
-21 -28 0
-21 -29 0
-21 -30 0
-21 -31 0
-21 -32 0
-22 -23 0
-22 -24 0
-22 -25 0
-22 -26 0
-22 -27 0
-22 -28 0
-22 -29 0
-22 -30 0
-22 -31 0
-22 -32 0
-23 -24 0
-23 -25 0
-23 -26 0
-23 -27 0
-23 -28 0
-23 -29 0
-23 -30 0
-23 -31 0
-23 -32 0
-24 -25 0
-24 -26 0
-24 -27 0
-24 -28 0
-24 -29 0
-24 -30 0
-24 -31 0
-24 -32 0
-25 -26 0
-25 -27 0
-25 -28 0
-25 -29 0
-25 -30 0
-25 -31 0
-25 -32 0
-26 -27 0
-26 -28 0
-26 -29 0
-26 -30 0
-26 -31 0
-26 -32 0
-27 -28 0
-27 -29 0
-27 -30 0
-27 -31 0
-27 -32 0
-28 -29 0
-28 -30 0
-28 -31 0
-28 -32 0
-29 -30 0
-29 -31 0
-29 -32 0
-30 -31 0
-30 -32 0
-31 -32 0
17 18 19 20 21 22 23 24 25 26 27 28 29 30 31 32 0
-33 -34 0
-33 -35 0
-33 -36 0
-33 -37 0
-33 -38 0
-33 -39 0
-33 -40 0
-33 -41 0
-33 -42 0
-33 -43 0
-33 -44 0
-33 -45 0
-33 -46 0
-33 -47 0
-33 -48 0
-34 -35 0
-34 -36 0
-34 -37 0
-34 -38 0
-34 -39 0
-34 -40 0
-34 -41 0
-34 -42 0
-34 -43 0
-34 -44 0
-34 -45 0
-34 -46 0
-34 -47 0
-34 -48 0
-35 -36 0
-35 -37 0
-35 -38 0
-35 -39 0
-35 -40 0
-35 -41 0
-35 -42 0
-35 -43 0
-35 -44 0
-35 -45 0
-35 -46 0
-35 -47 0
-35 -48 0
-36 -37 0
-36 -38 0
-36 -39 0
-36 -40 0
-36 -41 0
-36 -42 0
-36 -43 0
-36 -44 0
-36 -45 0
-36 -46 0
-36 -47 0
-36 -48 0
-37 -38 0
-37 -39 0
-37 -40 0
-37 -41 0
-37 -42 0
-37 -43 0
-37 -44 0
-37 -45 0
-37 -46 0
-37 -47 0
-37 -48 0
-38 -39 0
-38 -40 0
-38 -41 0
-38 -42 0
-38 -43 0
-38 -44 0
-38 -45 0
-38 -46 0
-38 -47 0
-38 -48 0
-39 -40 0
-39 -41 0
-39 -42 0
-39 -43 0
-39 -44 0
-39 -45 0
-39 -46 0
-39 -47 0
-39 -48 0
-40 -41 0
-40 -42 0
-40 -43 0
-40 -44 0
-40 -45 0
-40 -46 0
-40 -47 0
-40 -48 0
-41 -42 0
-41 -43 0
-41 -44 0
-41 -45 0
-41 -46 0
-41 -47 0
-41 -48 0
-42 -43 0
-42 -44 0
-42 -45 0
-42 -46 0
-42 -47 0
-42 -48 0
-43 -44 0
-43 -45 0
-43 -46 0
-43 -47 0
-43 -48 0
-44 -45 0
-44 -46 0
-44 -47 0
-44 -48 0
-45 -46 0
-45 -47 0
-45 -48 0
-46 -47 0
-46 -48 0
-47 -48 0
33 34 35 36 37 38 39 40 41 42 43 44 45 46 47 48 0
-49 -50 0
-49 -51 0
-49 -52 0
-49 -53 0
-49 -54 0
-49 -55 0
-49 -56 0
-49 -57 0
-49 -58 0
-49 -59 0
-49 -60 0
-49 -61 0
-49 -62 0
-49 -63 0
-49 -64 0
-50 -51 0
-50 -52 0
-50 -53 0
-50 -54 0
-50 -55 0
-50 -56 0
-50 -57 0
-50 -58 0
-50 -59 0
-50 -60 0
-50 -61 0
-50 -62 0
-50 -63 0
-50 -64 0
-51 -52 0
-51 -53 0
-51 -54 0
-51 -55 0
-51 -56 0
-51 -57 0
-51 -58 0
-51 -59 0
-51 -60 0
-51 -61 0
-51 -62 0
-51 -63 0
-51 -64 0
-52 -53 0
-52 -54 0
-52 -55 0
-52 -56 0
-52 -57 0
-52 -58 0
-52 -59 0
-52 -60 0
-52 -61 0
-52 -62 0
-52 -63 0
-52 -64 0
-53 -54 0
-53 -55 0
-53 -56 0
-53 -57 0
-53 -58 0
-53 -59 0
-53 -60 0
-53 -61 0
-53 -62 0
-53 -63 0
-53 -64 0
-54 -55 0
-54 -56 0
-54 -57 0
-54 -58 0
-54 -59 0
-54 -60 0
-54 -61 0
-54 -62 0
-54 -63 0
-54 -64 0
-55 -56 0
-55 -57 0
-55 -58 0
-55 -59 0
-55 -60 0
-55 -61 0
-55 -62 0
-55 -63 0
-55 -64 0
-56 -57 0
-56 -58 0
-56 -59 0
-56 -60 0
-56 -61 0
-56 -62 0
-56 -63 0
-56 -64 0
-57 -58 0
-57 -59 0
-57 -60 0
-57 -61 0
-57 -62 0
-57 -63 0
-57 -64 0
-58 -59 0
-58 -60 0
-58 -61 0
-58 -62 0
-58 -63 0
-58 -64 0
-59 -60 0
-59 -61 0
-59 -62 0
-59 -63 0
-59 -64 0
-60 -61 0
-60 -62 0
-60 -63 0
-60 -64 0
-61 -62 0
-61 -63 0
-61 -64 0
-62 -63 0
-62 -64 0
-63 -64 0
49 50 51 52 53 54 55 56 57 58 59 60 61 62 63 64 0
-65 -66 0
-65 -67 0
-65 -68 0
-65 -69 0
-65 -70 0
-65 -71 0
-65 -72 0
-65 -73 0
-65 -74 0
-65 -75 0
-65 -76 0
-65 -77 0
-65 -78 0
-65 -79 0
-65 -80 0
-66 -67 0
-66 -68 0
-66 -69 0
-66 -70 0
-66 -71 0
-66 -72 0
-66 -73 0
-66 -74 0
-66 -75 0
-66 -76 0
-66 -77 0
-66 -78 0
-66 -79 0
-66 -80 0
-67 -68 0
-67 -69 0
-67 -70 0
-67 -71 0
-67 -72 0
-67 -73 0
-67 -74 0
-67 -75 0
-67 -76 0
-67 -77 0
-67 -78 0
-67 -79 0
-67 -80 0
-68 -69 0
-68 -70 0
-68 -71 0
-68 -72 0
-68 -73 0
-68 -74 0
-68 -75 0
-68 -76 0
-68 -77 0
-68 -78 0
-68 -79 0
-68 -80 0
-69 -70 0
-69 -71 0
-69 -72 0
-69 -73 0
-69 -74 0
-69 -75 0
-69 -76 0
-69 -77 0
-69 -78 0
-69 -79 0
-69 -80 0
-70 -71 0
-70 -72 0
-70 -73 0
-70 -74 0
-70 -75 0
-70 -76 0
-70 -77 0
-70 -78 0
-70 -79 0
-70 -80 0
-71 -72 0
-71 -73 0
-71 -74 0
-71 -75 0
-71 -76 0
-71 -77 0
-71 -78 0
-71 -79 0
-71 -80 0
-72 -73 0
-72 -74 0
-72 -75 0
-72 -76 0
-72 -77 0
-72 -78 0
-72 -79 0
-72 -80 0
-73 -74 0
-73 -75 0
-73 -76 0
-73 -77 0
-73 -78 0
-73 -79 0
-73 -80 0
-74 -75 0
-74 -76 0
-74 -77 0
-74 -78 0
-74 -79 0
-74 -80 0
-75 -76 0
-75 -77 0
-75 -78 0
-75 -79 0
-75 -80 0
-76 -77 0
-76 -78 0
-76 -79 0
-76 -80 0
-77 -78 0
-77 -79 0
-77 -80 0
-78 -79 0
-78 -80 0
-79 -80 0
65 66 67 68 69 70 71 72 73 74 75 76 77 78 79 80 0
-81 -82 0
-81 -83 0
-81 -84 0
-81 -85 0
-81 -86 0
-81 -87 0
-81 -88 0
-81 -89 0
-81 -90 0
-81 -91 0
-81 -92 0
-81 -93 0
-81 -94 0
-81 -95 0
-81 -96 0
-82 -83 0
-82 -84 0
-82 -85 0
-82 -86 0
-82 -87 0
-82 -88 0
-82 -89 0
-82 -90 0
-82 -91 0
-82 -92 0
-82 -93 0
-82 -94 0
-82 -95 0
-82 -96 0
-83 -84 0
-83 -85 0
-83 -86 0
-83 -87 0
-83 -88 0
-83 -89 0
-83 -90 0
-83 -91 0
-83 -92 0
-83 -93 0
-83 -94 0
-83 -95 0
-83 -96 0
-84 -85 0
-84 -86 0
-84 -87 0
-84 -88 0
-84 -89 0
-84 -90 0
-84 -91 0
-84 -92 0
-84 -93 0
-84 -94 0
-84 -95 0
-84 -96 0
-85 -86 0
-85 -87 0
-85 -88 0
-85 -89 0
-85 -90 0
-85 -91 0
-85 -92 0
-85 -93 0
-85 -94 0
-85 -95 0
-85 -96 0
-86 -87 0
-86 -88 0
-86 -89 0
-86 -90 0
-86 -91 0
-86 -92 0
-86 -93 0
-86 -94 0
-86 -95 0
-86 -96 0
-87 -88 0
-87 -89 0
-87 -90 0
-87 -91 0
-87 -92 0
-87 -93 0
-87 -94 0
-87 -95 0
-87 -96 0
-88 -89 0
-88 -90 0
-88 -91 0
-88 -92 0
-88 -93 0
-88 -94 0
-88 -95 0
-88 -96 0
-89 -90 0
-89 -91 0
-89 -92 0
-89 -93 0
-89 -94 0
-89 -95 0
-89 -96 0
-90 -91 0
-90 -92 0
-90 -93 0
-90 -94 0
-90 -95 0
-90 -96 0
-91 -92 0
-91 -93 0
-91 -94 0
-91 -95 0
-91 -96 0
-92 -93 0
-92 -94 0
-92 -95 0
-92 -96 0
-93 -94 0
-93 -95 0
-93 -96 0
-94 -95 0
-94 -96 0
-95 -96 0
81 82 83 84 85 86 87 88 89 90 91 92 93 94 95 96 0
-97 -98 0
-97 -99 0
-97 -100 0
-97 -101 0
-97 -102 0
-97 -103 0
-97 -104 0
-97 -105 0
-97 -106 0
-97 -107 0
-97 -108 0
-97 -109 0
-97 -110 0
-97 -111 0
-97 -112 0
-98 -99 0
-98 -100 0
-98 -101 0
-98 -102 0
-98 -103 0
-98 -104 0
-98 -105 0
-98 -106 0
-98 -107 0
-98 -108 0
-98 -109 0
-98 -110 0
-98 -111 0
-98 -112 0
-99 -100 0
-99 -101 0
-99 -102 0
-99 -103 0
-99 -104 0
-99 -105 0
-99 -106 0
-99 -107 0
-99 -108 0
-99 -109 0
-99 -110 0
-99 -111 0
-99 -112 0
-100 -101 0
-100 -102 0
-100 -103 0
-100 -104 0
-100 -105 0
-100 -106 0
-100 -107 0
-100 -108 0
-100 -109 0
-100 -110 0
-100 -111 0
-100 -112 0
-101 -102 0
-101 -103 0
-101 -104 0
-101 -105 0
-101 -106 0
-101 -107 0
-101 -108 0
-101 -109 0
-101 -110 0
-101 -111 0
-101 -112 0
-102 -103 0
-102 -104 0
-102 -105 0
-102 -106 0
-102 -107 0
-102 -108 0
-102 -109 0
-102 -110 0
-102 -111 0
-102 -112 0
-103 -104 0
-103 -105 0
-103 -106 0
-103 -107 0
-103 -108 0
-103 -109 0
-103 -110 0
-103 -111 0
-103 -112 0
-104 -105 0
-104 -106 0
-104 -107 0
-104 -108 0
-104 -109 0
-104 -110 0
-104 -111 0
-104 -112 0
-105 -106 0
-105 -107 0
-105 -108 0
-105 -109 0
-105 -110 0
-105 -111 0
-105 -112 0
-106 -107 0
-106 -108 0
-106 -109 0
-106 -110 0
-106 -111 0
-106 -112 0
-107 -108 0
-107 -109 0
-107 -110 0
-107 -111 0
-107 -112 0
-108 -109 0
-108 -110 0
-108 -111 0
-108 -112 0
-109 -110 0
-109 -111 0
-109 -112 0
-110 -111 0
-110 -112 0
-111 -112 0
97 98 99 100 101 102 103 104 105 106 107 108 109 110 111 112 0
-113 -114 0
-113 -115 0
-113 -116 0
-113 -117 0
-113 -118 0
-113 -119 0
-113 -120 0
-113 -121 0
-113 -122 0
-113 -123 0
-113 -124 0
-113 -125 0
-113 -126 0
-113 -127 0
-113 -128 0
-114 -115 0
-114 -116 0
-114 -117 0
-114 -118 0
-114 -119 0
-114 -120 0
-114 -121 0
-114 -122 0
-114 -123 0
-114 -124 0
-114 -125 0
-114 -126 0
-114 -127 0
-114 -128 0
-115 -116 0
-115 -117 0
-115 -118 0
-115 -119 0
-115 -120 0
-115 -121 0
-115 -122 0
-115 -123 0
-115 -124 0
-115 -125 0
-115 -126 0
-115 -127 0
-115 -128 0
-116 -117 0
-116 -118 0
-116 -119 0
-116 -120 0
-116 -121 0
-116 -122 0
-116 -123 0
-116 -124 0
-116 -125 0
-116 -126 0
-116 -127 0
-116 -128 0
-117 -118 0
-117 -119 0
-117 -120 0
-117 -121 0
-117 -122 0
-117 -123 0
-117 -124 0
-117 -125 0
-117 -126 0
-117 -127 0
-117 -128 0
-118 -119 0
-118 -120 0
-118 -121 0
-118 -122 0
-118 -123 0
-118 -124 0
-118 -125 0
-118 -126 0
-118 -127 0
-118 -128 0
-119 -120 0
-119 -121 0
-119 -122 0
-119 -123 0
-119 -124 0
-119 -125 0
-119 -126 0
-119 -127 0
-119 -128 0
-120 -121 0
-120 -122 0
-120 -123 0
-120 -124 0
-120 -125 0
-120 -126 0
-120 -127 0
-120 -128 0
-121 -122 0
-121 -123 0
-121 -124 0
-121 -125 0
-121 -126 0
-121 -127 0
-121 -128 0
-122 -123 0
-122 -124 0
-122 -125 0
-122 -126 0
-122 -127 0
-122 -128 0
-123 -124 0
-123 -125 0
-123 -126 0
-123 -127 0
-123 -128 0
-124 -125 0
-124 -126 0
-124 -127 0
-124 -128 0
-125 -126 0
-125 -127 0
-125 -128 0
-126 -127 0
-126 -128 0
-127 -128 0
113 114 115 116 117 118 119 120 121 122 123 124 125 126 127 128 0
-129 -130 0
-129 -131 0
-129 -132 0
-129 -133 0
-129 -134 0
-129 -135 0
-129 -136 0
-129 -137 0
-129 -138 0
-129 -139 0
-129 -140 0
-129 -141 0
-129 -142 0
-129 -143 0
-129 -144 0
-130 -131 0
-130 -132 0
-130 -133 0
-130 -134 0
-130 -135 0
-130 -136 0
-130 -137 0
-130 -138 0
-130 -139 0
-130 -140 0
-130 -141 0
-130 -142 0
-130 -143 0
-130 -144 0
-131 -132 0
-131 -133 0
-131 -134 0
-131 -135 0
-131 -136 0
-131 -137 0
-131 -138 0
-131 -139 0
-131 -140 0
-131 -141 0
-131 -142 0
-131 -143 0
-131 -144 0
-132 -133 0
-132 -134 0
-132 -135 0
-132 -136 0
-132 -137 0
-132 -138 0
-132 -139 0
-132 -140 0
-132 -141 0
-132 -142 0
-132 -143 0
-132 -144 0
-133 -134 0
-133 -135 0
-133 -136 0
-133 -137 0
-133 -138 0
-133 -139 0
-133 -140 0
-133 -141 0
-133 -142 0
-133 -143 0
-133 -144 0
-134 -135 0
-134 -136 0
-134 -137 0
-134 -138 0
-134 -139 0
-134 -140 0
-134 -141 0
-134 -142 0
-134 -143 0
-134 -144 0
-135 -136 0
-135 -137 0
-135 -138 0
-135 -139 0
-135 -140 0
-135 -141 0
-135 -142 0
-135 -143 0
-135 -144 0
-136 -137 0
-136 -138 0
-136 -139 0
-136 -140 0
-136 -141 0
-136 -142 0
-136 -143 0
-136 -144 0
-137 -138 0
-137 -139 0
-137 -140 0
-137 -141 0
-137 -142 0
-137 -143 0
-137 -144 0
-138 -139 0
-138 -140 0
-138 -141 0
-138 -142 0
-138 -143 0
-138 -144 0
-139 -140 0
-139 -141 0
-139 -142 0
-139 -143 0
-139 -144 0
-140 -141 0
-140 -142 0
-140 -143 0
-140 -144 0
-141 -142 0
-141 -143 0
-141 -144 0
-142 -143 0
-142 -144 0
-143 -144 0
129 130 131 132 133 134 135 136 137 138 139 140 141 142 143 144 0
-145 -146 0
-145 -147 0
-145 -148 0
-145 -149 0
-145 -150 0
-145 -151 0
-145 -152 0
-145 -153 0
-145 -154 0
-145 -155 0
-145 -156 0
-145 -157 0
-145 -158 0
-145 -159 0
-145 -160 0
-146 -147 0
-146 -148 0
-146 -149 0
-146 -150 0
-146 -151 0
-146 -152 0
-146 -153 0
-146 -154 0
-146 -155 0
-146 -156 0
-146 -157 0
-146 -158 0
-146 -159 0
-146 -160 0
-147 -148 0
-147 -149 0
-147 -150 0
-147 -151 0
-147 -152 0
-147 -153 0
-147 -154 0
-147 -155 0
-147 -156 0
-147 -157 0
-147 -158 0
-147 -159 0
-147 -160 0
-148 -149 0
-148 -150 0
-148 -151 0
-148 -152 0
-148 -153 0
-148 -154 0
-148 -155 0
-148 -156 0
-148 -157 0
-148 -158 0
-148 -159 0
-148 -160 0
-149 -150 0
-149 -151 0
-149 -152 0
-149 -153 0
-149 -154 0
-149 -155 0
-149 -156 0
-149 -157 0
-149 -158 0
-149 -159 0
-149 -160 0
-150 -151 0
-150 -152 0
-150 -153 0
-150 -154 0
-150 -155 0
-150 -156 0
-150 -157 0
-150 -158 0
-150 -159 0
-150 -160 0
-151 -152 0
-151 -153 0
-151 -154 0
-151 -155 0
-151 -156 0
-151 -157 0
-151 -158 0
-151 -159 0
-151 -160 0
-152 -153 0
-152 -154 0
-152 -155 0
-152 -156 0
-152 -157 0
-152 -158 0
-152 -159 0
-152 -160 0
-153 -154 0
-153 -155 0
-153 -156 0
-153 -157 0
-153 -158 0
-153 -159 0
-153 -160 0
-154 -155 0
-154 -156 0
-154 -157 0
-154 -158 0
-154 -159 0
-154 -160 0
-155 -156 0
-155 -157 0
-155 -158 0
-155 -159 0
-155 -160 0
-156 -157 0
-156 -158 0
-156 -159 0
-156 -160 0
-157 -158 0
-157 -159 0
-157 -160 0
-158 -159 0
-158 -160 0
-159 -160 0
145 146 147 148 149 150 151 152 153 154 155 156 157 158 159 160 0
-161 -162 0
-161 -163 0
-161 -164 0
-161 -165 0
-161 -166 0
-161 -167 0
-161 -168 0
-161 -169 0
-161 -170 0
-161 -171 0
-161 -172 0
-161 -173 0
-161 -174 0
-161 -175 0
-161 -176 0
-162 -163 0
-162 -164 0
-162 -165 0
-162 -166 0
-162 -167 0
-162 -168 0
-162 -169 0
-162 -170 0
-162 -171 0
-162 -172 0
-162 -173 0
-162 -174 0
-162 -175 0
-162 -176 0
-163 -164 0
-163 -165 0
-163 -166 0
-163 -167 0
-163 -168 0
-163 -169 0
-163 -170 0
-163 -171 0
-163 -172 0
-163 -173 0
-163 -174 0
-163 -175 0
-163 -176 0
-164 -165 0
-164 -166 0
-164 -167 0
-164 -168 0
-164 -169 0
-164 -170 0
-164 -171 0
-164 -172 0
-164 -173 0
-164 -174 0
-164 -175 0
-164 -176 0
-165 -166 0
-165 -167 0
-165 -168 0
-165 -169 0
-165 -170 0
-165 -171 0
-165 -172 0
-165 -173 0
-165 -174 0
-165 -175 0
-165 -176 0
-166 -167 0
-166 -168 0
-166 -169 0
-166 -170 0
-166 -171 0
-166 -172 0
-166 -173 0
-166 -174 0
-166 -175 0
-166 -176 0
-167 -168 0
-167 -169 0
-167 -170 0
-167 -171 0
-167 -172 0
-167 -173 0
-167 -174 0
-167 -175 0
-167 -176 0
-168 -169 0
-168 -170 0
-168 -171 0
-168 -172 0
-168 -173 0
-168 -174 0
-168 -175 0
-168 -176 0
-169 -170 0
-169 -171 0
-169 -172 0
-169 -173 0
-169 -174 0
-169 -175 0
-169 -176 0
-170 -171 0
-170 -172 0
-170 -173 0
-170 -174 0
-170 -175 0
-170 -176 0
-171 -172 0
-171 -173 0
-171 -174 0
-171 -175 0
-171 -176 0
-172 -173 0
-172 -174 0
-172 -175 0
-172 -176 0
-173 -174 0
-173 -175 0
-173 -176 0
-174 -175 0
-174 -176 0
-175 -176 0
161 162 163 164 165 166 167 168 169 170 171 172 173 174 175 176 0
-177 -178 0
-177 -179 0
-177 -180 0
-177 -181 0
-177 -182 0
-177 -183 0
-177 -184 0
-177 -185 0
-177 -186 0
-177 -187 0
-177 -188 0
-177 -189 0
-177 -190 0
-177 -191 0
-177 -192 0
-178 -179 0
-178 -180 0
-178 -181 0
-178 -182 0
-178 -183 0
-178 -184 0
-178 -185 0
-178 -186 0
-178 -187 0
-178 -188 0
-178 -189 0
-178 -190 0
-178 -191 0
-178 -192 0
-179 -180 0
-179 -181 0
-179 -182 0
-179 -183 0
-179 -184 0
-179 -185 0
-179 -186 0
-179 -187 0
-179 -188 0
-179 -189 0
-179 -190 0
-179 -191 0
-179 -192 0
-180 -181 0
-180 -182 0
-180 -183 0
-180 -184 0
-180 -185 0
-180 -186 0
-180 -187 0
-180 -188 0
-180 -189 0
-180 -190 0
-180 -191 0
-180 -192 0
-181 -182 0
-181 -183 0
-181 -184 0
-181 -185 0
-181 -186 0
-181 -187 0
-181 -188 0
-181 -189 0
-181 -190 0
-181 -191 0
-181 -192 0
-182 -183 0
-182 -184 0
-182 -185 0
-182 -186 0
-182 -187 0
-182 -188 0
-182 -189 0
-182 -190 0
-182 -191 0
-182 -192 0
-183 -184 0
-183 -185 0
-183 -186 0
-183 -187 0
-183 -188 0
-183 -189 0
-183 -190 0
-183 -191 0
-183 -192 0
-184 -185 0
-184 -186 0
-184 -187 0
-184 -188 0
-184 -189 0
-184 -190 0
-184 -191 0
-184 -192 0
-185 -186 0
-185 -187 0
-185 -188 0
-185 -189 0
-185 -190 0
-185 -191 0
-185 -192 0
-186 -187 0
-186 -188 0
-186 -189 0
-186 -190 0
-186 -191 0
-186 -192 0
-187 -188 0
-187 -189 0
-187 -190 0
-187 -191 0
-187 -192 0
-188 -189 0
-188 -190 0
-188 -191 0
-188 -192 0
-189 -190 0
-189 -191 0
-189 -192 0
-190 -191 0
-190 -192 0
-191 -192 0
177 178 179 180 181 182 183 184 185 186 187 188 189 190 191 192 0
-193 -194 0
-193 -195 0
-193 -196 0
-193 -197 0
-193 -198 0
-193 -199 0
-193 -200 0
-193 -201 0
-193 -202 0
-193 -203 0
-193 -204 0
-193 -205 0
-193 -206 0
-193 -207 0
-193 -208 0
-194 -195 0
-194 -196 0
-194 -197 0
-194 -198 0
-194 -199 0
-194 -200 0
-194 -201 0
-194 -202 0
-194 -203 0
-194 -204 0
-194 -205 0
-194 -206 0
-194 -207 0
-194 -208 0
-195 -196 0
-195 -197 0
-195 -198 0
-195 -199 0
-195 -200 0
-195 -201 0
-195 -202 0
-195 -203 0
-195 -204 0
-195 -205 0
-195 -206 0
-195 -207 0
-195 -208 0
-196 -197 0
-196 -198 0
-196 -199 0
-196 -200 0
-196 -201 0
-196 -202 0
-196 -203 0
-196 -204 0
-196 -205 0
-196 -206 0
-196 -207 0
-196 -208 0
-197 -198 0
-197 -199 0
-197 -200 0
-197 -201 0
-197 -202 0
-197 -203 0
-197 -204 0
-197 -205 0
-197 -206 0
-197 -207 0
-197 -208 0
-198 -199 0
-198 -200 0
-198 -201 0
-198 -202 0
-198 -203 0
-198 -204 0
-198 -205 0
-198 -206 0
-198 -207 0
-198 -208 0
-199 -200 0
-199 -201 0
-199 -202 0
-199 -203 0
-199 -204 0
-199 -205 0
-199 -206 0
-199 -207 0
-199 -208 0
-200 -201 0
-200 -202 0
-200 -203 0
-200 -204 0
-200 -205 0
-200 -206 0
-200 -207 0
-200 -208 0
-201 -202 0
-201 -203 0
-201 -204 0
-201 -205 0
-201 -206 0
-201 -207 0
-201 -208 0
-202 -203 0
-202 -204 0
-202 -205 0
-202 -206 0
-202 -207 0
-202 -208 0
-203 -204 0
-203 -205 0
-203 -206 0
-203 -207 0
-203 -208 0
-204 -205 0
-204 -206 0
-204 -207 0
-204 -208 0
-205 -206 0
-205 -207 0
-205 -208 0
-206 -207 0
-206 -208 0
-207 -208 0
193 194 195 196 197 198 199 200 201 202 203 204 205 206 207 208 0
-209 -210 0
-209 -211 0
-209 -212 0
-209 -213 0
-209 -214 0
-209 -215 0
-209 -216 0
-209 -217 0
-209 -218 0
-209 -219 0
-209 -220 0
-209 -221 0
-209 -222 0
-209 -223 0
-209 -224 0
-210 -211 0
-210 -212 0
-210 -213 0
-210 -214 0
-210 -215 0
-210 -216 0
-210 -217 0
-210 -218 0
-210 -219 0
-210 -220 0
-210 -221 0
-210 -222 0
-210 -223 0
-210 -224 0
-211 -212 0
-211 -213 0
-211 -214 0
-211 -215 0
-211 -216 0
-211 -217 0
-211 -218 0
-211 -219 0
-211 -220 0
-211 -221 0
-211 -222 0
-211 -223 0
-211 -224 0
-212 -213 0
-212 -214 0
-212 -215 0
-212 -216 0
-212 -217 0
-212 -218 0
-212 -219 0
-212 -220 0
-212 -221 0
-212 -222 0
-212 -223 0
-212 -224 0
-213 -214 0
-213 -215 0
-213 -216 0
-213 -217 0
-213 -218 0
-213 -219 0
-213 -220 0
-213 -221 0
-213 -222 0
-213 -223 0
-213 -224 0
-214 -215 0
-214 -216 0
-214 -217 0
-214 -218 0
-214 -219 0
-214 -220 0
-214 -221 0
-214 -222 0
-214 -223 0
-214 -224 0
-215 -216 0
-215 -217 0
-215 -218 0
-215 -219 0
-215 -220 0
-215 -221 0
-215 -222 0
-215 -223 0
-215 -224 0
-216 -217 0
-216 -218 0
-216 -219 0
-216 -220 0
-216 -221 0
-216 -222 0
-216 -223 0
-216 -224 0
-217 -218 0
-217 -219 0
-217 -220 0
-217 -221 0
-217 -222 0
-217 -223 0
-217 -224 0
-218 -219 0
-218 -220 0
-218 -221 0
-218 -222 0
-218 -223 0
-218 -224 0
-219 -220 0
-219 -221 0
-219 -222 0
-219 -223 0
-219 -224 0
-220 -221 0
-220 -222 0
-220 -223 0
-220 -224 0
-221 -222 0
-221 -223 0
-221 -224 0
-222 -223 0
-222 -224 0
-223 -224 0
209 210 211 212 213 214 215 216 217 218 219 220 221 222 223 224 0
-225 -226 0
-225 -227 0
-225 -228 0
-225 -229 0
-225 -230 0
-225 -231 0
-225 -232 0
-225 -233 0
-225 -234 0
-225 -235 0
-225 -236 0
-225 -237 0
-225 -238 0
-225 -239 0
-225 -240 0
-226 -227 0
-226 -228 0
-226 -229 0
-226 -230 0
-226 -231 0
-226 -232 0
-226 -233 0
-226 -234 0
-226 -235 0
-226 -236 0
-226 -237 0
-226 -238 0
-226 -239 0
-226 -240 0
-227 -228 0
-227 -229 0
-227 -230 0
-227 -231 0
-227 -232 0
-227 -233 0
-227 -234 0
-227 -235 0
-227 -236 0
-227 -237 0
-227 -238 0
-227 -239 0
-227 -240 0
-228 -229 0
-228 -230 0
-228 -231 0
-228 -232 0
-228 -233 0
-228 -234 0
-228 -235 0
-228 -236 0
-228 -237 0
-228 -238 0
-228 -239 0
-228 -240 0
-229 -230 0
-229 -231 0
-229 -232 0
-229 -233 0
-229 -234 0
-229 -235 0
-229 -236 0
-229 -237 0
-229 -238 0
-229 -239 0
-229 -240 0
-230 -231 0
-230 -232 0
-230 -233 0
-230 -234 0
-230 -235 0
-230 -236 0
-230 -237 0
-230 -238 0
-230 -239 0
-230 -240 0
-231 -232 0
-231 -233 0
-231 -234 0
-231 -235 0
-231 -236 0
-231 -237 0
-231 -238 0
-231 -239 0
-231 -240 0
-232 -233 0
-232 -234 0
-232 -235 0
-232 -236 0
-232 -237 0
-232 -238 0
-232 -239 0
-232 -240 0
-233 -234 0
-233 -235 0
-233 -236 0
-233 -237 0
-233 -238 0
-233 -239 0
-233 -240 0
-234 -235 0
-234 -236 0
-234 -237 0
-234 -238 0
-234 -239 0
-234 -240 0
-235 -236 0
-235 -237 0
-235 -238 0
-235 -239 0
-235 -240 0
-236 -237 0
-236 -238 0
-236 -239 0
-236 -240 0
-237 -238 0
-237 -239 0
-237 -240 0
-238 -239 0
-238 -240 0
-239 -240 0
225 226 227 228 229 230 231 232 233 234 235 236 237 238 239 240 0
-241 -242 0
-241 -243 0
-241 -244 0
-241 -245 0
-241 -246 0
-241 -247 0
-241 -248 0
-241 -249 0
-241 -250 0
-241 -251 0
-241 -252 0
-241 -253 0
-241 -254 0
-241 -255 0
-241 -256 0
-242 -243 0
-242 -244 0
-242 -245 0
-242 -246 0
-242 -247 0
-242 -248 0
-242 -249 0
-242 -250 0
-242 -251 0
-242 -252 0
-242 -253 0
-242 -254 0
-242 -255 0
-242 -256 0
-243 -244 0
-243 -245 0
-243 -246 0
-243 -247 0
-243 -248 0
-243 -249 0
-243 -250 0
-243 -251 0
-243 -252 0
-243 -253 0
-243 -254 0
-243 -255 0
-243 -256 0
-244 -245 0
-244 -246 0
-244 -247 0
-244 -248 0
-244 -249 0
-244 -250 0
-244 -251 0
-244 -252 0
-244 -253 0
-244 -254 0
-244 -255 0
-244 -256 0
-245 -246 0
-245 -247 0
-245 -248 0
-245 -249 0
-245 -250 0
-245 -251 0
-245 -252 0
-245 -253 0
-245 -254 0
-245 -255 0
-245 -256 0
-246 -247 0
-246 -248 0
-246 -249 0
-246 -250 0
-246 -251 0
-246 -252 0
-246 -253 0
-246 -254 0
-246 -255 0
-246 -256 0
-247 -248 0
-247 -249 0
-247 -250 0
-247 -251 0
-247 -252 0
-247 -253 0
-247 -254 0
-247 -255 0
-247 -256 0
-248 -249 0
-248 -250 0
-248 -251 0
-248 -252 0
-248 -253 0
-248 -254 0
-248 -255 0
-248 -256 0
-249 -250 0
-249 -251 0
-249 -252 0
-249 -253 0
-249 -254 0
-249 -255 0
-249 -256 0
-250 -251 0
-250 -252 0
-250 -253 0
-250 -254 0
-250 -255 0
-250 -256 0
-251 -252 0
-251 -253 0
-251 -254 0
-251 -255 0
-251 -256 0
-252 -253 0
-252 -254 0
-252 -255 0
-252 -256 0
-253 -254 0
-253 -255 0
-253 -256 0
-254 -255 0
-254 -256 0
-255 -256 0
241 242 243 244 245 246 247 248 249 250 251 252 253 254 255 256 0
-1 -17 0
-1 -33 0
-1 -49 0
-1 -65 0
-1 -81 0
-1 -97 0
-1 -113 0
-1 -129 0
-1 -145 0
-1 -161 0
-1 -177 0
-1 -193 0
-1 -209 0
-1 -225 0
-1 -241 0
-17 -33 0
-17 -49 0
-17 -65 0
-17 -81 0
-17 -97 0
-17 -113 0
-17 -129 0
-17 -145 0
-17 -161 0
-17 -177 0
-17 -193 0
-17 -209 0
-17 -225 0
-17 -241 0
-33 -49 0
-33 -65 0
-33 -81 0
-33 -97 0
-33 -113 0
-33 -129 0
-33 -145 0
-33 -161 0
-33 -177 0
-33 -193 0
-33 -209 0
-33 -225 0
-33 -241 0
-49 -65 0
-49 -81 0
-49 -97 0
-49 -113 0
-49 -129 0
-49 -145 0
-49 -161 0
-49 -177 0
-49 -193 0
-49 -209 0
-49 -225 0
-49 -241 0
-65 -81 0
-65 -97 0
-65 -113 0
-65 -129 0
-65 -145 0
-65 -161 0
-65 -177 0
-65 -193 0
-65 -209 0
-65 -225 0
-65 -241 0
-81 -97 0
-81 -113 0
-81 -129 0
-81 -145 0
-81 -161 0
-81 -177 0
-81 -193 0
-81 -209 0
-81 -225 0
-81 -241 0
-97 -113 0
-97 -129 0
-97 -145 0
-97 -161 0
-97 -177 0
-97 -193 0
-97 -209 0
-97 -225 0
-97 -241 0
-113 -129 0
-113 -145 0
-113 -161 0
-113 -177 0
-113 -193 0
-113 -209 0
-113 -225 0
-113 -241 0
-129 -145 0
-129 -161 0
-129 -177 0
-129 -193 0
-129 -209 0
-129 -225 0
-129 -241 0
-145 -161 0
-145 -177 0
-145 -193 0
-145 -209 0
-145 -225 0
-145 -241 0
-161 -177 0
-161 -193 0
-161 -209 0
-161 -225 0
-161 -241 0
-177 -193 0
-177 -209 0
-177 -225 0
-177 -241 0
-193 -209 0
-193 -225 0
-193 -241 0
-209 -225 0
-209 -241 0
-225 -241 0
-2 -18 0
-2 -34 0
-2 -50 0
-2 -66 0
-2 -82 0
-2 -98 0
-2 -114 0
-2 -130 0
-2 -146 0
-2 -162 0
-2 -178 0
-2 -194 0
-2 -210 0
-2 -226 0
-2 -242 0
-18 -34 0
-18 -50 0
-18 -66 0
-18 -82 0
-18 -98 0
-18 -114 0
-18 -130 0
-18 -146 0
-18 -162 0
-18 -178 0
-18 -194 0
-18 -210 0
-18 -226 0
-18 -242 0
-34 -50 0
-34 -66 0
-34 -82 0
-34 -98 0
-34 -114 0
-34 -130 0
-34 -146 0
-34 -162 0
-34 -178 0
-34 -194 0
-34 -210 0
-34 -226 0
-34 -242 0
-50 -66 0
-50 -82 0
-50 -98 0
-50 -114 0
-50 -130 0
-50 -146 0
-50 -162 0
-50 -178 0
-50 -194 0
-50 -210 0
-50 -226 0
-50 -242 0
-66 -82 0
-66 -98 0
-66 -114 0
-66 -130 0
-66 -146 0
-66 -162 0
-66 -178 0
-66 -194 0
-66 -210 0
-66 -226 0
-66 -242 0
-82 -98 0
-82 -114 0
-82 -130 0
-82 -146 0
-82 -162 0
-82 -178 0
-82 -194 0
-82 -210 0
-82 -226 0
-82 -242 0
-98 -114 0
-98 -130 0
-98 -146 0
-98 -162 0
-98 -178 0
-98 -194 0
-98 -210 0
-98 -226 0
-98 -242 0
-114 -130 0
-114 -146 0
-114 -162 0
-114 -178 0
-114 -194 0
-114 -210 0
-114 -226 0
-114 -242 0
-130 -146 0
-130 -162 0
-130 -178 0
-130 -194 0
-130 -210 0
-130 -226 0
-130 -242 0
-146 -162 0
-146 -178 0
-146 -194 0
-146 -210 0
-146 -226 0
-146 -242 0
-162 -178 0
-162 -194 0
-162 -210 0
-162 -226 0
-162 -242 0
-178 -194 0
-178 -210 0
-178 -226 0
-178 -242 0
-194 -210 0
-194 -226 0
-194 -242 0
-210 -226 0
-210 -242 0
-226 -242 0
-3 -19 0
-3 -35 0
-3 -51 0
-3 -67 0
-3 -83 0
-3 -99 0
-3 -115 0
-3 -131 0
-3 -147 0
-3 -163 0
-3 -179 0
-3 -195 0
-3 -211 0
-3 -227 0
-3 -243 0
-19 -35 0
-19 -51 0
-19 -67 0
-19 -83 0
-19 -99 0
-19 -115 0
-19 -131 0
-19 -147 0
-19 -163 0
-19 -179 0
-19 -195 0
-19 -211 0
-19 -227 0
-19 -243 0
-35 -51 0
-35 -67 0
-35 -83 0
-35 -99 0
-35 -115 0
-35 -131 0
-35 -147 0
-35 -163 0
-35 -179 0
-35 -195 0
-35 -211 0
-35 -227 0
-35 -243 0
-51 -67 0
-51 -83 0
-51 -99 0
-51 -115 0
-51 -131 0
-51 -147 0
-51 -163 0
-51 -179 0
-51 -195 0
-51 -211 0
-51 -227 0
-51 -243 0
-67 -83 0
-67 -99 0
-67 -115 0
-67 -131 0
-67 -147 0
-67 -163 0
-67 -179 0
-67 -195 0
-67 -211 0
-67 -227 0
-67 -243 0
-83 -99 0
-83 -115 0
-83 -131 0
-83 -147 0
-83 -163 0
-83 -179 0
-83 -195 0
-83 -211 0
-83 -227 0
-83 -243 0
-99 -115 0
-99 -131 0
-99 -147 0
-99 -163 0
-99 -179 0
-99 -195 0
-99 -211 0
-99 -227 0
-99 -243 0
-115 -131 0
-115 -147 0
-115 -163 0
-115 -179 0
-115 -195 0
-115 -211 0
-115 -227 0
-115 -243 0
-131 -147 0
-131 -163 0
-131 -179 0
-131 -195 0
-131 -211 0
-131 -227 0
-131 -243 0
-147 -163 0
-147 -179 0
-147 -195 0
-147 -211 0
-147 -227 0
-147 -243 0
-163 -179 0
-163 -195 0
-163 -211 0
-163 -227 0
-163 -243 0
-179 -195 0
-179 -211 0
-179 -227 0
-179 -243 0
-195 -211 0
-195 -227 0
-195 -243 0
-211 -227 0
-211 -243 0
-227 -243 0
-4 -20 0
-4 -36 0
-4 -52 0
-4 -68 0
-4 -84 0
-4 -100 0
-4 -116 0
-4 -132 0
-4 -148 0
-4 -164 0
-4 -180 0
-4 -196 0
-4 -212 0
-4 -228 0
-4 -244 0
-20 -36 0
-20 -52 0
-20 -68 0
-20 -84 0
-20 -100 0
-20 -116 0
-20 -132 0
-20 -148 0
-20 -164 0
-20 -180 0
-20 -196 0
-20 -212 0
-20 -228 0
-20 -244 0
-36 -52 0
-36 -68 0
-36 -84 0
-36 -100 0
-36 -116 0
-36 -132 0
-36 -148 0
-36 -164 0
-36 -180 0
-36 -196 0
-36 -212 0
-36 -228 0
-36 -244 0
-52 -68 0
-52 -84 0
-52 -100 0
-52 -116 0
-52 -132 0
-52 -148 0
-52 -164 0
-52 -180 0
-52 -196 0
-52 -212 0
-52 -228 0
-52 -244 0
-68 -84 0
-68 -100 0
-68 -116 0
-68 -132 0
-68 -148 0
-68 -164 0
-68 -180 0
-68 -196 0
-68 -212 0
-68 -228 0
-68 -244 0
-84 -100 0
-84 -116 0
-84 -132 0
-84 -148 0
-84 -164 0
-84 -180 0
-84 -196 0
-84 -212 0
-84 -228 0
-84 -244 0
-100 -116 0
-100 -132 0
-100 -148 0
-100 -164 0
-100 -180 0
-100 -196 0
-100 -212 0
-100 -228 0
-100 -244 0
-116 -132 0
-116 -148 0
-116 -164 0
-116 -180 0
-116 -196 0
-116 -212 0
-116 -228 0
-116 -244 0
-132 -148 0
-132 -164 0
-132 -180 0
-132 -196 0
-132 -212 0
-132 -228 0
-132 -244 0
-148 -164 0
-148 -180 0
-148 -196 0
-148 -212 0
-148 -228 0
-148 -244 0
-164 -180 0
-164 -196 0
-164 -212 0
-164 -228 0
-164 -244 0
-180 -196 0
-180 -212 0
-180 -228 0
-180 -244 0
-196 -212 0
-196 -228 0
-196 -244 0
-212 -228 0
-212 -244 0
-228 -244 0
-5 -21 0
-5 -37 0
-5 -53 0
-5 -69 0
-5 -85 0
-5 -101 0
-5 -117 0
-5 -133 0
-5 -149 0
-5 -165 0
-5 -181 0
-5 -197 0
-5 -213 0
-5 -229 0
-5 -245 0
-21 -37 0
-21 -53 0
-21 -69 0
-21 -85 0
-21 -101 0
-21 -117 0
-21 -133 0
-21 -149 0
-21 -165 0
-21 -181 0
-21 -197 0
-21 -213 0
-21 -229 0
-21 -245 0
-37 -53 0
-37 -69 0
-37 -85 0
-37 -101 0
-37 -117 0
-37 -133 0
-37 -149 0
-37 -165 0
-37 -181 0
-37 -197 0
-37 -213 0
-37 -229 0
-37 -245 0
-53 -69 0
-53 -85 0
-53 -101 0
-53 -117 0
-53 -133 0
-53 -149 0
-53 -165 0
-53 -181 0
-53 -197 0
-53 -213 0
-53 -229 0
-53 -245 0
-69 -85 0
-69 -101 0
-69 -117 0
-69 -133 0
-69 -149 0
-69 -165 0
-69 -181 0
-69 -197 0
-69 -213 0
-69 -229 0
-69 -245 0
-85 -101 0
-85 -117 0
-85 -133 0
-85 -149 0
-85 -165 0
-85 -181 0
-85 -197 0
-85 -213 0
-85 -229 0
-85 -245 0
-101 -117 0
-101 -133 0
-101 -149 0
-101 -165 0
-101 -181 0
-101 -197 0
-101 -213 0
-101 -229 0
-101 -245 0
-117 -133 0
-117 -149 0
-117 -165 0
-117 -181 0
-117 -197 0
-117 -213 0
-117 -229 0
-117 -245 0
-133 -149 0
-133 -165 0
-133 -181 0
-133 -197 0
-133 -213 0
-133 -229 0
-133 -245 0
-149 -165 0
-149 -181 0
-149 -197 0
-149 -213 0
-149 -229 0
-149 -245 0
-165 -181 0
-165 -197 0
-165 -213 0
-165 -229 0
-165 -245 0
-181 -197 0
-181 -213 0
-181 -229 0
-181 -245 0
-197 -213 0
-197 -229 0
-197 -245 0
-213 -229 0
-213 -245 0
-229 -245 0
-6 -22 0
-6 -38 0
-6 -54 0
-6 -70 0
-6 -86 0
-6 -102 0
-6 -118 0
-6 -134 0
-6 -150 0
-6 -166 0
-6 -182 0
-6 -198 0
-6 -214 0
-6 -230 0
-6 -246 0
-22 -38 0
-22 -54 0
-22 -70 0
-22 -86 0
-22 -102 0
-22 -118 0
-22 -134 0
-22 -150 0
-22 -166 0
-22 -182 0
-22 -198 0
-22 -214 0
-22 -230 0
-22 -246 0
-38 -54 0
-38 -70 0
-38 -86 0
-38 -102 0
-38 -118 0
-38 -134 0
-38 -150 0
-38 -166 0
-38 -182 0
-38 -198 0
-38 -214 0
-38 -230 0
-38 -246 0
-54 -70 0
-54 -86 0
-54 -102 0
-54 -118 0
-54 -134 0
-54 -150 0
-54 -166 0
-54 -182 0
-54 -198 0
-54 -214 0
-54 -230 0
-54 -246 0
-70 -86 0
-70 -102 0
-70 -118 0
-70 -134 0
-70 -150 0
-70 -166 0
-70 -182 0
-70 -198 0
-70 -214 0
-70 -230 0
-70 -246 0
-86 -102 0
-86 -118 0
-86 -134 0
-86 -150 0
-86 -166 0
-86 -182 0
-86 -198 0
-86 -214 0
-86 -230 0
-86 -246 0
-102 -118 0
-102 -134 0
-102 -150 0
-102 -166 0
-102 -182 0
-102 -198 0
-102 -214 0
-102 -230 0
-102 -246 0
-118 -134 0
-118 -150 0
-118 -166 0
-118 -182 0
-118 -198 0
-118 -214 0
-118 -230 0
-118 -246 0
-134 -150 0
-134 -166 0
-134 -182 0
-134 -198 0
-134 -214 0
-134 -230 0
-134 -246 0
-150 -166 0
-150 -182 0
-150 -198 0
-150 -214 0
-150 -230 0
-150 -246 0
-166 -182 0
-166 -198 0
-166 -214 0
-166 -230 0
-166 -246 0
-182 -198 0
-182 -214 0
-182 -230 0
-182 -246 0
-198 -214 0
-198 -230 0
-198 -246 0
-214 -230 0
-214 -246 0
-230 -246 0
-7 -23 0
-7 -39 0
-7 -55 0
-7 -71 0
-7 -87 0
-7 -103 0
-7 -119 0
-7 -135 0
-7 -151 0
-7 -167 0
-7 -183 0
-7 -199 0
-7 -215 0
-7 -231 0
-7 -247 0
-23 -39 0
-23 -55 0
-23 -71 0
-23 -87 0
-23 -103 0
-23 -119 0
-23 -135 0
-23 -151 0
-23 -167 0
-23 -183 0
-23 -199 0
-23 -215 0
-23 -231 0
-23 -247 0
-39 -55 0
-39 -71 0
-39 -87 0
-39 -103 0
-39 -119 0
-39 -135 0
-39 -151 0
-39 -167 0
-39 -183 0
-39 -199 0
-39 -215 0
-39 -231 0
-39 -247 0
-55 -71 0
-55 -87 0
-55 -103 0
-55 -119 0
-55 -135 0
-55 -151 0
-55 -167 0
-55 -183 0
-55 -199 0
-55 -215 0
-55 -231 0
-55 -247 0
-71 -87 0
-71 -103 0
-71 -119 0
-71 -135 0
-71 -151 0
-71 -167 0
-71 -183 0
-71 -199 0
-71 -215 0
-71 -231 0
-71 -247 0
-87 -103 0
-87 -119 0
-87 -135 0
-87 -151 0
-87 -167 0
-87 -183 0
-87 -199 0
-87 -215 0
-87 -231 0
-87 -247 0
-103 -119 0
-103 -135 0
-103 -151 0
-103 -167 0
-103 -183 0
-103 -199 0
-103 -215 0
-103 -231 0
-103 -247 0
-119 -135 0
-119 -151 0
-119 -167 0
-119 -183 0
-119 -199 0
-119 -215 0
-119 -231 0
-119 -247 0
-135 -151 0
-135 -167 0
-135 -183 0
-135 -199 0
-135 -215 0
-135 -231 0
-135 -247 0
-151 -167 0
-151 -183 0
-151 -199 0
-151 -215 0
-151 -231 0
-151 -247 0
-167 -183 0
-167 -199 0
-167 -215 0
-167 -231 0
-167 -247 0
-183 -199 0
-183 -215 0
-183 -231 0
-183 -247 0
-199 -215 0
-199 -231 0
-199 -247 0
-215 -231 0
-215 -247 0
-231 -247 0
-8 -24 0
-8 -40 0
-8 -56 0
-8 -72 0
-8 -88 0
-8 -104 0
-8 -120 0
-8 -136 0
-8 -152 0
-8 -168 0
-8 -184 0
-8 -200 0
-8 -216 0
-8 -232 0
-8 -248 0
-24 -40 0
-24 -56 0
-24 -72 0
-24 -88 0
-24 -104 0
-24 -120 0
-24 -136 0
-24 -152 0
-24 -168 0
-24 -184 0
-24 -200 0
-24 -216 0
-24 -232 0
-24 -248 0
-40 -56 0
-40 -72 0
-40 -88 0
-40 -104 0
-40 -120 0
-40 -136 0
-40 -152 0
-40 -168 0
-40 -184 0
-40 -200 0
-40 -216 0
-40 -232 0
-40 -248 0
-56 -72 0
-56 -88 0
-56 -104 0
-56 -120 0
-56 -136 0
-56 -152 0
-56 -168 0
-56 -184 0
-56 -200 0
-56 -216 0
-56 -232 0
-56 -248 0
-72 -88 0
-72 -104 0
-72 -120 0
-72 -136 0
-72 -152 0
-72 -168 0
-72 -184 0
-72 -200 0
-72 -216 0
-72 -232 0
-72 -248 0
-88 -104 0
-88 -120 0
-88 -136 0
-88 -152 0
-88 -168 0
-88 -184 0
-88 -200 0
-88 -216 0
-88 -232 0
-88 -248 0
-104 -120 0
-104 -136 0
-104 -152 0
-104 -168 0
-104 -184 0
-104 -200 0
-104 -216 0
-104 -232 0
-104 -248 0
-120 -136 0
-120 -152 0
-120 -168 0
-120 -184 0
-120 -200 0
-120 -216 0
-120 -232 0
-120 -248 0
-136 -152 0
-136 -168 0
-136 -184 0
-136 -200 0
-136 -216 0
-136 -232 0
-136 -248 0
-152 -168 0
-152 -184 0
-152 -200 0
-152 -216 0
-152 -232 0
-152 -248 0
-168 -184 0
-168 -200 0
-168 -216 0
-168 -232 0
-168 -248 0
-184 -200 0
-184 -216 0
-184 -232 0
-184 -248 0
-200 -216 0
-200 -232 0
-200 -248 0
-216 -232 0
-216 -248 0
-232 -248 0
-9 -25 0
-9 -41 0
-9 -57 0
-9 -73 0
-9 -89 0
-9 -105 0
-9 -121 0
-9 -137 0
-9 -153 0
-9 -169 0
-9 -185 0
-9 -201 0
-9 -217 0
-9 -233 0
-9 -249 0
-25 -41 0
-25 -57 0
-25 -73 0
-25 -89 0
-25 -105 0
-25 -121 0
-25 -137 0
-25 -153 0
-25 -169 0
-25 -185 0
-25 -201 0
-25 -217 0
-25 -233 0
-25 -249 0
-41 -57 0
-41 -73 0
-41 -89 0
-41 -105 0
-41 -121 0
-41 -137 0
-41 -153 0
-41 -169 0
-41 -185 0
-41 -201 0
-41 -217 0
-41 -233 0
-41 -249 0
-57 -73 0
-57 -89 0
-57 -105 0
-57 -121 0
-57 -137 0
-57 -153 0
-57 -169 0
-57 -185 0
-57 -201 0
-57 -217 0
-57 -233 0
-57 -249 0
-73 -89 0
-73 -105 0
-73 -121 0
-73 -137 0
-73 -153 0
-73 -169 0
-73 -185 0
-73 -201 0
-73 -217 0
-73 -233 0
-73 -249 0
-89 -105 0
-89 -121 0
-89 -137 0
-89 -153 0
-89 -169 0
-89 -185 0
-89 -201 0
-89 -217 0
-89 -233 0
-89 -249 0
-105 -121 0
-105 -137 0
-105 -153 0
-105 -169 0
-105 -185 0
-105 -201 0
-105 -217 0
-105 -233 0
-105 -249 0
-121 -137 0
-121 -153 0
-121 -169 0
-121 -185 0
-121 -201 0
-121 -217 0
-121 -233 0
-121 -249 0
-137 -153 0
-137 -169 0
-137 -185 0
-137 -201 0
-137 -217 0
-137 -233 0
-137 -249 0
-153 -169 0
-153 -185 0
-153 -201 0
-153 -217 0
-153 -233 0
-153 -249 0
-169 -185 0
-169 -201 0
-169 -217 0
-169 -233 0
-169 -249 0
-185 -201 0
-185 -217 0
-185 -233 0
-185 -249 0
-201 -217 0
-201 -233 0
-201 -249 0
-217 -233 0
-217 -249 0
-233 -249 0
-10 -26 0
-10 -42 0
-10 -58 0
-10 -74 0
-10 -90 0
-10 -106 0
-10 -122 0
-10 -138 0
-10 -154 0
-10 -170 0
-10 -186 0
-10 -202 0
-10 -218 0
-10 -234 0
-10 -250 0
-26 -42 0
-26 -58 0
-26 -74 0
-26 -90 0
-26 -106 0
-26 -122 0
-26 -138 0
-26 -154 0
-26 -170 0
-26 -186 0
-26 -202 0
-26 -218 0
-26 -234 0
-26 -250 0
-42 -58 0
-42 -74 0
-42 -90 0
-42 -106 0
-42 -122 0
-42 -138 0
-42 -154 0
-42 -170 0
-42 -186 0
-42 -202 0
-42 -218 0
-42 -234 0
-42 -250 0
-58 -74 0
-58 -90 0
-58 -106 0
-58 -122 0
-58 -138 0
-58 -154 0
-58 -170 0
-58 -186 0
-58 -202 0
-58 -218 0
-58 -234 0
-58 -250 0
-74 -90 0
-74 -106 0
-74 -122 0
-74 -138 0
-74 -154 0
-74 -170 0
-74 -186 0
-74 -202 0
-74 -218 0
-74 -234 0
-74 -250 0
-90 -106 0
-90 -122 0
-90 -138 0
-90 -154 0
-90 -170 0
-90 -186 0
-90 -202 0
-90 -218 0
-90 -234 0
-90 -250 0
-106 -122 0
-106 -138 0
-106 -154 0
-106 -170 0
-106 -186 0
-106 -202 0
-106 -218 0
-106 -234 0
-106 -250 0
-122 -138 0
-122 -154 0
-122 -170 0
-122 -186 0
-122 -202 0
-122 -218 0
-122 -234 0
-122 -250 0
-138 -154 0
-138 -170 0
-138 -186 0
-138 -202 0
-138 -218 0
-138 -234 0
-138 -250 0
-154 -170 0
-154 -186 0
-154 -202 0
-154 -218 0
-154 -234 0
-154 -250 0
-170 -186 0
-170 -202 0
-170 -218 0
-170 -234 0
-170 -250 0
-186 -202 0
-186 -218 0
-186 -234 0
-186 -250 0
-202 -218 0
-202 -234 0
-202 -250 0
-218 -234 0
-218 -250 0
-234 -250 0
-11 -27 0
-11 -43 0
-11 -59 0
-11 -75 0
-11 -91 0
-11 -107 0
-11 -123 0
-11 -139 0
-11 -155 0
-11 -171 0
-11 -187 0
-11 -203 0
-11 -219 0
-11 -235 0
-11 -251 0
-27 -43 0
-27 -59 0
-27 -75 0
-27 -91 0
-27 -107 0
-27 -123 0
-27 -139 0
-27 -155 0
-27 -171 0
-27 -187 0
-27 -203 0
-27 -219 0
-27 -235 0
-27 -251 0
-43 -59 0
-43 -75 0
-43 -91 0
-43 -107 0
-43 -123 0
-43 -139 0
-43 -155 0
-43 -171 0
-43 -187 0
-43 -203 0
-43 -219 0
-43 -235 0
-43 -251 0
-59 -75 0
-59 -91 0
-59 -107 0
-59 -123 0
-59 -139 0
-59 -155 0
-59 -171 0
-59 -187 0
-59 -203 0
-59 -219 0
-59 -235 0
-59 -251 0
-75 -91 0
-75 -107 0
-75 -123 0
-75 -139 0
-75 -155 0
-75 -171 0
-75 -187 0
-75 -203 0
-75 -219 0
-75 -235 0
-75 -251 0
-91 -107 0
-91 -123 0
-91 -139 0
-91 -155 0
-91 -171 0
-91 -187 0
-91 -203 0
-91 -219 0
-91 -235 0
-91 -251 0
-107 -123 0
-107 -139 0
-107 -155 0
-107 -171 0
-107 -187 0
-107 -203 0
-107 -219 0
-107 -235 0
-107 -251 0
-123 -139 0
-123 -155 0
-123 -171 0
-123 -187 0
-123 -203 0
-123 -219 0
-123 -235 0
-123 -251 0
-139 -155 0
-139 -171 0
-139 -187 0
-139 -203 0
-139 -219 0
-139 -235 0
-139 -251 0
-155 -171 0
-155 -187 0
-155 -203 0
-155 -219 0
-155 -235 0
-155 -251 0
-171 -187 0
-171 -203 0
-171 -219 0
-171 -235 0
-171 -251 0
-187 -203 0
-187 -219 0
-187 -235 0
-187 -251 0
-203 -219 0
-203 -235 0
-203 -251 0
-219 -235 0
-219 -251 0
-235 -251 0
-12 -28 0
-12 -44 0
-12 -60 0
-12 -76 0
-12 -92 0
-12 -108 0
-12 -124 0
-12 -140 0
-12 -156 0
-12 -172 0
-12 -188 0
-12 -204 0
-12 -220 0
-12 -236 0
-12 -252 0
-28 -44 0
-28 -60 0
-28 -76 0
-28 -92 0
-28 -108 0
-28 -124 0
-28 -140 0
-28 -156 0
-28 -172 0
-28 -188 0
-28 -204 0
-28 -220 0
-28 -236 0
-28 -252 0
-44 -60 0
-44 -76 0
-44 -92 0
-44 -108 0
-44 -124 0
-44 -140 0
-44 -156 0
-44 -172 0
-44 -188 0
-44 -204 0
-44 -220 0
-44 -236 0
-44 -252 0
-60 -76 0
-60 -92 0
-60 -108 0
-60 -124 0
-60 -140 0
-60 -156 0
-60 -172 0
-60 -188 0
-60 -204 0
-60 -220 0
-60 -236 0
-60 -252 0
-76 -92 0
-76 -108 0
-76 -124 0
-76 -140 0
-76 -156 0
-76 -172 0
-76 -188 0
-76 -204 0
-76 -220 0
-76 -236 0
-76 -252 0
-92 -108 0
-92 -124 0
-92 -140 0
-92 -156 0
-92 -172 0
-92 -188 0
-92 -204 0
-92 -220 0
-92 -236 0
-92 -252 0
-108 -124 0
-108 -140 0
-108 -156 0
-108 -172 0
-108 -188 0
-108 -204 0
-108 -220 0
-108 -236 0
-108 -252 0
-124 -140 0
-124 -156 0
-124 -172 0
-124 -188 0
-124 -204 0
-124 -220 0
-124 -236 0
-124 -252 0
-140 -156 0
-140 -172 0
-140 -188 0
-140 -204 0
-140 -220 0
-140 -236 0
-140 -252 0
-156 -172 0
-156 -188 0
-156 -204 0
-156 -220 0
-156 -236 0
-156 -252 0
-172 -188 0
-172 -204 0
-172 -220 0
-172 -236 0
-172 -252 0
-188 -204 0
-188 -220 0
-188 -236 0
-188 -252 0
-204 -220 0
-204 -236 0
-204 -252 0
-220 -236 0
-220 -252 0
-236 -252 0
-13 -29 0
-13 -45 0
-13 -61 0
-13 -77 0
-13 -93 0
-13 -109 0
-13 -125 0
-13 -141 0
-13 -157 0
-13 -173 0
-13 -189 0
-13 -205 0
-13 -221 0
-13 -237 0
-13 -253 0
-29 -45 0
-29 -61 0
-29 -77 0
-29 -93 0
-29 -109 0
-29 -125 0
-29 -141 0
-29 -157 0
-29 -173 0
-29 -189 0
-29 -205 0
-29 -221 0
-29 -237 0
-29 -253 0
-45 -61 0
-45 -77 0
-45 -93 0
-45 -109 0
-45 -125 0
-45 -141 0
-45 -157 0
-45 -173 0
-45 -189 0
-45 -205 0
-45 -221 0
-45 -237 0
-45 -253 0
-61 -77 0
-61 -93 0
-61 -109 0
-61 -125 0
-61 -141 0
-61 -157 0
-61 -173 0
-61 -189 0
-61 -205 0
-61 -221 0
-61 -237 0
-61 -253 0
-77 -93 0
-77 -109 0
-77 -125 0
-77 -141 0
-77 -157 0
-77 -173 0
-77 -189 0
-77 -205 0
-77 -221 0
-77 -237 0
-77 -253 0
-93 -109 0
-93 -125 0
-93 -141 0
-93 -157 0
-93 -173 0
-93 -189 0
-93 -205 0
-93 -221 0
-93 -237 0
-93 -253 0
-109 -125 0
-109 -141 0
-109 -157 0
-109 -173 0
-109 -189 0
-109 -205 0
-109 -221 0
-109 -237 0
-109 -253 0
-125 -141 0
-125 -157 0
-125 -173 0
-125 -189 0
-125 -205 0
-125 -221 0
-125 -237 0
-125 -253 0
-141 -157 0
-141 -173 0
-141 -189 0
-141 -205 0
-141 -221 0
-141 -237 0
-141 -253 0
-157 -173 0
-157 -189 0
-157 -205 0
-157 -221 0
-157 -237 0
-157 -253 0
-173 -189 0
-173 -205 0
-173 -221 0
-173 -237 0
-173 -253 0
-189 -205 0
-189 -221 0
-189 -237 0
-189 -253 0
-205 -221 0
-205 -237 0
-205 -253 0
-221 -237 0
-221 -253 0
-237 -253 0
-14 -30 0
-14 -46 0
-14 -62 0
-14 -78 0
-14 -94 0
-14 -110 0
-14 -126 0
-14 -142 0
-14 -158 0
-14 -174 0
-14 -190 0
-14 -206 0
-14 -222 0
-14 -238 0
-14 -254 0
-30 -46 0
-30 -62 0
-30 -78 0
-30 -94 0
-30 -110 0
-30 -126 0
-30 -142 0
-30 -158 0
-30 -174 0
-30 -190 0
-30 -206 0
-30 -222 0
-30 -238 0
-30 -254 0
-46 -62 0
-46 -78 0
-46 -94 0
-46 -110 0
-46 -126 0
-46 -142 0
-46 -158 0
-46 -174 0
-46 -190 0
-46 -206 0
-46 -222 0
-46 -238 0
-46 -254 0
-62 -78 0
-62 -94 0
-62 -110 0
-62 -126 0
-62 -142 0
-62 -158 0
-62 -174 0
-62 -190 0
-62 -206 0
-62 -222 0
-62 -238 0
-62 -254 0
-78 -94 0
-78 -110 0
-78 -126 0
-78 -142 0
-78 -158 0
-78 -174 0
-78 -190 0
-78 -206 0
-78 -222 0
-78 -238 0
-78 -254 0
-94 -110 0
-94 -126 0
-94 -142 0
-94 -158 0
-94 -174 0
-94 -190 0
-94 -206 0
-94 -222 0
-94 -238 0
-94 -254 0
-110 -126 0
-110 -142 0
-110 -158 0
-110 -174 0
-110 -190 0
-110 -206 0
-110 -222 0
-110 -238 0
-110 -254 0
-126 -142 0
-126 -158 0
-126 -174 0
-126 -190 0
-126 -206 0
-126 -222 0
-126 -238 0
-126 -254 0
-142 -158 0
-142 -174 0
-142 -190 0
-142 -206 0
-142 -222 0
-142 -238 0
-142 -254 0
-158 -174 0
-158 -190 0
-158 -206 0
-158 -222 0
-158 -238 0
-158 -254 0
-174 -190 0
-174 -206 0
-174 -222 0
-174 -238 0
-174 -254 0
-190 -206 0
-190 -222 0
-190 -238 0
-190 -254 0
-206 -222 0
-206 -238 0
-206 -254 0
-222 -238 0
-222 -254 0
-238 -254 0
-15 -31 0
-15 -47 0
-15 -63 0
-15 -79 0
-15 -95 0
-15 -111 0
-15 -127 0
-15 -143 0
-15 -159 0
-15 -175 0
-15 -191 0
-15 -207 0
-15 -223 0
-15 -239 0
-15 -255 0
-31 -47 0
-31 -63 0
-31 -79 0
-31 -95 0
-31 -111 0
-31 -127 0
-31 -143 0
-31 -159 0
-31 -175 0
-31 -191 0
-31 -207 0
-31 -223 0
-31 -239 0
-31 -255 0
-47 -63 0
-47 -79 0
-47 -95 0
-47 -111 0
-47 -127 0
-47 -143 0
-47 -159 0
-47 -175 0
-47 -191 0
-47 -207 0
-47 -223 0
-47 -239 0
-47 -255 0
-63 -79 0
-63 -95 0
-63 -111 0
-63 -127 0
-63 -143 0
-63 -159 0
-63 -175 0
-63 -191 0
-63 -207 0
-63 -223 0
-63 -239 0
-63 -255 0
-79 -95 0
-79 -111 0
-79 -127 0
-79 -143 0
-79 -159 0
-79 -175 0
-79 -191 0
-79 -207 0
-79 -223 0
-79 -239 0
-79 -255 0
-95 -111 0
-95 -127 0
-95 -143 0
-95 -159 0
-95 -175 0
-95 -191 0
-95 -207 0
-95 -223 0
-95 -239 0
-95 -255 0
-111 -127 0
-111 -143 0
-111 -159 0
-111 -175 0
-111 -191 0
-111 -207 0
-111 -223 0
-111 -239 0
-111 -255 0
-127 -143 0
-127 -159 0
-127 -175 0
-127 -191 0
-127 -207 0
-127 -223 0
-127 -239 0
-127 -255 0
-143 -159 0
-143 -175 0
-143 -191 0
-143 -207 0
-143 -223 0
-143 -239 0
-143 -255 0
-159 -175 0
-159 -191 0
-159 -207 0
-159 -223 0
-159 -239 0
-159 -255 0
-175 -191 0
-175 -207 0
-175 -223 0
-175 -239 0
-175 -255 0
-191 -207 0
-191 -223 0
-191 -239 0
-191 -255 0
-207 -223 0
-207 -239 0
-207 -255 0
-223 -239 0
-223 -255 0
-239 -255 0
-16 -32 0
-16 -48 0
-16 -64 0
-16 -80 0
-16 -96 0
-16 -112 0
-16 -128 0
-16 -144 0
-16 -160 0
-16 -176 0
-16 -192 0
-16 -208 0
-16 -224 0
-16 -240 0
-16 -256 0
-32 -48 0
-32 -64 0
-32 -80 0
-32 -96 0
-32 -112 0
-32 -128 0
-32 -144 0
-32 -160 0
-32 -176 0
-32 -192 0
-32 -208 0
-32 -224 0
-32 -240 0
-32 -256 0
-48 -64 0
-48 -80 0
-48 -96 0
-48 -112 0
-48 -128 0
-48 -144 0
-48 -160 0
-48 -176 0
-48 -192 0
-48 -208 0
-48 -224 0
-48 -240 0
-48 -256 0
-64 -80 0
-64 -96 0
-64 -112 0
-64 -128 0
-64 -144 0
-64 -160 0
-64 -176 0
-64 -192 0
-64 -208 0
-64 -224 0
-64 -240 0
-64 -256 0
-80 -96 0
-80 -112 0
-80 -128 0
-80 -144 0
-80 -160 0
-80 -176 0
-80 -192 0
-80 -208 0
-80 -224 0
-80 -240 0
-80 -256 0
-96 -112 0
-96 -128 0
-96 -144 0
-96 -160 0
-96 -176 0
-96 -192 0
-96 -208 0
-96 -224 0
-96 -240 0
-96 -256 0
-112 -128 0
-112 -144 0
-112 -160 0
-112 -176 0
-112 -192 0
-112 -208 0
-112 -224 0
-112 -240 0
-112 -256 0
-128 -144 0
-128 -160 0
-128 -176 0
-128 -192 0
-128 -208 0
-128 -224 0
-128 -240 0
-128 -256 0
-144 -160 0
-144 -176 0
-144 -192 0
-144 -208 0
-144 -224 0
-144 -240 0
-144 -256 0
-160 -176 0
-160 -192 0
-160 -208 0
-160 -224 0
-160 -240 0
-160 -256 0
-176 -192 0
-176 -208 0
-176 -224 0
-176 -240 0
-176 -256 0
-192 -208 0
-192 -224 0
-192 -240 0
-192 -256 0
-208 -224 0
-208 -240 0
-208 -256 0
-224 -240 0
-224 -256 0
-240 -256 0
