c Phase 3 generated performance instance
c family=hidden_pigeonhole
c scale=7
c variant=phase4b_noise0
c noise_percent=0
c expected=UNSATISFIABLE
p cnf 294 490
-1 -2 43 0
-1 -2 -43 0
-1 -3 44 0
-1 -3 -44 0
-1 -4 45 0
-1 -4 -45 0
-1 -5 46 0
-1 -5 -46 0
-1 -6 47 0
-1 -6 -47 0
-2 -3 48 0
-2 -3 -48 0
-2 -4 49 0
-2 -4 -49 0
-2 -5 50 0
-2 -5 -50 0
-2 -6 51 0
-2 -6 -51 0
-3 -4 52 0
-3 -4 -52 0
-3 -5 53 0
-3 -5 -53 0
-3 -6 54 0
-3 -6 -54 0
-4 -5 55 0
-4 -5 -55 0
-4 -6 56 0
-4 -6 -56 0
-5 -6 57 0
-5 -6 -57 0
1 2 58 0
3 -58 59 0
4 -59 60 0
5 6 -60 0
-7 -8 61 0
-7 -8 -61 0
-7 -9 62 0
-7 -9 -62 0
-7 -10 63 0
-7 -10 -63 0
-7 -11 64 0
-7 -11 -64 0
-7 -12 65 0
-7 -12 -65 0
-8 -9 66 0
-8 -9 -66 0
-8 -10 67 0
-8 -10 -67 0
-8 -11 68 0
-8 -11 -68 0
-8 -12 69 0
-8 -12 -69 0
-9 -10 70 0
-9 -10 -70 0
-9 -11 71 0
-9 -11 -71 0
-9 -12 72 0
-9 -12 -72 0
-10 -11 73 0
-10 -11 -73 0
-10 -12 74 0
-10 -12 -74 0
-11 -12 75 0
-11 -12 -75 0
7 8 76 0
9 -76 77 0
10 -77 78 0
11 12 -78 0
-13 -14 79 0
-13 -14 -79 0
-13 -15 80 0
-13 -15 -80 0
-13 -16 81 0
-13 -16 -81 0
-13 -17 82 0
-13 -17 -82 0
-13 -18 83 0
-13 -18 -83 0
-14 -15 84 0
-14 -15 -84 0
-14 -16 85 0
-14 -16 -85 0
-14 -17 86 0
-14 -17 -86 0
-14 -18 87 0
-14 -18 -87 0
-15 -16 88 0
-15 -16 -88 0
-15 -17 89 0
-15 -17 -89 0
-15 -18 90 0
-15 -18 -90 0
-16 -17 91 0
-16 -17 -91 0
-16 -18 92 0
-16 -18 -92 0
-17 -18 93 0
-17 -18 -93 0
13 14 94 0
15 -94 95 0
16 -95 96 0
17 18 -96 0
-19 -20 97 0
-19 -20 -97 0
-19 -21 98 0
-19 -21 -98 0
-19 -22 99 0
-19 -22 -99 0
-19 -23 100 0
-19 -23 -100 0
-19 -24 101 0
-19 -24 -101 0
-20 -21 102 0
-20 -21 -102 0
-20 -22 103 0
-20 -22 -103 0
-20 -23 104 0
-20 -23 -104 0
-20 -24 105 0
-20 -24 -105 0
-21 -22 106 0
-21 -22 -106 0
-21 -23 107 0
-21 -23 -107 0
-21 -24 108 0
-21 -24 -108 0
-22 -23 109 0
-22 -23 -109 0
-22 -24 110 0
-22 -24 -110 0
-23 -24 111 0
-23 -24 -111 0
19 20 112 0
21 -112 113 0
22 -113 114 0
23 24 -114 0
-25 -26 115 0
-25 -26 -115 0
-25 -27 116 0
-25 -27 -116 0
-25 -28 117 0
-25 -28 -117 0
-25 -29 118 0
-25 -29 -118 0
-25 -30 119 0
-25 -30 -119 0
-26 -27 120 0
-26 -27 -120 0
-26 -28 121 0
-26 -28 -121 0
-26 -29 122 0
-26 -29 -122 0
-26 -30 123 0
-26 -30 -123 0
-27 -28 124 0
-27 -28 -124 0
-27 -29 125 0
-27 -29 -125 0
-27 -30 126 0
-27 -30 -126 0
-28 -29 127 0
-28 -29 -127 0
-28 -30 128 0
-28 -30 -128 0
-29 -30 129 0
-29 -30 -129 0
25 26 130 0
27 -130 131 0
28 -131 132 0
29 30 -132 0
-31 -32 133 0
-31 -32 -133 0
-31 -33 134 0
-31 -33 -134 0
-31 -34 135 0
-31 -34 -135 0
-31 -35 136 0
-31 -35 -136 0
-31 -36 137 0
-31 -36 -137 0
-32 -33 138 0
-32 -33 -138 0
-32 -34 139 0
-32 -34 -139 0
-32 -35 140 0
-32 -35 -140 0
-32 -36 141 0
-32 -36 -141 0
-33 -34 142 0
-33 -34 -142 0
-33 -35 143 0
-33 -35 -143 0
-33 -36 144 0
-33 -36 -144 0
-34 -35 145 0
-34 -35 -145 0
-34 -36 146 0
-34 -36 -146 0
-35 -36 147 0
-35 -36 -147 0
31 32 148 0
33 -148 149 0
34 -149 150 0
35 36 -150 0
-37 -38 151 0
-37 -38 -151 0
-37 -39 152 0
-37 -39 -152 0
-37 -40 153 0
-37 -40 -153 0
-37 -41 154 0
-37 -41 -154 0
-37 -42 155 0
-37 -42 -155 0
-38 -39 156 0
-38 -39 -156 0
-38 -40 157 0
-38 -40 -157 0
-38 -41 158 0
-38 -41 -158 0
-38 -42 159 0
-38 -42 -159 0
-39 -40 160 0
-39 -40 -160 0
-39 -41 161 0
-39 -41 -161 0
-39 -42 162 0
-39 -42 -162 0
-40 -41 163 0
-40 -41 -163 0
-40 -42 164 0
-40 -42 -164 0
-41 -42 165 0
-41 -42 -165 0
37 38 166 0
39 -166 167 0
40 -167 168 0
41 42 -168 0
-1 -7 169 0
-1 -7 -169 0
-1 -13 170 0
-1 -13 -170 0
-1 -19 171 0
-1 -19 -171 0
-1 -25 172 0
-1 -25 -172 0
-1 -31 173 0
-1 -31 -173 0
-1 -37 174 0
-1 -37 -174 0
-7 -13 175 0
-7 -13 -175 0
-7 -19 176 0
-7 -19 -176 0
-7 -25 177 0
-7 -25 -177 0
-7 -31 178 0
-7 -31 -178 0
-7 -37 179 0
-7 -37 -179 0
-13 -19 180 0
-13 -19 -180 0
-13 -25 181 0
-13 -25 -181 0
-13 -31 182 0
-13 -31 -182 0
-13 -37 183 0
-13 -37 -183 0
-19 -25 184 0
-19 -25 -184 0
-19 -31 185 0
-19 -31 -185 0
-19 -37 186 0
-19 -37 -186 0
-25 -31 187 0
-25 -31 -187 0
-25 -37 188 0
-25 -37 -188 0
-31 -37 189 0
-31 -37 -189 0
-2 -8 190 0
-2 -8 -190 0
-2 -14 191 0
-2 -14 -191 0
-2 -20 192 0
-2 -20 -192 0
-2 -26 193 0
-2 -26 -193 0
-2 -32 194 0
-2 -32 -194 0
-2 -38 195 0
-2 -38 -195 0
-8 -14 196 0
-8 -14 -196 0
-8 -20 197 0
-8 -20 -197 0
-8 -26 198 0
-8 -26 -198 0
-8 -32 199 0
-8 -32 -199 0
-8 -38 200 0
-8 -38 -200 0
-14 -20 201 0
-14 -20 -201 0
-14 -26 202 0
-14 -26 -202 0
-14 -32 203 0
-14 -32 -203 0
-14 -38 204 0
-14 -38 -204 0
-20 -26 205 0
-20 -26 -205 0
-20 -32 206 0
-20 -32 -206 0
-20 -38 207 0
-20 -38 -207 0
-26 -32 208 0
-26 -32 -208 0
-26 -38 209 0
-26 -38 -209 0
-32 -38 210 0
-32 -38 -210 0
-3 -9 211 0
-3 -9 -211 0
-3 -15 212 0
-3 -15 -212 0
-3 -21 213 0
-3 -21 -213 0
-3 -27 214 0
-3 -27 -214 0
-3 -33 215 0
-3 -33 -215 0
-3 -39 216 0
-3 -39 -216 0
-9 -15 217 0
-9 -15 -217 0
-9 -21 218 0
-9 -21 -218 0
-9 -27 219 0
-9 -27 -219 0
-9 -33 220 0
-9 -33 -220 0
-9 -39 221 0
-9 -39 -221 0
-15 -21 222 0
-15 -21 -222 0
-15 -27 223 0
-15 -27 -223 0
-15 -33 224 0
-15 -33 -224 0
-15 -39 225 0
-15 -39 -225 0
-21 -27 226 0
-21 -27 -226 0
-21 -33 227 0
-21 -33 -227 0
-21 -39 228 0
-21 -39 -228 0
-27 -33 229 0
-27 -33 -229 0
-27 -39 230 0
-27 -39 -230 0
-33 -39 231 0
-33 -39 -231 0
-4 -10 232 0
-4 -10 -232 0
-4 -16 233 0
-4 -16 -233 0
-4 -22 234 0
-4 -22 -234 0
-4 -28 235 0
-4 -28 -235 0
-4 -34 236 0
-4 -34 -236 0
-4 -40 237 0
-4 -40 -237 0
-10 -16 238 0
-10 -16 -238 0
-10 -22 239 0
-10 -22 -239 0
-10 -28 240 0
-10 -28 -240 0
-10 -34 241 0
-10 -34 -241 0
-10 -40 242 0
-10 -40 -242 0
-16 -22 243 0
-16 -22 -243 0
-16 -28 244 0
-16 -28 -244 0
-16 -34 245 0
-16 -34 -245 0
-16 -40 246 0
-16 -40 -246 0
-22 -28 247 0
-22 -28 -247 0
-22 -34 248 0
-22 -34 -248 0
-22 -40 249 0
-22 -40 -249 0
-28 -34 250 0
-28 -34 -250 0
-28 -40 251 0
-28 -40 -251 0
-34 -40 252 0
-34 -40 -252 0
-5 -11 253 0
-5 -11 -253 0
-5 -17 254 0
-5 -17 -254 0
-5 -23 255 0
-5 -23 -255 0
-5 -29 256 0
-5 -29 -256 0
-5 -35 257 0
-5 -35 -257 0
-5 -41 258 0
-5 -41 -258 0
-11 -17 259 0
-11 -17 -259 0
-11 -23 260 0
-11 -23 -260 0
-11 -29 261 0
-11 -29 -261 0
-11 -35 262 0
-11 -35 -262 0
-11 -41 263 0
-11 -41 -263 0
-17 -23 264 0
-17 -23 -264 0
-17 -29 265 0
-17 -29 -265 0
-17 -35 266 0
-17 -35 -266 0
-17 -41 267 0
-17 -41 -267 0
-23 -29 268 0
-23 -29 -268 0
-23 -35 269 0
-23 -35 -269 0
-23 -41 270 0
-23 -41 -270 0
-29 -35 271 0
-29 -35 -271 0
-29 -41 272 0
-29 -41 -272 0
-35 -41 273 0
-35 -41 -273 0
-6 -12 274 0
-6 -12 -274 0
-6 -18 275 0
-6 -18 -275 0
-6 -24 276 0
-6 -24 -276 0
-6 -30 277 0
-6 -30 -277 0
-6 -36 278 0
-6 -36 -278 0
-6 -42 279 0
-6 -42 -279 0
-12 -18 280 0
-12 -18 -280 0
-12 -24 281 0
-12 -24 -281 0
-12 -30 282 0
-12 -30 -282 0
-12 -36 283 0
-12 -36 -283 0
-12 -42 284 0
-12 -42 -284 0
-18 -24 285 0
-18 -24 -285 0
-18 -30 286 0
-18 -30 -286 0
-18 -36 287 0
-18 -36 -287 0
-18 -42 288 0
-18 -42 -288 0
-24 -30 289 0
-24 -30 -289 0
-24 -36 290 0
-24 -36 -290 0
-24 -42 291 0
-24 -42 -291 0
-30 -36 292 0
-30 -36 -292 0
-30 -42 293 0
-30 -42 -293 0
-36 -42 294 0
-36 -42 -294 0
