c Phase 3 generated performance instance
c family=hidden_pigeonhole
c scale=7
c variant=phase4b_noise100
c noise_percent=100
c expected=UNSATISFIABLE
p cnf 539 980
-1 -2 43 0
-1 -2 -43 0
-1 -3 44 0
-1 -3 -44 0
-1 -4 45 0
-1 -4 -45 0
-1 -5 46 0
-1 -5 -46 0
-1 -6 47 0
-1 -6 -47 0
-2 -3 48 0
-2 -3 -48 0
-2 -4 49 0
-2 -4 -49 0
-2 -5 50 0
-2 -5 -50 0
-2 -6 51 0
-2 -6 -51 0
-3 -4 52 0
-3 -4 -52 0
-3 -5 53 0
-3 -5 -53 0
-3 -6 54 0
-3 -6 -54 0
-4 -5 55 0
-4 -5 -55 0
-4 -6 56 0
-4 -6 -56 0
-5 -6 57 0
-5 -6 -57 0
1 2 58 0
3 -58 59 0
4 -59 60 0
5 6 -60 0
-7 -8 61 0
-7 -8 -61 0
-7 -9 62 0
-7 -9 -62 0
-7 -10 63 0
-7 -10 -63 0
-7 -11 64 0
-7 -11 -64 0
-7 -12 65 0
-7 -12 -65 0
-8 -9 66 0
-8 -9 -66 0
-8 -10 67 0
-8 -10 -67 0
-8 -11 68 0
-8 -11 -68 0
-8 -12 69 0
-8 -12 -69 0
-9 -10 70 0
-9 -10 -70 0
-9 -11 71 0
-9 -11 -71 0
-9 -12 72 0
-9 -12 -72 0
-10 -11 73 0
-10 -11 -73 0
-10 -12 74 0
-10 -12 -74 0
-11 -12 75 0
-11 -12 -75 0
7 8 76 0
9 -76 77 0
10 -77 78 0
11 12 -78 0
-13 -14 79 0
-13 -14 -79 0
-13 -15 80 0
-13 -15 -80 0
-13 -16 81 0
-13 -16 -81 0
-13 -17 82 0
-13 -17 -82 0
-13 -18 83 0
-13 -18 -83 0
-14 -15 84 0
-14 -15 -84 0
-14 -16 85 0
-14 -16 -85 0
-14 -17 86 0
-14 -17 -86 0
-14 -18 87 0
-14 -18 -87 0
-15 -16 88 0
-15 -16 -88 0
-15 -17 89 0
-15 -17 -89 0
-15 -18 90 0
-15 -18 -90 0
-16 -17 91 0
-16 -17 -91 0
-16 -18 92 0
-16 -18 -92 0
-17 -18 93 0
-17 -18 -93 0
13 14 94 0
15 -94 95 0
16 -95 96 0
17 18 -96 0
-19 -20 97 0
-19 -20 -97 0
-19 -21 98 0
-19 -21 -98 0
-19 -22 99 0
-19 -22 -99 0
-19 -23 100 0
-19 -23 -100 0
-19 -24 101 0
-19 -24 -101 0
-20 -21 102 0
-20 -21 -102 0
-20 -22 103 0
-20 -22 -103 0
-20 -23 104 0
-20 -23 -104 0
-20 -24 105 0
-20 -24 -105 0
-21 -22 106 0
-21 -22 -106 0
-21 -23 107 0
-21 -23 -107 0
-21 -24 108 0
-21 -24 -108 0
-22 -23 109 0
-22 -23 -109 0
-22 -24 110 0
-22 -24 -110 0
-23 -24 111 0
-23 -24 -111 0
19 20 112 0
21 -112 113 0
22 -113 114 0
23 24 -114 0
-25 -26 115 0
-25 -26 -115 0
-25 -27 116 0
-25 -27 -116 0
-25 -28 117 0
-25 -28 -117 0
-25 -29 118 0
-25 -29 -118 0
-25 -30 119 0
-25 -30 -119 0
-26 -27 120 0
-26 -27 -120 0
-26 -28 121 0
-26 -28 -121 0
-26 -29 122 0
-26 -29 -122 0
-26 -30 123 0
-26 -30 -123 0
-27 -28 124 0
-27 -28 -124 0
-27 -29 125 0
-27 -29 -125 0
-27 -30 126 0
-27 -30 -126 0
-28 -29 127 0
-28 -29 -127 0
-28 -30 128 0
-28 -30 -128 0
-29 -30 129 0
-29 -30 -129 0
25 26 130 0
27 -130 131 0
28 -131 132 0
29 30 -132 0
-31 -32 133 0
-31 -32 -133 0
-31 -33 134 0
-31 -33 -134 0
-31 -34 135 0
-31 -34 -135 0
-31 -35 136 0
-31 -35 -136 0
-31 -36 137 0
-31 -36 -137 0
-32 -33 138 0
-32 -33 -138 0
-32 -34 139 0
-32 -34 -139 0
-32 -35 140 0
-32 -35 -140 0
-32 -36 141 0
-32 -36 -141 0
-33 -34 142 0
-33 -34 -142 0
-33 -35 143 0
-33 -35 -143 0
-33 -36 144 0
-33 -36 -144 0
-34 -35 145 0
-34 -35 -145 0
-34 -36 146 0
-34 -36 -146 0
-35 -36 147 0
-35 -36 -147 0
31 32 148 0
33 -148 149 0
34 -149 150 0
35 36 -150 0
-37 -38 151 0
-37 -38 -151 0
-37 -39 152 0
-37 -39 -152 0
-37 -40 153 0
-37 -40 -153 0
-37 -41 154 0
-37 -41 -154 0
-37 -42 155 0
-37 -42 -155 0
-38 -39 156 0
-38 -39 -156 0
-38 -40 157 0
-38 -40 -157 0
-38 -41 158 0
-38 -41 -158 0
-38 -42 159 0
-38 -42 -159 0
-39 -40 160 0
-39 -40 -160 0
-39 -41 161 0
-39 -41 -161 0
-39 -42 162 0
-39 -42 -162 0
-40 -41 163 0
-40 -41 -163 0
-40 -42 164 0
-40 -42 -164 0
-41 -42 165 0
-41 -42 -165 0
37 38 166 0
39 -166 167 0
40 -167 168 0
41 42 -168 0
-1 -7 169 0
-1 -7 -169 0
-1 -13 170 0
-1 -13 -170 0
-1 -19 171 0
-1 -19 -171 0
-1 -25 172 0
-1 -25 -172 0
-1 -31 173 0
-1 -31 -173 0
-1 -37 174 0
-1 -37 -174 0
-7 -13 175 0
-7 -13 -175 0
-7 -19 176 0
-7 -19 -176 0
-7 -25 177 0
-7 -25 -177 0
-7 -31 178 0
-7 -31 -178 0
-7 -37 179 0
-7 -37 -179 0
-13 -19 180 0
-13 -19 -180 0
-13 -25 181 0
-13 -25 -181 0
-13 -31 182 0
-13 -31 -182 0
-13 -37 183 0
-13 -37 -183 0
-19 -25 184 0
-19 -25 -184 0
-19 -31 185 0
-19 -31 -185 0
-19 -37 186 0
-19 -37 -186 0
-25 -31 187 0
-25 -31 -187 0
-25 -37 188 0
-25 -37 -188 0
-31 -37 189 0
-31 -37 -189 0
-2 -8 190 0
-2 -8 -190 0
-2 -14 191 0
-2 -14 -191 0
-2 -20 192 0
-2 -20 -192 0
-2 -26 193 0
-2 -26 -193 0
-2 -32 194 0
-2 -32 -194 0
-2 -38 195 0
-2 -38 -195 0
-8 -14 196 0
-8 -14 -196 0
-8 -20 197 0
-8 -20 -197 0
-8 -26 198 0
-8 -26 -198 0
-8 -32 199 0
-8 -32 -199 0
-8 -38 200 0
-8 -38 -200 0
-14 -20 201 0
-14 -20 -201 0
-14 -26 202 0
-14 -26 -202 0
-14 -32 203 0
-14 -32 -203 0
-14 -38 204 0
-14 -38 -204 0
-20 -26 205 0
-20 -26 -205 0
-20 -32 206 0
-20 -32 -206 0
-20 -38 207 0
-20 -38 -207 0
-26 -32 208 0
-26 -32 -208 0
-26 -38 209 0
-26 -38 -209 0
-32 -38 210 0
-32 -38 -210 0
-3 -9 211 0
-3 -9 -211 0
-3 -15 212 0
-3 -15 -212 0
-3 -21 213 0
-3 -21 -213 0
-3 -27 214 0
-3 -27 -214 0
-3 -33 215 0
-3 -33 -215 0
-3 -39 216 0
-3 -39 -216 0
-9 -15 217 0
-9 -15 -217 0
-9 -21 218 0
-9 -21 -218 0
-9 -27 219 0
-9 -27 -219 0
-9 -33 220 0
-9 -33 -220 0
-9 -39 221 0
-9 -39 -221 0
-15 -21 222 0
-15 -21 -222 0
-15 -27 223 0
-15 -27 -223 0
-15 -33 224 0
-15 -33 -224 0
-15 -39 225 0
-15 -39 -225 0
-21 -27 226 0
-21 -27 -226 0
-21 -33 227 0
-21 -33 -227 0
-21 -39 228 0
-21 -39 -228 0
-27 -33 229 0
-27 -33 -229 0
-27 -39 230 0
-27 -39 -230 0
-33 -39 231 0
-33 -39 -231 0
-4 -10 232 0
-4 -10 -232 0
-4 -16 233 0
-4 -16 -233 0
-4 -22 234 0
-4 -22 -234 0
-4 -28 235 0
-4 -28 -235 0
-4 -34 236 0
-4 -34 -236 0
-4 -40 237 0
-4 -40 -237 0
-10 -16 238 0
-10 -16 -238 0
-10 -22 239 0
-10 -22 -239 0
-10 -28 240 0
-10 -28 -240 0
-10 -34 241 0
-10 -34 -241 0
-10 -40 242 0
-10 -40 -242 0
-16 -22 243 0
-16 -22 -243 0
-16 -28 244 0
-16 -28 -244 0
-16 -34 245 0
-16 -34 -245 0
-16 -40 246 0
-16 -40 -246 0
-22 -28 247 0
-22 -28 -247 0
-22 -34 248 0
-22 -34 -248 0
-22 -40 249 0
-22 -40 -249 0
-28 -34 250 0
-28 -34 -250 0
-28 -40 251 0
-28 -40 -251 0
-34 -40 252 0
-34 -40 -252 0
-5 -11 253 0
-5 -11 -253 0
-5 -17 254 0
-5 -17 -254 0
-5 -23 255 0
-5 -23 -255 0
-5 -29 256 0
-5 -29 -256 0
-5 -35 257 0
-5 -35 -257 0
-5 -41 258 0
-5 -41 -258 0
-11 -17 259 0
-11 -17 -259 0
-11 -23 260 0
-11 -23 -260 0
-11 -29 261 0
-11 -29 -261 0
-11 -35 262 0
-11 -35 -262 0
-11 -41 263 0
-11 -41 -263 0
-17 -23 264 0
-17 -23 -264 0
-17 -29 265 0
-17 -29 -265 0
-17 -35 266 0
-17 -35 -266 0
-17 -41 267 0
-17 -41 -267 0
-23 -29 268 0
-23 -29 -268 0
-23 -35 269 0
-23 -35 -269 0
-23 -41 270 0
-23 -41 -270 0
-29 -35 271 0
-29 -35 -271 0
-29 -41 272 0
-29 -41 -272 0
-35 -41 273 0
-35 -41 -273 0
-6 -12 274 0
-6 -12 -274 0
-6 -18 275 0
-6 -18 -275 0
-6 -24 276 0
-6 -24 -276 0
-6 -30 277 0
-6 -30 -277 0
-6 -36 278 0
-6 -36 -278 0
-6 -42 279 0
-6 -42 -279 0
-12 -18 280 0
-12 -18 -280 0
-12 -24 281 0
-12 -24 -281 0
-12 -30 282 0
-12 -30 -282 0
-12 -36 283 0
-12 -36 -283 0
-12 -42 284 0
-12 -42 -284 0
-18 -24 285 0
-18 -24 -285 0
-18 -30 286 0
-18 -30 -286 0
-18 -36 287 0
-18 -36 -287 0
-18 -42 288 0
-18 -42 -288 0
-24 -30 289 0
-24 -30 -289 0
-24 -36 290 0
-24 -36 -290 0
-24 -42 291 0
-24 -42 -291 0
-30 -36 292 0
-30 -36 -292 0
-30 -42 293 0
-30 -42 -293 0
-36 -42 294 0
-36 -42 -294 0
340 -384 -514 0
-296 336 -415 0
-319 -495 -509 0
-354 391 454 0
-362 380 381 0
-306 -340 -408 0
-387 405 -419 0
-388 -418 -539 0
-438 -488 -530 0
351 -367 406 0
-311 339 491 0
357 -358 -526 0
330 -333 340 0
-418 440 -529 0
318 399 492 0
388 405 476 0
-302 354 -517 0
-464 -508 538 0
-312 -348 513 0
299 357 -449 0
295 -503 -526 0
-456 -479 -531 0
412 422 -457 0
-306 350 478 0
-347 483 521 0
-440 467 530 0
-297 -366 -522 0
309 -375 -493 0
361 -370 -515 0
344 -449 463 0
-297 324 -408 0
391 -429 512 0
339 348 -536 0
-385 -417 437 0
-417 -451 -475 0
296 -415 510 0
-382 487 -499 0
-460 475 -535 0
396 -408 538 0
317 410 517 0
-415 -428 -465 0
-296 -328 347 0
-402 -443 490 0
360 390 488 0
-347 444 527 0
390 -451 -457 0
322 -352 402 0
-400 493 501 0
-355 427 469 0
296 -394 -446 0
-446 -466 -486 0
319 372 -375 0
449 -523 534 0
-314 -444 467 0
439 -454 -455 0
-336 353 491 0
303 -512 524 0
-423 -437 -452 0
-339 -372 411 0
379 -402 428 0
316 -462 512 0
477 478 -487 0
-327 -383 466 0
-322 402 515 0
473 -499 530 0
-369 -478 493 0
410 -427 430 0
-305 451 -525 0
-386 474 -528 0
-401 520 -524 0
374 503 -513 0
-439 498 507 0
431 -519 533 0
-334 -352 -485 0
346 -358 420 0
315 467 510 0
-380 -399 -418 0
-313 491 -534 0
325 336 -360 0
354 367 507 0
422 498 -507 0
-511 520 -527 0
-391 -499 531 0
-400 404 -458 0
-305 -375 414 0
453 -464 520 0
458 486 529 0
-478 -520 539 0
-295 393 -424 0
-375 -410 485 0
-352 -441 -503 0
-300 -346 -389 0
-384 -408 -506 0
-363 439 -472 0
453 497 500 0
365 -425 -503 0
-353 -367 502 0
-368 -434 533 0
369 417 -502 0
436 -484 531 0
-323 -399 -524 0
344 456 537 0
359 -485 -497 0
-318 -347 425 0
-310 -316 -472 0
-356 -422 -466 0
-449 455 -456 0
-304 -326 484 0
-375 -491 -533 0
344 385 487 0
372 392 -393 0
309 323 -446 0
-302 451 -518 0
351 352 533 0
-330 384 -535 0
356 -387 427 0
-339 -400 460 0
-345 -463 512 0
-372 373 414 0
351 439 504 0
-327 346 402 0
-432 457 -533 0
299 -408 -482 0
-378 436 525 0
-301 412 -415 0
297 -346 421 0
385 -399 473 0
355 480 -481 0
-347 -502 531 0
-322 465 -478 0
327 361 -510 0
-334 375 -523 0
381 -383 -437 0
-451 -468 504 0
334 -358 361 0
302 -319 410 0
-397 -402 -455 0
-308 -468 499 0
370 439 -487 0
337 475 -521 0
-316 -423 511 0
321 370 -534 0
311 387 -431 0
-400 433 516 0
-371 -429 -454 0
-414 436 442 0
-321 409 411 0
-336 405 -439 0
297 328 393 0
-397 -490 524 0
-397 400 510 0
366 385 -504 0
-339 -464 -489 0
-308 -363 461 0
-398 432 -517 0
295 393 -533 0
-306 -421 456 0
-307 346 486 0
-358 -416 422 0
355 -396 402 0
-356 360 -428 0
-399 505 526 0
399 430 -475 0
-369 404 -432 0
-337 345 408 0
408 -513 -516 0
296 441 -467 0
462 -492 501 0
357 -370 -448 0
486 -496 -526 0
-369 374 -424 0
454 -475 485 0
-301 303 413 0
-384 459 -531 0
-359 379 -504 0
388 498 -532 0
385 -505 523 0
-392 423 -437 0
341 -478 -531 0
-317 -374 489 0
394 412 -509 0
384 -405 -534 0
336 349 -524 0
469 -511 -534 0
317 -414 -471 0
-305 411 -463 0
313 382 -487 0
312 -320 334 0
303 -509 -519 0
362 364 -422 0
-296 365 -387 0
371 -495 518 0
-297 326 520 0
427 -457 -528 0
411 -510 -532 0
307 369 -469 0
370 420 -516 0
-336 -436 -481 0
-465 -497 529 0
318 455 -538 0
-340 -452 535 0
-351 415 527 0
-367 -372 -532 0
-337 399 -414 0
314 -346 -420 0
390 -405 -419 0
347 -390 497 0
-375 397 -401 0
342 398 441 0
-326 -408 -437 0
-464 470 -517 0
-392 -422 510 0
-332 417 533 0
-316 383 487 0
-368 505 -516 0
-295 -420 -531 0
313 -455 -469 0
-323 377 -490 0
345 -373 -504 0
-528 533 536 0
325 -479 493 0
374 419 464 0
431 466 519 0
380 -401 -446 0
-387 420 -523 0
-341 -433 -463 0
388 460 -490 0
318 -473 -474 0
321 -417 -536 0
-313 -393 -528 0
384 490 495 0
466 483 -503 0
-410 426 -473 0
-302 -441 -494 0
-309 454 -511 0
367 -406 489 0
393 402 -471 0
379 -432 443 0
-301 -415 -483 0
389 437 -499 0
330 347 -503 0
321 362 405 0
296 462 509 0
-296 415 429 0
-295 296 -508 0
395 400 -454 0
319 415 471 0
-377 -383 -385 0
-309 -417 454 0
392 491 -498 0
324 -394 526 0
-329 -362 517 0
-381 449 495 0
-345 424 -508 0
358 484 514 0
-369 -438 -462 0
-334 497 523 0
-317 -408 -421 0
-320 -424 440 0
-320 -334 -498 0
-392 -454 -463 0
-303 -494 -527 0
-366 388 531 0
369 -395 538 0
-343 -420 492 0
-314 397 504 0
-424 456 -463 0
-411 -528 536 0
-414 -425 -441 0
-316 397 449 0
346 -375 513 0
343 -370 529 0
-307 -337 353 0
390 -421 489 0
296 -405 -464 0
-350 386 419 0
-314 -437 492 0
-312 447 -492 0
340 -407 464 0
-324 463 516 0
409 -435 517 0
313 380 506 0
332 334 533 0
299 -302 -440 0
-402 -443 470 0
304 374 472 0
-315 471 -533 0
298 -454 538 0
306 -370 471 0
-338 -397 478 0
363 442 -453 0
-305 -362 436 0
-298 -393 539 0
-311 -398 -478 0
311 -396 445 0
-448 459 460 0
-396 -450 -453 0
-359 444 463 0
371 -486 539 0
-318 363 -416 0
306 -315 -352 0
422 460 -530 0
330 -336 -521 0
365 -408 -478 0
438 -470 -529 0
-371 392 537 0
313 -464 -515 0
-354 355 -432 0
366 -434 -499 0
372 -464 526 0
305 513 -539 0
-305 327 -358 0
-396 408 455 0
314 500 -528 0
309 -516 -535 0
351 362 -449 0
-397 -415 -418 0
-317 -382 444 0
334 426 501 0
333 -507 515 0
-381 453 484 0
374 -499 -536 0
347 -427 -495 0
334 -335 364 0
345 469 482 0
-313 405 490 0
-328 -471 -528 0
312 -426 428 0
-295 339 411 0
-335 -365 -374 0
390 420 428 0
311 -436 451 0
306 -316 -519 0
362 454 472 0
392 -449 535 0
-370 -390 413 0
-334 483 -495 0
-361 362 -539 0
-303 494 -509 0
-353 451 513 0
-296 -412 467 0
331 -492 -528 0
-346 -528 538 0
305 344 538 0
-372 -397 434 0
365 404 -530 0
421 -425 505 0
300 -357 378 0
-313 -491 515 0
-307 -461 -506 0
329 362 -437 0
352 -394 -501 0
-397 -405 485 0
312 -343 406 0
-389 -476 515 0
-307 378 -509 0
-372 -437 -487 0
-311 -404 494 0
-305 -324 418 0
352 410 417 0
317 -421 510 0
379 -468 510 0
343 388 408 0
389 -499 529 0
412 -414 445 0
356 484 498 0
-296 313 -350 0
477 -509 529 0
296 -436 -480 0
-363 -447 -464 0
309 314 411 0
307 447 451 0
-299 -384 -472 0
327 -414 -528 0
-299 334 525 0
-349 470 484 0
-360 427 -520 0
342 -432 -509 0
383 -444 488 0
-371 384 466 0
428 -489 510 0
342 500 -530 0
422 501 535 0
326 -328 -352 0
443 -447 453 0
-338 -353 412 0
-345 364 -509 0
-332 -458 460 0
325 -388 -404 0
-319 421 423 0
349 -375 382 0
-373 389 396 0
419 -436 439 0
324 431 -532 0
388 495 519 0
-377 -446 474 0
333 388 433 0
354 -355 -423 0
-431 -506 -528 0
-334 -348 511 0
-324 344 -490 0
333 454 476 0
-353 -525 -539 0
-303 -312 319 0
-300 -443 493 0
335 496 -514 0
-466 -467 -497 0
298 366 -484 0
-334 397 448 0
-326 407 418 0
-305 -449 -473 0
-418 -441 -461 0
-391 466 -475 0
-389 -454 476 0
317 325 481 0
-317 341 -506 0
-419 431 465 0
338 357 -431 0
333 -352 -527 0
395 409 -471 0
-430 -474 532 0
-392 418 469 0
-437 521 -538 0
-303 389 461 0
405 422 460 0
-445 -531 -537 0
-335 -450 -502 0
304 -360 -522 0
-295 434 -456 0
313 446 -453 0
302 -309 519 0
382 -403 -441 0
-336 400 -498 0
-367 408 -470 0
431 -483 -497 0
-322 -369 -448 0
-351 443 -466 0
377 -381 -472 0
320 323 517 0
333 -368 -418 0
-350 399 -455 0
328 -365 -451 0
375 -394 506 0
-311 -380 -420 0
-305 327 510 0
-389 404 478 0
306 431 452 0
376 434 -525 0
335 338 395 0
373 -494 517 0
-329 -502 517 0
-343 -387 533 0
-296 446 529 0
-371 410 -415 0
340 384 429 0
358 474 537 0
-325 412 453 0
387 -450 -487 0
312 -326 481 0
-409 414 -497 0
454 -479 510 0
453 -523 534 0
-299 450 -539 0
-297 498 531 0
366 -491 -535 0
-376 -429 494 0
377 -495 -500 0
353 446 475 0
-311 403 473 0
-402 -420 -466 0
-308 317 -379 0
-366 -434 450 0
-357 380 -512 0
-313 -403 -463 0
314 -431 -521 0
318 -370 -539 0
323 -339 -389 0
435 528 -529 0
-386 -454 497 0
356 -370 532 0
314 -495 532 0
-429 -438 -539 0
-405 461 484 0
-427 432 464 0
-297 317 392 0
-297 -402 480 0
-328 405 -493 0
377 390 525 0
416 -438 448 0
430 442 449 0
