c Phase 3 generated performance instance
c family=hidden_pigeonhole
c scale=8
c variant=phase4b_noise100
c noise_percent=100
c expected=UNSATISFIABLE
p cnf 836 1536
-1 -2 57 0
-1 -2 -57 0
-1 -3 58 0
-1 -3 -58 0
-1 -4 59 0
-1 -4 -59 0
-1 -5 60 0
-1 -5 -60 0
-1 -6 61 0
-1 -6 -61 0
-1 -7 62 0
-1 -7 -62 0
-2 -3 63 0
-2 -3 -63 0
-2 -4 64 0
-2 -4 -64 0
-2 -5 65 0
-2 -5 -65 0
-2 -6 66 0
-2 -6 -66 0
-2 -7 67 0
-2 -7 -67 0
-3 -4 68 0
-3 -4 -68 0
-3 -5 69 0
-3 -5 -69 0
-3 -6 70 0
-3 -6 -70 0
-3 -7 71 0
-3 -7 -71 0
-4 -5 72 0
-4 -5 -72 0
-4 -6 73 0
-4 -6 -73 0
-4 -7 74 0
-4 -7 -74 0
-5 -6 75 0
-5 -6 -75 0
-5 -7 76 0
-5 -7 -76 0
-6 -7 77 0
-6 -7 -77 0
1 2 78 0
3 -78 79 0
4 -79 80 0
5 -80 81 0
6 7 -81 0
-8 -9 82 0
-8 -9 -82 0
-8 -10 83 0
-8 -10 -83 0
-8 -11 84 0
-8 -11 -84 0
-8 -12 85 0
-8 -12 -85 0
-8 -13 86 0
-8 -13 -86 0
-8 -14 87 0
-8 -14 -87 0
-9 -10 88 0
-9 -10 -88 0
-9 -11 89 0
-9 -11 -89 0
-9 -12 90 0
-9 -12 -90 0
-9 -13 91 0
-9 -13 -91 0
-9 -14 92 0
-9 -14 -92 0
-10 -11 93 0
-10 -11 -93 0
-10 -12 94 0
-10 -12 -94 0
-10 -13 95 0
-10 -13 -95 0
-10 -14 96 0
-10 -14 -96 0
-11 -12 97 0
-11 -12 -97 0
-11 -13 98 0
-11 -13 -98 0
-11 -14 99 0
-11 -14 -99 0
-12 -13 100 0
-12 -13 -100 0
-12 -14 101 0
-12 -14 -101 0
-13 -14 102 0
-13 -14 -102 0
8 9 103 0
10 -103 104 0
11 -104 105 0
12 -105 106 0
13 14 -106 0
-15 -16 107 0
-15 -16 -107 0
-15 -17 108 0
-15 -17 -108 0
-15 -18 109 0
-15 -18 -109 0
-15 -19 110 0
-15 -19 -110 0
-15 -20 111 0
-15 -20 -111 0
-15 -21 112 0
-15 -21 -112 0
-16 -17 113 0
-16 -17 -113 0
-16 -18 114 0
-16 -18 -114 0
-16 -19 115 0
-16 -19 -115 0
-16 -20 116 0
-16 -20 -116 0
-16 -21 117 0
-16 -21 -117 0
-17 -18 118 0
-17 -18 -118 0
-17 -19 119 0
-17 -19 -119 0
-17 -20 120 0
-17 -20 -120 0
-17 -21 121 0
-17 -21 -121 0
-18 -19 122 0
-18 -19 -122 0
-18 -20 123 0
-18 -20 -123 0
-18 -21 124 0
-18 -21 -124 0
-19 -20 125 0
-19 -20 -125 0
-19 -21 126 0
-19 -21 -126 0
-20 -21 127 0
-20 -21 -127 0
15 16 128 0
17 -128 129 0
18 -129 130 0
19 -130 131 0
20 21 -131 0
-22 -23 132 0
-22 -23 -132 0
-22 -24 133 0
-22 -24 -133 0
-22 -25 134 0
-22 -25 -134 0
-22 -26 135 0
-22 -26 -135 0
-22 -27 136 0
-22 -27 -136 0
-22 -28 137 0
-22 -28 -137 0
-23 -24 138 0
-23 -24 -138 0
-23 -25 139 0
-23 -25 -139 0
-23 -26 140 0
-23 -26 -140 0
-23 -27 141 0
-23 -27 -141 0
-23 -28 142 0
-23 -28 -142 0
-24 -25 143 0
-24 -25 -143 0
-24 -26 144 0
-24 -26 -144 0
-24 -27 145 0
-24 -27 -145 0
-24 -28 146 0
-24 -28 -146 0
-25 -26 147 0
-25 -26 -147 0
-25 -27 148 0
-25 -27 -148 0
-25 -28 149 0
-25 -28 -149 0
-26 -27 150 0
-26 -27 -150 0
-26 -28 151 0
-26 -28 -151 0
-27 -28 152 0
-27 -28 -152 0
22 23 153 0
24 -153 154 0
25 -154 155 0
26 -155 156 0
27 28 -156 0
-29 -30 157 0
-29 -30 -157 0
-29 -31 158 0
-29 -31 -158 0
-29 -32 159 0
-29 -32 -159 0
-29 -33 160 0
-29 -33 -160 0
-29 -34 161 0
-29 -34 -161 0
-29 -35 162 0
-29 -35 -162 0
-30 -31 163 0
-30 -31 -163 0
-30 -32 164 0
-30 -32 -164 0
-30 -33 165 0
-30 -33 -165 0
-30 -34 166 0
-30 -34 -166 0
-30 -35 167 0
-30 -35 -167 0
-31 -32 168 0
-31 -32 -168 0
-31 -33 169 0
-31 -33 -169 0
-31 -34 170 0
-31 -34 -170 0
-31 -35 171 0
-31 -35 -171 0
-32 -33 172 0
-32 -33 -172 0
-32 -34 173 0
-32 -34 -173 0
-32 -35 174 0
-32 -35 -174 0
-33 -34 175 0
-33 -34 -175 0
-33 -35 176 0
-33 -35 -176 0
-34 -35 177 0
-34 -35 -177 0
29 30 178 0
31 -178 179 0
32 -179 180 0
33 -180 181 0
34 35 -181 0
-36 -37 182 0
-36 -37 -182 0
-36 -38 183 0
-36 -38 -183 0
-36 -39 184 0
-36 -39 -184 0
-36 -40 185 0
-36 -40 -185 0
-36 -41 186 0
-36 -41 -186 0
-36 -42 187 0
-36 -42 -187 0
-37 -38 188 0
-37 -38 -188 0
-37 -39 189 0
-37 -39 -189 0
-37 -40 190 0
-37 -40 -190 0
-37 -41 191 0
-37 -41 -191 0
-37 -42 192 0
-37 -42 -192 0
-38 -39 193 0
-38 -39 -193 0
-38 -40 194 0
-38 -40 -194 0
-38 -41 195 0
-38 -41 -195 0
-38 -42 196 0
-38 -42 -196 0
-39 -40 197 0
-39 -40 -197 0
-39 -41 198 0
-39 -41 -198 0
-39 -42 199 0
-39 -42 -199 0
-40 -41 200 0
-40 -41 -200 0
-40 -42 201 0
-40 -42 -201 0
-41 -42 202 0
-41 -42 -202 0
36 37 203 0
38 -203 204 0
39 -204 205 0
40 -205 206 0
41 42 -206 0
-43 -44 207 0
-43 -44 -207 0
-43 -45 208 0
-43 -45 -208 0
-43 -46 209 0
-43 -46 -209 0
-43 -47 210 0
-43 -47 -210 0
-43 -48 211 0
-43 -48 -211 0
-43 -49 212 0
-43 -49 -212 0
-44 -45 213 0
-44 -45 -213 0
-44 -46 214 0
-44 -46 -214 0
-44 -47 215 0
-44 -47 -215 0
-44 -48 216 0
-44 -48 -216 0
-44 -49 217 0
-44 -49 -217 0
-45 -46 218 0
-45 -46 -218 0
-45 -47 219 0
-45 -47 -219 0
-45 -48 220 0
-45 -48 -220 0
-45 -49 221 0
-45 -49 -221 0
-46 -47 222 0
-46 -47 -222 0
-46 -48 223 0
-46 -48 -223 0
-46 -49 224 0
-46 -49 -224 0
-47 -48 225 0
-47 -48 -225 0
-47 -49 226 0
-47 -49 -226 0
-48 -49 227 0
-48 -49 -227 0
43 44 228 0
45 -228 229 0
46 -229 230 0
47 -230 231 0
48 49 -231 0
-50 -51 232 0
-50 -51 -232 0
-50 -52 233 0
-50 -52 -233 0
-50 -53 234 0
-50 -53 -234 0
-50 -54 235 0
-50 -54 -235 0
-50 -55 236 0
-50 -55 -236 0
-50 -56 237 0
-50 -56 -237 0
-51 -52 238 0
-51 -52 -238 0
-51 -53 239 0
-51 -53 -239 0
-51 -54 240 0
-51 -54 -240 0
-51 -55 241 0
-51 -55 -241 0
-51 -56 242 0
-51 -56 -242 0
-52 -53 243 0
-52 -53 -243 0
-52 -54 244 0
-52 -54 -244 0
-52 -55 245 0
-52 -55 -245 0
-52 -56 246 0
-52 -56 -246 0
-53 -54 247 0
-53 -54 -247 0
-53 -55 248 0
-53 -55 -248 0
-53 -56 249 0
-53 -56 -249 0
-54 -55 250 0
-54 -55 -250 0
-54 -56 251 0
-54 -56 -251 0
-55 -56 252 0
-55 -56 -252 0
50 51 253 0
52 -253 254 0
53 -254 255 0
54 -255 256 0
55 56 -256 0
-1 -8 257 0
-1 -8 -257 0
-1 -15 258 0
-1 -15 -258 0
-1 -22 259 0
-1 -22 -259 0
-1 -29 260 0
-1 -29 -260 0
-1 -36 261 0
-1 -36 -261 0
-1 -43 262 0
-1 -43 -262 0
-1 -50 263 0
-1 -50 -263 0
-8 -15 264 0
-8 -15 -264 0
-8 -22 265 0
-8 -22 -265 0
-8 -29 266 0
-8 -29 -266 0
-8 -36 267 0
-8 -36 -267 0
-8 -43 268 0
-8 -43 -268 0
-8 -50 269 0
-8 -50 -269 0
-15 -22 270 0
-15 -22 -270 0
-15 -29 271 0
-15 -29 -271 0
-15 -36 272 0
-15 -36 -272 0
-15 -43 273 0
-15 -43 -273 0
-15 -50 274 0
-15 -50 -274 0
-22 -29 275 0
-22 -29 -275 0
-22 -36 276 0
-22 -36 -276 0
-22 -43 277 0
-22 -43 -277 0
-22 -50 278 0
-22 -50 -278 0
-29 -36 279 0
-29 -36 -279 0
-29 -43 280 0
-29 -43 -280 0
-29 -50 281 0
-29 -50 -281 0
-36 -43 282 0
-36 -43 -282 0
-36 -50 283 0
-36 -50 -283 0
-43 -50 284 0
-43 -50 -284 0
-2 -9 285 0
-2 -9 -285 0
-2 -16 286 0
-2 -16 -286 0
-2 -23 287 0
-2 -23 -287 0
-2 -30 288 0
-2 -30 -288 0
-2 -37 289 0
-2 -37 -289 0
-2 -44 290 0
-2 -44 -290 0
-2 -51 291 0
-2 -51 -291 0
-9 -16 292 0
-9 -16 -292 0
-9 -23 293 0
-9 -23 -293 0
-9 -30 294 0
-9 -30 -294 0
-9 -37 295 0
-9 -37 -295 0
-9 -44 296 0
-9 -44 -296 0
-9 -51 297 0
-9 -51 -297 0
-16 -23 298 0
-16 -23 -298 0
-16 -30 299 0
-16 -30 -299 0
-16 -37 300 0
-16 -37 -300 0
-16 -44 301 0
-16 -44 -301 0
-16 -51 302 0
-16 -51 -302 0
-23 -30 303 0
-23 -30 -303 0
-23 -37 304 0
-23 -37 -304 0
-23 -44 305 0
-23 -44 -305 0
-23 -51 306 0
-23 -51 -306 0
-30 -37 307 0
-30 -37 -307 0
-30 -44 308 0
-30 -44 -308 0
-30 -51 309 0
-30 -51 -309 0
-37 -44 310 0
-37 -44 -310 0
-37 -51 311 0
-37 -51 -311 0
-44 -51 312 0
-44 -51 -312 0
-3 -10 313 0
-3 -10 -313 0
-3 -17 314 0
-3 -17 -314 0
-3 -24 315 0
-3 -24 -315 0
-3 -31 316 0
-3 -31 -316 0
-3 -38 317 0
-3 -38 -317 0
-3 -45 318 0
-3 -45 -318 0
-3 -52 319 0
-3 -52 -319 0
-10 -17 320 0
-10 -17 -320 0
-10 -24 321 0
-10 -24 -321 0
-10 -31 322 0
-10 -31 -322 0
-10 -38 323 0
-10 -38 -323 0
-10 -45 324 0
-10 -45 -324 0
-10 -52 325 0
-10 -52 -325 0
-17 -24 326 0
-17 -24 -326 0
-17 -31 327 0
-17 -31 -327 0
-17 -38 328 0
-17 -38 -328 0
-17 -45 329 0
-17 -45 -329 0
-17 -52 330 0
-17 -52 -330 0
-24 -31 331 0
-24 -31 -331 0
-24 -38 332 0
-24 -38 -332 0
-24 -45 333 0
-24 -45 -333 0
-24 -52 334 0
-24 -52 -334 0
-31 -38 335 0
-31 -38 -335 0
-31 -45 336 0
-31 -45 -336 0
-31 -52 337 0
-31 -52 -337 0
-38 -45 338 0
-38 -45 -338 0
-38 -52 339 0
-38 -52 -339 0
-45 -52 340 0
-45 -52 -340 0
-4 -11 341 0
-4 -11 -341 0
-4 -18 342 0
-4 -18 -342 0
-4 -25 343 0
-4 -25 -343 0
-4 -32 344 0
-4 -32 -344 0
-4 -39 345 0
-4 -39 -345 0
-4 -46 346 0
-4 -46 -346 0
-4 -53 347 0
-4 -53 -347 0
-11 -18 348 0
-11 -18 -348 0
-11 -25 349 0
-11 -25 -349 0
-11 -32 350 0
-11 -32 -350 0
-11 -39 351 0
-11 -39 -351 0
-11 -46 352 0
-11 -46 -352 0
-11 -53 353 0
-11 -53 -353 0
-18 -25 354 0
-18 -25 -354 0
-18 -32 355 0
-18 -32 -355 0
-18 -39 356 0
-18 -39 -356 0
-18 -46 357 0
-18 -46 -357 0
-18 -53 358 0
-18 -53 -358 0
-25 -32 359 0
-25 -32 -359 0
-25 -39 360 0
-25 -39 -360 0
-25 -46 361 0
-25 -46 -361 0
-25 -53 362 0
-25 -53 -362 0
-32 -39 363 0
-32 -39 -363 0
-32 -46 364 0
-32 -46 -364 0
-32 -53 365 0
-32 -53 -365 0
-39 -46 366 0
-39 -46 -366 0
-39 -53 367 0
-39 -53 -367 0
-46 -53 368 0
-46 -53 -368 0
-5 -12 369 0
-5 -12 -369 0
-5 -19 370 0
-5 -19 -370 0
-5 -26 371 0
-5 -26 -371 0
-5 -33 372 0
-5 -33 -372 0
-5 -40 373 0
-5 -40 -373 0
-5 -47 374 0
-5 -47 -374 0
-5 -54 375 0
-5 -54 -375 0
-12 -19 376 0
-12 -19 -376 0
-12 -26 377 0
-12 -26 -377 0
-12 -33 378 0
-12 -33 -378 0
-12 -40 379 0
-12 -40 -379 0
-12 -47 380 0
-12 -47 -380 0
-12 -54 381 0
-12 -54 -381 0
-19 -26 382 0
-19 -26 -382 0
-19 -33 383 0
-19 -33 -383 0
-19 -40 384 0
-19 -40 -384 0
-19 -47 385 0
-19 -47 -385 0
-19 -54 386 0
-19 -54 -386 0
-26 -33 387 0
-26 -33 -387 0
-26 -40 388 0
-26 -40 -388 0
-26 -47 389 0
-26 -47 -389 0
-26 -54 390 0
-26 -54 -390 0
-33 -40 391 0
-33 -40 -391 0
-33 -47 392 0
-33 -47 -392 0
-33 -54 393 0
-33 -54 -393 0
-40 -47 394 0
-40 -47 -394 0
-40 -54 395 0
-40 -54 -395 0
-47 -54 396 0
-47 -54 -396 0
-6 -13 397 0
-6 -13 -397 0
-6 -20 398 0
-6 -20 -398 0
-6 -27 399 0
-6 -27 -399 0
-6 -34 400 0
-6 -34 -400 0
-6 -41 401 0
-6 -41 -401 0
-6 -48 402 0
-6 -48 -402 0
-6 -55 403 0
-6 -55 -403 0
-13 -20 404 0
-13 -20 -404 0
-13 -27 405 0
-13 -27 -405 0
-13 -34 406 0
-13 -34 -406 0
-13 -41 407 0
-13 -41 -407 0
-13 -48 408 0
-13 -48 -408 0
-13 -55 409 0
-13 -55 -409 0
-20 -27 410 0
-20 -27 -410 0
-20 -34 411 0
-20 -34 -411 0
-20 -41 412 0
-20 -41 -412 0
-20 -48 413 0
-20 -48 -413 0
-20 -55 414 0
-20 -55 -414 0
-27 -34 415 0
-27 -34 -415 0
-27 -41 416 0
-27 -41 -416 0
-27 -48 417 0
-27 -48 -417 0
-27 -55 418 0
-27 -55 -418 0
-34 -41 419 0
-34 -41 -419 0
-34 -48 420 0
-34 -48 -420 0
-34 -55 421 0
-34 -55 -421 0
-41 -48 422 0
-41 -48 -422 0
-41 -55 423 0
-41 -55 -423 0
-48 -55 424 0
-48 -55 -424 0
-7 -14 425 0
-7 -14 -425 0
-7 -21 426 0
-7 -21 -426 0
-7 -28 427 0
-7 -28 -427 0
-7 -35 428 0
-7 -35 -428 0
-7 -42 429 0
-7 -42 -429 0
-7 -49 430 0
-7 -49 -430 0
-7 -56 431 0
-7 -56 -431 0
-14 -21 432 0
-14 -21 -432 0
-14 -28 433 0
-14 -28 -433 0
-14 -35 434 0
-14 -35 -434 0
-14 -42 435 0
-14 -42 -435 0
-14 -49 436 0
-14 -49 -436 0
-14 -56 437 0
-14 -56 -437 0
-21 -28 438 0
-21 -28 -438 0
-21 -35 439 0
-21 -35 -439 0
-21 -42 440 0
-21 -42 -440 0
-21 -49 441 0
-21 -49 -441 0
-21 -56 442 0
-21 -56 -442 0
-28 -35 443 0
-28 -35 -443 0
-28 -42 444 0
-28 -42 -444 0
-28 -49 445 0
-28 -49 -445 0
-28 -56 446 0
-28 -56 -446 0
-35 -42 447 0
-35 -42 -447 0
-35 -49 448 0
-35 -49 -448 0
-35 -56 449 0
-35 -56 -449 0
-42 -49 450 0
-42 -49 -450 0
-42 -56 451 0
-42 -56 -451 0
-49 -56 452 0
-49 -56 -452 0
620 658 712 0
-506 520 762 0
-598 689 832 0
-466 -767 800 0
-467 526 754 0
-584 663 827 0
-470 -611 -830 0
511 -672 -778 0
540 594 -828 0
550 704 -836 0
-565 -613 812 0
575 587 -778 0
-715 716 -730 0
-479 760 803 0
524 526 -814 0
-515 716 -757 0
591 -706 -829 0
565 -639 -694 0
-478 -565 694 0
488 -622 694 0
697 -740 -808 0
-460 536 -655 0
470 506 -724 0
585 683 -830 0
-551 689 729 0
-481 740 763 0
488 -778 833 0
583 636 -774 0
487 -498 597 0
-548 709 -833 0
459 -488 -579 0
660 -663 -669 0
741 -769 808 0
-587 803 -833 0
536 668 -683 0
527 -577 638 0
465 664 -777 0
523 -531 829 0
-581 582 -744 0
-607 731 748 0
-760 -762 -819 0
-506 555 -574 0
575 609 754 0
467 680 784 0
-486 -528 597 0
486 539 -637 0
614 -756 821 0
-511 -526 642 0
-453 -700 790 0
499 624 675 0
-588 -590 688 0
-544 647 -767 0
617 -642 742 0
469 686 776 0
531 624 -720 0
-638 746 779 0
492 -807 836 0
504 693 774 0
-469 -755 827 0
481 -506 -817 0
570 726 786 0
691 -724 -792 0
623 717 -781 0
472 -473 -702 0
-500 -626 649 0
690 -712 823 0
587 690 -735 0
-538 -813 -829 0
-460 491 -826 0
662 -755 -779 0
-500 -551 814 0
454 -577 611 0
505 -648 -716 0
769 -800 824 0
601 603 653 0
486 -533 -704 0
549 668 -753 0
-576 -612 -623 0
-612 796 -819 0
480 -598 818 0
468 792 795 0
-579 681 -813 0
732 749 814 0
-520 718 -771 0
533 -536 -637 0
564 660 -834 0
-554 702 -724 0
-500 697 -762 0
-716 -773 823 0
609 709 826 0
474 699 -791 0
582 -763 831 0
-479 -510 -557 0
-528 732 774 0
471 -487 -803 0
-641 -695 -796 0
-564 731 -748 0
622 664 822 0
492 -571 755 0
-514 522 -713 0
581 -622 -673 0
661 -664 816 0
-681 772 818 0
-532 -573 -581 0
490 -528 642 0
-517 537 -765 0
-547 -560 -561 0
765 -814 833 0
-501 -645 647 0
-671 -681 -712 0
456 504 -581 0
-564 690 -736 0
475 574 -696 0
760 777 -834 0
456 -486 833 0
-601 -661 796 0
-477 -483 726 0
-527 -739 -740 0
-485 -736 -764 0
511 677 -729 0
-467 647 -710 0
-571 582 -718 0
-550 745 -832 0
-652 -697 701 0
590 -647 -657 0
-480 703 -795 0
659 -697 769 0
-532 -619 -734 0
597 609 721 0
525 546 -751 0
-508 583 -586 0
629 -687 771 0
487 661 810 0
508 -633 -761 0
489 -704 -828 0
-473 -648 -690 0
-735 765 -776 0
-498 -698 835 0
-461 -475 648 0
-603 -704 763 0
-754 766 -784 0
-522 577 750 0
-462 -513 -649 0
-492 596 -634 0
464 -685 784 0
-505 633 -733 0
538 545 -735 0
508 801 812 0
501 -558 832 0
-600 673 -814 0
473 -639 -738 0
-521 543 -741 0
-493 546 -619 0
-571 -584 -637 0
-581 688 -733 0
-639 -690 -834 0
542 -564 -696 0
568 764 811 0
544 585 679 0
536 -591 708 0
-644 704 748 0
-682 704 -737 0
-528 -631 745 0
480 -593 -598 0
-577 691 -723 0
-511 -678 752 0
-636 671 692 0
-520 576 -835 0
-503 697 828 0
-458 544 -581 0
541 -710 804 0
-641 -780 794 0
497 -507 685 0
473 -567 794 0
-550 569 694 0
524 558 647 0
-493 -658 -812 0
-492 -660 810 0
480 659 735 0
-576 -703 730 0
774 791 832 0
520 771 790 0
497 558 -742 0
-668 679 771 0
615 799 802 0
-483 -487 -733 0
-542 604 -722 0
-481 678 759 0
-560 -585 679 0
-486 -608 649 0
558 -774 777 0
541 725 -738 0
701 -777 -817 0
527 -618 805 0
-666 671 814 0
489 492 533 0
678 700 -720 0
-532 621 738 0
-509 -645 757 0
701 712 -835 0
551 679 764 0
661 720 778 0
465 -470 596 0
556 606 -717 0
463 606 -654 0
508 -589 -833 0
-463 -507 -822 0
-511 787 799 0
-493 -600 -635 0
705 -711 -718 0
525 -575 -771 0
509 619 835 0
-787 -801 814 0
483 -565 -697 0
505 607 -635 0
564 -645 -649 0
456 645 710 0
-489 -507 -547 0
-460 603 808 0
504 533 743 0
518 651 680 0
-567 -723 -749 0
515 536 -545 0
-456 472 740 0
-527 678 -810 0
695 -705 -719 0
-616 630 -652 0
-547 -601 -792 0
-569 595 726 0
-565 598 829 0
-482 633 719 0
-476 -567 -775 0
-468 -644 -676 0
563 645 738 0
-591 -671 775 0
697 -703 833 0
-633 -689 -774 0
-619 671 -725 0
-675 -805 833 0
495 501 653 0
-583 -645 -664 0
-662 703 818 0
-649 681 -823 0
524 692 702 0
671 680 760 0
-461 620 -805 0
769 781 -833 0
-537 561 579 0
-502 -553 713 0
-621 -634 -741 0
534 -554 807 0
593 -721 -791 0
-490 -539 -564 0
529 667 775 0
-537 -601 -680 0
649 -696 767 0
498 505 -744 0
680 713 726 0
604 -699 -821 0
-521 -592 599 0
-558 -714 755 0
492 -736 761 0
701 764 -793 0
461 625 -771 0
-480 -501 527 0
-472 -572 -831 0
-748 -810 812 0
-577 798 -825 0
-554 692 -830 0
-526 685 715 0
554 -574 -807 0
738 -781 789 0
-618 748 -794 0
-544 625 728 0
-486 -562 641 0
-455 596 624 0
-484 585 663 0
537 -568 -609 0
-486 506 526 0
-541 552 578 0
498 -723 -835 0
616 -657 750 0
518 554 715 0
472 528 534 0
-466 740 832 0
535 -639 -712 0
485 530 782 0
511 -595 772 0
460 481 -556 0
-719 749 784 0
498 590 771 0
-601 -782 -813 0
-571 603 828 0
-457 469 -801 0
-456 527 717 0
-471 571 780 0
712 729 -739 0
-520 -584 -769 0
-517 724 -764 0
514 543 642 0
-621 -678 770 0
-467 514 -515 0
459 624 734 0
-629 -651 774 0
619 -707 755 0
-510 -822 -824 0
-557 673 -781 0
513 515 -567 0
478 735 -827 0
-465 -513 -785 0
-582 -636 -729 0
515 555 770 0
-518 555 -763 0
-743 757 793 0
-515 -610 772 0
-529 -664 830 0
532 756 784 0
-639 -692 -808 0
-478 -719 722 0
544 -594 718 0
-565 -610 -649 0
600 -639 800 0
488 508 785 0
500 -601 628 0
595 -783 -800 0
648 -721 750 0
510 654 -735 0
466 514 558 0
-460 -619 695 0
-684 693 704 0
692 -724 -764 0
-521 598 721 0
621 -626 790 0
-525 -634 722 0
472 515 -728 0
660 698 700 0
687 712 -748 0
-602 -642 -771 0
624 -646 807 0
-644 741 778 0
-649 659 721 0
-654 743 -780 0
-625 670 740 0
-659 694 819 0
489 543 -736 0
-655 -696 -706 0
-608 -713 791 0
-596 670 -682 0
489 -605 819 0
670 -690 694 0
-544 589 629 0
-577 -675 814 0
642 723 777 0
667 -774 -808 0
512 579 -582 0
-473 567 -600 0
-681 -735 798 0
487 511 -834 0
-615 711 742 0
532 547 -568 0
703 730 -773 0
-683 -786 -801 0
503 562 -754 0
642 -779 813 0
-475 594 609 0
-499 629 768 0
-524 665 719 0
-460 539 784 0
-500 -533 541 0
489 -579 -656 0
-572 611 -711 0
-588 592 -671 0
545 607 -769 0
562 809 835 0
-507 -539 577 0
512 -711 -772 0
-621 -657 799 0
563 -654 -711 0
472 507 535 0
-475 -732 -825 0
-455 764 -765 0
533 -618 -741 0
515 747 -836 0
534 588 614 0
-707 758 -784 0
479 -701 772 0
705 707 766 0
558 -587 -783 0
-474 759 814 0
-616 -664 -788 0
776 -785 809 0
496 567 598 0
-473 520 717 0
578 -751 -822 0
-473 -733 -820 0
-471 -610 -654 0
635 -638 -682 0
-585 -771 796 0
-486 489 766 0
-509 -587 651 0
530 551 -829 0
537 678 -796 0
-579 -585 716 0
465 -604 -772 0
466 731 -831 0
471 754 -771 0
-608 638 745 0
-574 690 -793 0
501 -592 724 0
704 -765 -795 0
601 755 762 0
459 -481 -616 0
-494 775 829 0
-637 -645 -777 0
461 663 -683 0
521 638 776 0
458 551 -599 0
-643 678 766 0
489 -580 -588 0
494 -679 797 0
456 510 788 0
-500 -574 -731 0
518 -562 -722 0
485 653 -705 0
-522 686 782 0
488 -729 802 0
485 -612 -745 0
550 -573 -757 0
-513 746 830 0
-481 -522 -601 0
623 -636 -752 0
594 609 -655 0
-493 539 720 0
-589 -676 -685 0
-629 -769 -774 0
-563 696 823 0
-674 -751 835 0
-454 590 769 0
-578 -721 769 0
-652 -798 -802 0
665 678 822 0
-611 -622 -697 0
493 514 679 0
-506 -551 681 0
-560 -662 -665 0
569 -657 -734 0
635 -747 -788 0
-494 552 699 0
-455 476 743 0
-559 -620 755 0
558 606 -825 0
-553 -594 -833 0
-470 -584 819 0
468 -611 706 0
-535 -567 799 0
-570 -681 700 0
-586 -740 761 0
616 -724 737 0
-525 593 744 0
-568 588 734 0
523 567 -803 0
-613 -794 808 0
640 -696 765 0
-461 -552 -599 0
458 -555 -798 0
520 -764 -767 0
-502 -520 821 0
612 -787 -833 0
-480 568 -686 0
540 -693 -836 0
505 -668 -689 0
621 736 789 0
597 -620 624 0
-554 -687 816 0
582 -722 -836 0
-649 671 834 0
-486 568 -698 0
-543 -611 -639 0
-635 -666 -702 0
558 593 739 0
-563 -623 -779 0
592 608 616 0
456 -694 -744 0
-627 -642 758 0
500 554 -775 0
565 607 810 0
589 -591 825 0
535 574 -629 0
624 679 -770 0
-533 567 -829 0
473 545 628 0
-469 645 647 0
664 806 -825 0
-671 -719 -755 0
541 -637 758 0
-609 616 705 0
-564 -742 -794 0
-530 640 -740 0
-486 643 658 0
572 -579 592 0
-463 -591 836 0
495 -786 793 0
-528 -586 -599 0
594 -616 817 0
542 702 -828 0
642 676 754 0
-520 -561 -683 0
-456 -478 -531 0
608 -670 -678 0
545 555 576 0
507 -528 -609 0
553 -645 -786 0
-464 537 -671 0
500 -520 -741 0
546 -608 -690 0
496 -721 726 0
549 -650 -715 0
-493 -516 -579 0
-533 737 -805 0
474 -541 585 0
-562 599 -803 0
577 -588 -818 0
503 537 -591 0
490 -768 -828 0
623 -765 -783 0
-457 479 -782 0
515 561 565 0
592 633 -820 0
-593 -630 755 0
478 -647 742 0
680 764 -818 0
528 -542 828 0
522 -625 -737 0
622 -642 765 0
-572 -583 633 0
-515 737 747 0
-537 619 626 0
-552 -646 797 0
-481 -603 -799 0
512 721 726 0
531 -637 -679 0
-622 664 -782 0
-545 566 764 0
-754 773 -819 0
633 -645 780 0
-530 668 -777 0
542 580 -644 0
-585 598 -818 0
575 -721 -790 0
-463 -670 -827 0
-539 -705 741 0
633 720 804 0
-494 625 -690 0
-530 571 -573 0
461 609 704 0
-455 -611 -668 0
605 689 701 0
-568 -678 -762 0
-482 540 685 0
543 564 799 0
496 593 731 0
469 711 725 0
-557 -613 706 0
-514 557 -780 0
-454 -766 817 0
484 659 -726 0
553 743 816 0
613 -651 667 0
-463 -499 777 0
463 -660 -759 0
516 -607 773 0
-545 686 -784 0
517 -545 775 0
493 516 -706 0
-494 -502 660 0
453 506 517 0
557 579 672 0
-572 -724 767 0
-489 518 -630 0
-577 -616 -718 0
-606 770 -812 0
-596 -712 780 0
478 -643 718 0
540 -615 -661 0
-483 -668 704 0
-500 -653 -762 0
561 587 782 0
-572 805 816 0
-514 -579 796 0
530 691 806 0
-484 604 806 0
-477 -499 557 0
484 518 -671 0
-566 571 731 0
486 506 -581 0
-549 594 623 0
-570 615 729 0
481 -540 -588 0
-584 809 833 0
602 699 -793 0
472 490 627 0
629 666 756 0
-492 597 613 0
-507 606 806 0
604 696 -825 0
-549 614 -676 0
515 654 830 0
-457 -461 717 0
-592 606 732 0
-553 568 800 0
-681 -706 762 0
464 -666 -834 0
556 565 -592 0
-561 640 836 0
646 -722 784 0
657 -716 724 0
-621 -669 -683 0
-559 -635 -669 0
577 802 827 0
552 -581 -782 0
513 717 -781 0
-616 -619 -822 0
-463 -703 -748 0
485 496 767 0
-467 -572 -642 0
-591 -635 766 0
-587 -614 738 0
-555 -628 771 0
556 -704 723 0
489 629 -781 0
-573 652 -729 0
499 629 769 0
-474 503 586 0
655 -657 769 0
-712 -734 797 0
640 -749 803 0
-475 -627 824 0
469 -543 822 0
789 -793 -830 0
493 535 654 0
493 593 -831 0
-502 -618 -633 0
481 -509 -811 0
-563 653 -756 0
-594 663 791 0
-612 677 746 0
-505 -770 -817 0
-498 -516 646 0
-573 -671 721 0
481 -655 -746 0
-658 -727 764 0
526 689 -819 0
568 -613 618 0
521 -741 -765 0
649 690 719 0
635 -759 -810 0
-477 -762 -797 0
-464 -531 -773 0
463 503 -616 0
-525 658 -797 0
699 -755 -771 0
492 537 -555 0
572 -740 783 0
-490 634 810 0
561 794 -813 0
627 -652 771 0
-571 -603 -809 0
462 578 -755 0
746 -787 805 0
487 639 766 0
507 -523 -601 0
-463 -582 -758 0
-617 -677 -718 0
-515 -633 780 0
615 733 785 0
-530 -602 -760 0
718 -765 806 0
573 772 -829 0
-588 -789 -815 0
576 602 -835 0
487 -791 796 0
-667 -819 -824 0
567 580 621 0
453 -577 -723 0
750 -754 816 0
510 525 816 0
506 541 605 0
-645 646 -810 0
-582 644 -815 0
683 735 -760 0
-487 -559 698 0
527 698 722 0
582 760 -764 0
-586 642 -757 0
653 -745 765 0
607 674 -725 0
653 699 813 0
472 -741 -821 0
524 -681 -760 0
-463 490 505 0
-465 -548 -694 0
-690 758 804 0
474 -614 668 0
722 -751 -785 0
-552 -784 819 0
499 729 737 0
-561 -654 -703 0
-677 -712 -806 0
-477 -647 -706 0
491 567 -803 0
-473 631 796 0
-512 -690 -818 0
-488 -529 -716 0
-468 506 -792 0
521 626 821 0
535 566 592 0
622 702 -792 0
458 644 820 0
471 -602 785 0
-695 -786 -804 0
-625 -753 830 0
469 519 -745 0
525 -587 -745 0
-463 643 -690 0
516 -582 630 0
533 680 826 0
493 732 -755 0
-471 566 -623 0
-456 -468 486 0
454 -568 640 0
-739 787 788 0
-573 676 -712 0
485 583 -622 0
497 540 621 0
520 -545 -729 0
-550 598 675 0
-701 746 -796 0
-625 793 822 0
604 665 797 0
514 -573 725 0
652 -746 -829 0
-583 687 728 0
555 566 626 0
520 601 686 0
533 -767 -794 0
490 680 -714 0
-550 664 -771 0
470 -514 -775 0
462 -478 -641 0
-514 -726 822 0
-606 697 792 0
580 -640 -755 0
-610 666 797 0
-456 -472 760 0
-595 635 -668 0
-459 -548 -683 0
484 486 -790 0
-543 -579 -583 0
-474 502 650 0
495 -661 758 0
-629 763 -827 0
501 -551 807 0
-461 -548 686 0
557 605 791 0
-498 -720 -826 0
-539 792 796 0
-550 -767 -794 0
-561 -644 669 0
