c Phase 3 generated performance instance
c family=hidden_pigeonhole
c scale=9
c variant=phase4b_noise100
c noise_percent=100
c expected=UNSATISFIABLE
p cnf 1224 2268
-1 -2 73 0
-1 -2 -73 0
-1 -3 74 0
-1 -3 -74 0
-1 -4 75 0
-1 -4 -75 0
-1 -5 76 0
-1 -5 -76 0
-1 -6 77 0
-1 -6 -77 0
-1 -7 78 0
-1 -7 -78 0
-1 -8 79 0
-1 -8 -79 0
-2 -3 80 0
-2 -3 -80 0
-2 -4 81 0
-2 -4 -81 0
-2 -5 82 0
-2 -5 -82 0
-2 -6 83 0
-2 -6 -83 0
-2 -7 84 0
-2 -7 -84 0
-2 -8 85 0
-2 -8 -85 0
-3 -4 86 0
-3 -4 -86 0
-3 -5 87 0
-3 -5 -87 0
-3 -6 88 0
-3 -6 -88 0
-3 -7 89 0
-3 -7 -89 0
-3 -8 90 0
-3 -8 -90 0
-4 -5 91 0
-4 -5 -91 0
-4 -6 92 0
-4 -6 -92 0
-4 -7 93 0
-4 -7 -93 0
-4 -8 94 0
-4 -8 -94 0
-5 -6 95 0
-5 -6 -95 0
-5 -7 96 0
-5 -7 -96 0
-5 -8 97 0
-5 -8 -97 0
-6 -7 98 0
-6 -7 -98 0
-6 -8 99 0
-6 -8 -99 0
-7 -8 100 0
-7 -8 -100 0
1 2 101 0
3 -101 102 0
4 -102 103 0
5 -103 104 0
6 -104 105 0
7 8 -105 0
-9 -10 106 0
-9 -10 -106 0
-9 -11 107 0
-9 -11 -107 0
-9 -12 108 0
-9 -12 -108 0
-9 -13 109 0
-9 -13 -109 0
-9 -14 110 0
-9 -14 -110 0
-9 -15 111 0
-9 -15 -111 0
-9 -16 112 0
-9 -16 -112 0
-10 -11 113 0
-10 -11 -113 0
-10 -12 114 0
-10 -12 -114 0
-10 -13 115 0
-10 -13 -115 0
-10 -14 116 0
-10 -14 -116 0
-10 -15 117 0
-10 -15 -117 0
-10 -16 118 0
-10 -16 -118 0
-11 -12 119 0
-11 -12 -119 0
-11 -13 120 0
-11 -13 -120 0
-11 -14 121 0
-11 -14 -121 0
-11 -15 122 0
-11 -15 -122 0
-11 -16 123 0
-11 -16 -123 0
-12 -13 124 0
-12 -13 -124 0
-12 -14 125 0
-12 -14 -125 0
-12 -15 126 0
-12 -15 -126 0
-12 -16 127 0
-12 -16 -127 0
-13 -14 128 0
-13 -14 -128 0
-13 -15 129 0
-13 -15 -129 0
-13 -16 130 0
-13 -16 -130 0
-14 -15 131 0
-14 -15 -131 0
-14 -16 132 0
-14 -16 -132 0
-15 -16 133 0
-15 -16 -133 0
9 10 134 0
11 -134 135 0
12 -135 136 0
13 -136 137 0
14 -137 138 0
15 16 -138 0
-17 -18 139 0
-17 -18 -139 0
-17 -19 140 0
-17 -19 -140 0
-17 -20 141 0
-17 -20 -141 0
-17 -21 142 0
-17 -21 -142 0
-17 -22 143 0
-17 -22 -143 0
-17 -23 144 0
-17 -23 -144 0
-17 -24 145 0
-17 -24 -145 0
-18 -19 146 0
-18 -19 -146 0
-18 -20 147 0
-18 -20 -147 0
-18 -21 148 0
-18 -21 -148 0
-18 -22 149 0
-18 -22 -149 0
-18 -23 150 0
-18 -23 -150 0
-18 -24 151 0
-18 -24 -151 0
-19 -20 152 0
-19 -20 -152 0
-19 -21 153 0
-19 -21 -153 0
-19 -22 154 0
-19 -22 -154 0
-19 -23 155 0
-19 -23 -155 0
-19 -24 156 0
-19 -24 -156 0
-20 -21 157 0
-20 -21 -157 0
-20 -22 158 0
-20 -22 -158 0
-20 -23 159 0
-20 -23 -159 0
-20 -24 160 0
-20 -24 -160 0
-21 -22 161 0
-21 -22 -161 0
-21 -23 162 0
-21 -23 -162 0
-21 -24 163 0
-21 -24 -163 0
-22 -23 164 0
-22 -23 -164 0
-22 -24 165 0
-22 -24 -165 0
-23 -24 166 0
-23 -24 -166 0
17 18 167 0
19 -167 168 0
20 -168 169 0
21 -169 170 0
22 -170 171 0
23 24 -171 0
-25 -26 172 0
-25 -26 -172 0
-25 -27 173 0
-25 -27 -173 0
-25 -28 174 0
-25 -28 -174 0
-25 -29 175 0
-25 -29 -175 0
-25 -30 176 0
-25 -30 -176 0
-25 -31 177 0
-25 -31 -177 0
-25 -32 178 0
-25 -32 -178 0
-26 -27 179 0
-26 -27 -179 0
-26 -28 180 0
-26 -28 -180 0
-26 -29 181 0
-26 -29 -181 0
-26 -30 182 0
-26 -30 -182 0
-26 -31 183 0
-26 -31 -183 0
-26 -32 184 0
-26 -32 -184 0
-27 -28 185 0
-27 -28 -185 0
-27 -29 186 0
-27 -29 -186 0
-27 -30 187 0
-27 -30 -187 0
-27 -31 188 0
-27 -31 -188 0
-27 -32 189 0
-27 -32 -189 0
-28 -29 190 0
-28 -29 -190 0
-28 -30 191 0
-28 -30 -191 0
-28 -31 192 0
-28 -31 -192 0
-28 -32 193 0
-28 -32 -193 0
-29 -30 194 0
-29 -30 -194 0
-29 -31 195 0
-29 -31 -195 0
-29 -32 196 0
-29 -32 -196 0
-30 -31 197 0
-30 -31 -197 0
-30 -32 198 0
-30 -32 -198 0
-31 -32 199 0
-31 -32 -199 0
25 26 200 0
27 -200 201 0
28 -201 202 0
29 -202 203 0
30 -203 204 0
31 32 -204 0
-33 -34 205 0
-33 -34 -205 0
-33 -35 206 0
-33 -35 -206 0
-33 -36 207 0
-33 -36 -207 0
-33 -37 208 0
-33 -37 -208 0
-33 -38 209 0
-33 -38 -209 0
-33 -39 210 0
-33 -39 -210 0
-33 -40 211 0
-33 -40 -211 0
-34 -35 212 0
-34 -35 -212 0
-34 -36 213 0
-34 -36 -213 0
-34 -37 214 0
-34 -37 -214 0
-34 -38 215 0
-34 -38 -215 0
-34 -39 216 0
-34 -39 -216 0
-34 -40 217 0
-34 -40 -217 0
-35 -36 218 0
-35 -36 -218 0
-35 -37 219 0
-35 -37 -219 0
-35 -38 220 0
-35 -38 -220 0
-35 -39 221 0
-35 -39 -221 0
-35 -40 222 0
-35 -40 -222 0
-36 -37 223 0
-36 -37 -223 0
-36 -38 224 0
-36 -38 -224 0
-36 -39 225 0
-36 -39 -225 0
-36 -40 226 0
-36 -40 -226 0
-37 -38 227 0
-37 -38 -227 0
-37 -39 228 0
-37 -39 -228 0
-37 -40 229 0
-37 -40 -229 0
-38 -39 230 0
-38 -39 -230 0
-38 -40 231 0
-38 -40 -231 0
-39 -40 232 0
-39 -40 -232 0
33 34 233 0
35 -233 234 0
36 -234 235 0
37 -235 236 0
38 -236 237 0
39 40 -237 0
-41 -42 238 0
-41 -42 -238 0
-41 -43 239 0
-41 -43 -239 0
-41 -44 240 0
-41 -44 -240 0
-41 -45 241 0
-41 -45 -241 0
-41 -46 242 0
-41 -46 -242 0
-41 -47 243 0
-41 -47 -243 0
-41 -48 244 0
-41 -48 -244 0
-42 -43 245 0
-42 -43 -245 0
-42 -44 246 0
-42 -44 -246 0
-42 -45 247 0
-42 -45 -247 0
-42 -46 248 0
-42 -46 -248 0
-42 -47 249 0
-42 -47 -249 0
-42 -48 250 0
-42 -48 -250 0
-43 -44 251 0
-43 -44 -251 0
-43 -45 252 0
-43 -45 -252 0
-43 -46 253 0
-43 -46 -253 0
-43 -47 254 0
-43 -47 -254 0
-43 -48 255 0
-43 -48 -255 0
-44 -45 256 0
-44 -45 -256 0
-44 -46 257 0
-44 -46 -257 0
-44 -47 258 0
-44 -47 -258 0
-44 -48 259 0
-44 -48 -259 0
-45 -46 260 0
-45 -46 -260 0
-45 -47 261 0
-45 -47 -261 0
-45 -48 262 0
-45 -48 -262 0
-46 -47 263 0
-46 -47 -263 0
-46 -48 264 0
-46 -48 -264 0
-47 -48 265 0
-47 -48 -265 0
41 42 266 0
43 -266 267 0
44 -267 268 0
45 -268 269 0
46 -269 270 0
47 48 -270 0
-49 -50 271 0
-49 -50 -271 0
-49 -51 272 0
-49 -51 -272 0
-49 -52 273 0
-49 -52 -273 0
-49 -53 274 0
-49 -53 -274 0
-49 -54 275 0
-49 -54 -275 0
-49 -55 276 0
-49 -55 -276 0
-49 -56 277 0
-49 -56 -277 0
-50 -51 278 0
-50 -51 -278 0
-50 -52 279 0
-50 -52 -279 0
-50 -53 280 0
-50 -53 -280 0
-50 -54 281 0
-50 -54 -281 0
-50 -55 282 0
-50 -55 -282 0
-50 -56 283 0
-50 -56 -283 0
-51 -52 284 0
-51 -52 -284 0
-51 -53 285 0
-51 -53 -285 0
-51 -54 286 0
-51 -54 -286 0
-51 -55 287 0
-51 -55 -287 0
-51 -56 288 0
-51 -56 -288 0
-52 -53 289 0
-52 -53 -289 0
-52 -54 290 0
-52 -54 -290 0
-52 -55 291 0
-52 -55 -291 0
-52 -56 292 0
-52 -56 -292 0
-53 -54 293 0
-53 -54 -293 0
-53 -55 294 0
-53 -55 -294 0
-53 -56 295 0
-53 -56 -295 0
-54 -55 296 0
-54 -55 -296 0
-54 -56 297 0
-54 -56 -297 0
-55 -56 298 0
-55 -56 -298 0
49 50 299 0
51 -299 300 0
52 -300 301 0
53 -301 302 0
54 -302 303 0
55 56 -303 0
-57 -58 304 0
-57 -58 -304 0
-57 -59 305 0
-57 -59 -305 0
-57 -60 306 0
-57 -60 -306 0
-57 -61 307 0
-57 -61 -307 0
-57 -62 308 0
-57 -62 -308 0
-57 -63 309 0
-57 -63 -309 0
-57 -64 310 0
-57 -64 -310 0
-58 -59 311 0
-58 -59 -311 0
-58 -60 312 0
-58 -60 -312 0
-58 -61 313 0
-58 -61 -313 0
-58 -62 314 0
-58 -62 -314 0
-58 -63 315 0
-58 -63 -315 0
-58 -64 316 0
-58 -64 -316 0
-59 -60 317 0
-59 -60 -317 0
-59 -61 318 0
-59 -61 -318 0
-59 -62 319 0
-59 -62 -319 0
-59 -63 320 0
-59 -63 -320 0
-59 -64 321 0
-59 -64 -321 0
-60 -61 322 0
-60 -61 -322 0
-60 -62 323 0
-60 -62 -323 0
-60 -63 324 0
-60 -63 -324 0
-60 -64 325 0
-60 -64 -325 0
-61 -62 326 0
-61 -62 -326 0
-61 -63 327 0
-61 -63 -327 0
-61 -64 328 0
-61 -64 -328 0
-62 -63 329 0
-62 -63 -329 0
-62 -64 330 0
-62 -64 -330 0
-63 -64 331 0
-63 -64 -331 0
57 58 332 0
59 -332 333 0
60 -333 334 0
61 -334 335 0
62 -335 336 0
63 64 -336 0
-65 -66 337 0
-65 -66 -337 0
-65 -67 338 0
-65 -67 -338 0
-65 -68 339 0
-65 -68 -339 0
-65 -69 340 0
-65 -69 -340 0
-65 -70 341 0
-65 -70 -341 0
-65 -71 342 0
-65 -71 -342 0
-65 -72 343 0
-65 -72 -343 0
-66 -67 344 0
-66 -67 -344 0
-66 -68 345 0
-66 -68 -345 0
-66 -69 346 0
-66 -69 -346 0
-66 -70 347 0
-66 -70 -347 0
-66 -71 348 0
-66 -71 -348 0
-66 -72 349 0
-66 -72 -349 0
-67 -68 350 0
-67 -68 -350 0
-67 -69 351 0
-67 -69 -351 0
-67 -70 352 0
-67 -70 -352 0
-67 -71 353 0
-67 -71 -353 0
-67 -72 354 0
-67 -72 -354 0
-68 -69 355 0
-68 -69 -355 0
-68 -70 356 0
-68 -70 -356 0
-68 -71 357 0
-68 -71 -357 0
-68 -72 358 0
-68 -72 -358 0
-69 -70 359 0
-69 -70 -359 0
-69 -71 360 0
-69 -71 -360 0
-69 -72 361 0
-69 -72 -361 0
-70 -71 362 0
-70 -71 -362 0
-70 -72 363 0
-70 -72 -363 0
-71 -72 364 0
-71 -72 -364 0
65 66 365 0
67 -365 366 0
68 -366 367 0
69 -367 368 0
70 -368 369 0
71 72 -369 0
-1 -9 370 0
-1 -9 -370 0
-1 -17 371 0
-1 -17 -371 0
-1 -25 372 0
-1 -25 -372 0
-1 -33 373 0
-1 -33 -373 0
-1 -41 374 0
-1 -41 -374 0
-1 -49 375 0
-1 -49 -375 0
-1 -57 376 0
-1 -57 -376 0
-1 -65 377 0
-1 -65 -377 0
-9 -17 378 0
-9 -17 -378 0
-9 -25 379 0
-9 -25 -379 0
-9 -33 380 0
-9 -33 -380 0
-9 -41 381 0
-9 -41 -381 0
-9 -49 382 0
-9 -49 -382 0
-9 -57 383 0
-9 -57 -383 0
-9 -65 384 0
-9 -65 -384 0
-17 -25 385 0
-17 -25 -385 0
-17 -33 386 0
-17 -33 -386 0
-17 -41 387 0
-17 -41 -387 0
-17 -49 388 0
-17 -49 -388 0
-17 -57 389 0
-17 -57 -389 0
-17 -65 390 0
-17 -65 -390 0
-25 -33 391 0
-25 -33 -391 0
-25 -41 392 0
-25 -41 -392 0
-25 -49 393 0
-25 -49 -393 0
-25 -57 394 0
-25 -57 -394 0
-25 -65 395 0
-25 -65 -395 0
-33 -41 396 0
-33 -41 -396 0
-33 -49 397 0
-33 -49 -397 0
-33 -57 398 0
-33 -57 -398 0
-33 -65 399 0
-33 -65 -399 0
-41 -49 400 0
-41 -49 -400 0
-41 -57 401 0
-41 -57 -401 0
-41 -65 402 0
-41 -65 -402 0
-49 -57 403 0
-49 -57 -403 0
-49 -65 404 0
-49 -65 -404 0
-57 -65 405 0
-57 -65 -405 0
-2 -10 406 0
-2 -10 -406 0
-2 -18 407 0
-2 -18 -407 0
-2 -26 408 0
-2 -26 -408 0
-2 -34 409 0
-2 -34 -409 0
-2 -42 410 0
-2 -42 -410 0
-2 -50 411 0
-2 -50 -411 0
-2 -58 412 0
-2 -58 -412 0
-2 -66 413 0
-2 -66 -413 0
-10 -18 414 0
-10 -18 -414 0
-10 -26 415 0
-10 -26 -415 0
-10 -34 416 0
-10 -34 -416 0
-10 -42 417 0
-10 -42 -417 0
-10 -50 418 0
-10 -50 -418 0
-10 -58 419 0
-10 -58 -419 0
-10 -66 420 0
-10 -66 -420 0
-18 -26 421 0
-18 -26 -421 0
-18 -34 422 0
-18 -34 -422 0
-18 -42 423 0
-18 -42 -423 0
-18 -50 424 0
-18 -50 -424 0
-18 -58 425 0
-18 -58 -425 0
-18 -66 426 0
-18 -66 -426 0
-26 -34 427 0
-26 -34 -427 0
-26 -42 428 0
-26 -42 -428 0
-26 -50 429 0
-26 -50 -429 0
-26 -58 430 0
-26 -58 -430 0
-26 -66 431 0
-26 -66 -431 0
-34 -42 432 0
-34 -42 -432 0
-34 -50 433 0
-34 -50 -433 0
-34 -58 434 0
-34 -58 -434 0
-34 -66 435 0
-34 -66 -435 0
-42 -50 436 0
-42 -50 -436 0
-42 -58 437 0
-42 -58 -437 0
-42 -66 438 0
-42 -66 -438 0
-50 -58 439 0
-50 -58 -439 0
-50 -66 440 0
-50 -66 -440 0
-58 -66 441 0
-58 -66 -441 0
-3 -11 442 0
-3 -11 -442 0
-3 -19 443 0
-3 -19 -443 0
-3 -27 444 0
-3 -27 -444 0
-3 -35 445 0
-3 -35 -445 0
-3 -43 446 0
-3 -43 -446 0
-3 -51 447 0
-3 -51 -447 0
-3 -59 448 0
-3 -59 -448 0
-3 -67 449 0
-3 -67 -449 0
-11 -19 450 0
-11 -19 -450 0
-11 -27 451 0
-11 -27 -451 0
-11 -35 452 0
-11 -35 -452 0
-11 -43 453 0
-11 -43 -453 0
-11 -51 454 0
-11 -51 -454 0
-11 -59 455 0
-11 -59 -455 0
-11 -67 456 0
-11 -67 -456 0
-19 -27 457 0
-19 -27 -457 0
-19 -35 458 0
-19 -35 -458 0
-19 -43 459 0
-19 -43 -459 0
-19 -51 460 0
-19 -51 -460 0
-19 -59 461 0
-19 -59 -461 0
-19 -67 462 0
-19 -67 -462 0
-27 -35 463 0
-27 -35 -463 0
-27 -43 464 0
-27 -43 -464 0
-27 -51 465 0
-27 -51 -465 0
-27 -59 466 0
-27 -59 -466 0
-27 -67 467 0
-27 -67 -467 0
-35 -43 468 0
-35 -43 -468 0
-35 -51 469 0
-35 -51 -469 0
-35 -59 470 0
-35 -59 -470 0
-35 -67 471 0
-35 -67 -471 0
-43 -51 472 0
-43 -51 -472 0
-43 -59 473 0
-43 -59 -473 0
-43 -67 474 0
-43 -67 -474 0
-51 -59 475 0
-51 -59 -475 0
-51 -67 476 0
-51 -67 -476 0
-59 -67 477 0
-59 -67 -477 0
-4 -12 478 0
-4 -12 -478 0
-4 -20 479 0
-4 -20 -479 0
-4 -28 480 0
-4 -28 -480 0
-4 -36 481 0
-4 -36 -481 0
-4 -44 482 0
-4 -44 -482 0
-4 -52 483 0
-4 -52 -483 0
-4 -60 484 0
-4 -60 -484 0
-4 -68 485 0
-4 -68 -485 0
-12 -20 486 0
-12 -20 -486 0
-12 -28 487 0
-12 -28 -487 0
-12 -36 488 0
-12 -36 -488 0
-12 -44 489 0
-12 -44 -489 0
-12 -52 490 0
-12 -52 -490 0
-12 -60 491 0
-12 -60 -491 0
-12 -68 492 0
-12 -68 -492 0
-20 -28 493 0
-20 -28 -493 0
-20 -36 494 0
-20 -36 -494 0
-20 -44 495 0
-20 -44 -495 0
-20 -52 496 0
-20 -52 -496 0
-20 -60 497 0
-20 -60 -497 0
-20 -68 498 0
-20 -68 -498 0
-28 -36 499 0
-28 -36 -499 0
-28 -44 500 0
-28 -44 -500 0
-28 -52 501 0
-28 -52 -501 0
-28 -60 502 0
-28 -60 -502 0
-28 -68 503 0
-28 -68 -503 0
-36 -44 504 0
-36 -44 -504 0
-36 -52 505 0
-36 -52 -505 0
-36 -60 506 0
-36 -60 -506 0
-36 -68 507 0
-36 -68 -507 0
-44 -52 508 0
-44 -52 -508 0
-44 -60 509 0
-44 -60 -509 0
-44 -68 510 0
-44 -68 -510 0
-52 -60 511 0
-52 -60 -511 0
-52 -68 512 0
-52 -68 -512 0
-60 -68 513 0
-60 -68 -513 0
-5 -13 514 0
-5 -13 -514 0
-5 -21 515 0
-5 -21 -515 0
-5 -29 516 0
-5 -29 -516 0
-5 -37 517 0
-5 -37 -517 0
-5 -45 518 0
-5 -45 -518 0
-5 -53 519 0
-5 -53 -519 0
-5 -61 520 0
-5 -61 -520 0
-5 -69 521 0
-5 -69 -521 0
-13 -21 522 0
-13 -21 -522 0
-13 -29 523 0
-13 -29 -523 0
-13 -37 524 0
-13 -37 -524 0
-13 -45 525 0
-13 -45 -525 0
-13 -53 526 0
-13 -53 -526 0
-13 -61 527 0
-13 -61 -527 0
-13 -69 528 0
-13 -69 -528 0
-21 -29 529 0
-21 -29 -529 0
-21 -37 530 0
-21 -37 -530 0
-21 -45 531 0
-21 -45 -531 0
-21 -53 532 0
-21 -53 -532 0
-21 -61 533 0
-21 -61 -533 0
-21 -69 534 0
-21 -69 -534 0
-29 -37 535 0
-29 -37 -535 0
-29 -45 536 0
-29 -45 -536 0
-29 -53 537 0
-29 -53 -537 0
-29 -61 538 0
-29 -61 -538 0
-29 -69 539 0
-29 -69 -539 0
-37 -45 540 0
-37 -45 -540 0
-37 -53 541 0
-37 -53 -541 0
-37 -61 542 0
-37 -61 -542 0
-37 -69 543 0
-37 -69 -543 0
-45 -53 544 0
-45 -53 -544 0
-45 -61 545 0
-45 -61 -545 0
-45 -69 546 0
-45 -69 -546 0
-53 -61 547 0
-53 -61 -547 0
-53 -69 548 0
-53 -69 -548 0
-61 -69 549 0
-61 -69 -549 0
-6 -14 550 0
-6 -14 -550 0
-6 -22 551 0
-6 -22 -551 0
-6 -30 552 0
-6 -30 -552 0
-6 -38 553 0
-6 -38 -553 0
-6 -46 554 0
-6 -46 -554 0
-6 -54 555 0
-6 -54 -555 0
-6 -62 556 0
-6 -62 -556 0
-6 -70 557 0
-6 -70 -557 0
-14 -22 558 0
-14 -22 -558 0
-14 -30 559 0
-14 -30 -559 0
-14 -38 560 0
-14 -38 -560 0
-14 -46 561 0
-14 -46 -561 0
-14 -54 562 0
-14 -54 -562 0
-14 -62 563 0
-14 -62 -563 0
-14 -70 564 0
-14 -70 -564 0
-22 -30 565 0
-22 -30 -565 0
-22 -38 566 0
-22 -38 -566 0
-22 -46 567 0
-22 -46 -567 0
-22 -54 568 0
-22 -54 -568 0
-22 -62 569 0
-22 -62 -569 0
-22 -70 570 0
-22 -70 -570 0
-30 -38 571 0
-30 -38 -571 0
-30 -46 572 0
-30 -46 -572 0
-30 -54 573 0
-30 -54 -573 0
-30 -62 574 0
-30 -62 -574 0
-30 -70 575 0
-30 -70 -575 0
-38 -46 576 0
-38 -46 -576 0
-38 -54 577 0
-38 -54 -577 0
-38 -62 578 0
-38 -62 -578 0
-38 -70 579 0
-38 -70 -579 0
-46 -54 580 0
-46 -54 -580 0
-46 -62 581 0
-46 -62 -581 0
-46 -70 582 0
-46 -70 -582 0
-54 -62 583 0
-54 -62 -583 0
-54 -70 584 0
-54 -70 -584 0
-62 -70 585 0
-62 -70 -585 0
-7 -15 586 0
-7 -15 -586 0
-7 -23 587 0
-7 -23 -587 0
-7 -31 588 0
-7 -31 -588 0
-7 -39 589 0
-7 -39 -589 0
-7 -47 590 0
-7 -47 -590 0
-7 -55 591 0
-7 -55 -591 0
-7 -63 592 0
-7 -63 -592 0
-7 -71 593 0
-7 -71 -593 0
-15 -23 594 0
-15 -23 -594 0
-15 -31 595 0
-15 -31 -595 0
-15 -39 596 0
-15 -39 -596 0
-15 -47 597 0
-15 -47 -597 0
-15 -55 598 0
-15 -55 -598 0
-15 -63 599 0
-15 -63 -599 0
-15 -71 600 0
-15 -71 -600 0
-23 -31 601 0
-23 -31 -601 0
-23 -39 602 0
-23 -39 -602 0
-23 -47 603 0
-23 -47 -603 0
-23 -55 604 0
-23 -55 -604 0
-23 -63 605 0
-23 -63 -605 0
-23 -71 606 0
-23 -71 -606 0
-31 -39 607 0
-31 -39 -607 0
-31 -47 608 0
-31 -47 -608 0
-31 -55 609 0
-31 -55 -609 0
-31 -63 610 0
-31 -63 -610 0
-31 -71 611 0
-31 -71 -611 0
-39 -47 612 0
-39 -47 -612 0
-39 -55 613 0
-39 -55 -613 0
-39 -63 614 0
-39 -63 -614 0
-39 -71 615 0
-39 -71 -615 0
-47 -55 616 0
-47 -55 -616 0
-47 -63 617 0
-47 -63 -617 0
-47 -71 618 0
-47 -71 -618 0
-55 -63 619 0
-55 -63 -619 0
-55 -71 620 0
-55 -71 -620 0
-63 -71 621 0
-63 -71 -621 0
-8 -16 622 0
-8 -16 -622 0
-8 -24 623 0
-8 -24 -623 0
-8 -32 624 0
-8 -32 -624 0
-8 -40 625 0
-8 -40 -625 0
-8 -48 626 0
-8 -48 -626 0
-8 -56 627 0
-8 -56 -627 0
-8 -64 628 0
-8 -64 -628 0
-8 -72 629 0
-8 -72 -629 0
-16 -24 630 0
-16 -24 -630 0
-16 -32 631 0
-16 -32 -631 0
-16 -40 632 0
-16 -40 -632 0
-16 -48 633 0
-16 -48 -633 0
-16 -56 634 0
-16 -56 -634 0
-16 -64 635 0
-16 -64 -635 0
-16 -72 636 0
-16 -72 -636 0
-24 -32 637 0
-24 -32 -637 0
-24 -40 638 0
-24 -40 -638 0
-24 -48 639 0
-24 -48 -639 0
-24 -56 640 0
-24 -56 -640 0
-24 -64 641 0
-24 -64 -641 0
-24 -72 642 0
-24 -72 -642 0
-32 -40 643 0
-32 -40 -643 0
-32 -48 644 0
-32 -48 -644 0
-32 -56 645 0
-32 -56 -645 0
-32 -64 646 0
-32 -64 -646 0
-32 -72 647 0
-32 -72 -647 0
-40 -48 648 0
-40 -48 -648 0
-40 -56 649 0
-40 -56 -649 0
-40 -64 650 0
-40 -64 -650 0
-40 -72 651 0
-40 -72 -651 0
-48 -56 652 0
-48 -56 -652 0
-48 -64 653 0
-48 -64 -653 0
-48 -72 654 0
-48 -72 -654 0
-56 -64 655 0
-56 -64 -655 0
-56 -72 656 0
-56 -72 -656 0
-64 -72 657 0
-64 -72 -657 0
759 799 1105 0
-768 817 838 0
-960 1025 -1203 0
743 864 1149 0
844 862 -1070 0
727 820 -1010 0
-659 -753 1107 0
693 1179 1186 0
-1031 -1071 1218 0
814 990 1193 0
880 -1016 1118 0
-750 -1145 1184 0
805 896 -902 0
-763 -993 -1192 0
920 1019 1047 0
-1128 1138 -1140 0
725 759 -1003 0
-779 -785 953 0
1002 -1069 -1105 0
-754 -1160 1210 0
750 986 -1029 0
818 932 1095 0
753 -1039 1134 0
751 -859 1124 0
-1023 -1172 1203 0
703 -775 787 0
-760 -993 -999 0
-668 790 804 0
1100 -1125 1215 0
816 843 1045 0
-879 -1037 -1118 0
760 -867 -885 0
664 672 -1192 0
704 1003 1166 0
-691 774 -1107 0
745 -871 -1208 0
735 -839 914 0
751 803 -919 0
-813 -993 1024 0
-813 983 1005 0
-707 772 946 0
673 -737 -930 0
-1033 1135 1184 0
-729 890 1213 0
720 -869 1093 0
691 801 1157 0
816 -893 -1168 0
-841 898 1184 0
885 912 1095 0
-724 -992 1003 0
779 -870 1138 0
-819 915 973 0
-739 1051 1171 0
-1028 -1042 -1106 0
927 -1036 -1169 0
-741 -990 -1081 0
-806 -966 1025 0
-853 948 978 0
699 1063 -1154 0
664 1019 -1150 0
845 -1044 1119 0
-858 -961 -1131 0
-680 1031 1082 0
685 -893 -987 0
-820 -1093 1114 0
-874 -1065 -1224 0
1012 -1036 1182 0
741 -774 1143 0
-1006 -1080 -1171 0
-801 1021 1175 0
-669 -834 -971 0
-881 909 1123 0
-1004 1133 1176 0
694 -918 -1000 0
1050 -1106 -1202 0
-778 873 1117 0
-980 1089 1193 0
762 838 886 0
777 1093 1168 0
766 -799 -1147 0
-914 -1213 -1216 0
788 -1123 1140 0
-831 -864 -879 0
740 -916 -987 0
-695 -1126 -1180 0
-944 -1098 -1151 0
-1080 1209 -1222 0
775 -789 1200 0
-823 -910 -1128 0
666 838 1045 0
-1045 -1090 -1108 0
-721 -1212 1214 0
-681 883 -1121 0
689 821 -852 0
751 -1065 1224 0
671 -749 1104 0
-673 -872 -1171 0
-795 852 -903 0
740 877 -1212 0
674 769 -877 0
733 814 1045 0
770 -940 1215 0
-687 -829 989 0
-972 1019 1122 0
738 775 -822 0
695 890 957 0
-726 -1077 -1186 0
805 976 1146 0
874 -888 916 0
869 918 924 0
912 -1050 -1072 0
-791 -913 1054 0
712 -841 -1159 0
818 1043 1162 0
702 836 -913 0
-881 904 -989 0
-942 1057 -1065 0
-843 -864 922 0
664 829 -981 0
690 -1009 -1198 0
-759 1016 1092 0
-822 -920 980 0
-700 -837 1077 0
-832 -923 1005 0
891 -912 -1040 0
-858 -1010 -1122 0
874 1075 1083 0
741 935 -1078 0
718 -907 -1156 0
-662 -949 -1018 0
-962 1010 1205 0
771 -912 -1069 0
663 -964 1208 0
-819 862 903 0
723 -732 -1040 0
-775 -904 1170 0
959 998 1188 0
712 -1073 1142 0
940 -1005 -1116 0
-826 943 -1016 0
-747 750 -1047 0
-711 -1202 1214 0
813 -921 -922 0
765 857 882 0
-868 -1065 1151 0
761 1003 -1148 0
866 934 946 0
1095 1152 1213 0
762 763 861 0
-826 -960 981 0
801 -817 1033 0
-810 820 -891 0
-820 907 957 0
-751 824 1062 0
918 1196 1207 0
723 915 -923 0
-963 -984 1113 0
-718 952 976 0
709 983 1080 0
-727 -740 -1186 0
-999 1097 -1184 0
761 847 -882 0
-702 886 -1190 0
-699 -967 1037 0
810 -910 -979 0
886 -1001 -1218 0
898 917 1203 0
-816 936 975 0
-794 878 1172 0
-683 -920 -1181 0
-916 -1047 -1215 0
-708 -882 -1101 0
-905 -981 1171 0
701 -872 -1147 0
-784 823 -1029 0
-894 -994 -1013 0
-900 -930 1104 0
790 -835 881 0
866 -908 -1151 0
-770 -1014 -1129 0
-876 -1028 1120 0
-871 1004 1168 0
697 -751 -1212 0
762 975 -1006 0
664 1068 1120 0
-671 1208 -1224 0
717 -728 1058 0
925 932 -996 0
-667 -682 -1044 0
-804 -822 1219 0
810 881 1192 0
849 990 1188 0
672 1096 1111 0
938 -997 -1190 0
-797 892 1096 0
751 860 1182 0
746 -1079 -1121 0
739 1072 -1152 0
787 875 -1116 0
-780 -935 1171 0
-754 764 1134 0
687 794 1164 0
870 -1011 1123 0
-851 -899 1129 0
785 793 1179 0
783 968 1071 0
777 1132 -1213 0
718 761 -942 0
-660 -733 1089 0
691 871 977 0
764 800 -1222 0
940 -982 1016 0
660 -1035 1071 0
839 961 -1162 0
-828 957 1199 0
-740 -899 994 0
804 821 1079 0
881 1097 -1170 0
777 1007 -1186 0
-753 801 -1173 0
-721 -785 -982 0
-659 1046 1139 0
934 -1039 1176 0
-700 765 -1181 0
763 -893 928 0
715 1089 -1151 0
1023 1046 1200 0
684 -707 1186 0
-923 1060 -1135 0
-908 -1034 -1145 0
-681 880 1073 0
-886 -920 925 0
-659 -1119 1138 0
908 -1143 -1167 0
738 -1041 -1213 0
760 985 1059 0
-820 837 1099 0
819 832 908 0
1042 1108 -1148 0
-849 -1021 -1070 0
1121 -1140 1146 0
791 831 -1153 0
-700 1156 1220 0
806 917 1036 0
-663 -988 1121 0
-802 -856 -977 0
-714 -966 -1203 0
-805 810 869 0
668 753 -969 0
838 988 1102 0
-958 -1106 1205 0
989 1149 -1189 0
-850 -904 1079 0
-753 -818 1080 0
-665 -815 -982 0
896 -1016 1209 0
916 975 1045 0
-841 1020 -1079 0
775 994 1041 0
823 -829 -841 0
763 -847 858 0
739 -746 894 0
-839 846 1168 0
-915 -1025 -1194 0
747 977 -1190 0
-815 888 -999 0
762 -766 -983 0
-722 800 -997 0
782 932 1089 0
738 -926 1053 0
-781 -814 977 0
781 -909 999 0
-699 -703 743 0
833 835 1128 0
-789 906 1059 0
-697 744 -1097 0
-661 -1035 1134 0
837 891 -1137 0
-794 922 -1062 0
-879 957 1149 0
-900 -1004 1101 0
866 -1145 -1155 0
950 986 -1111 0
-915 -968 -1167 0
713 -875 -971 0
906 -1158 1183 0
772 1128 -1206 0
-896 -917 1164 0
848 -889 -1177 0
675 -974 1194 0
-849 -915 1049 0
-677 683 1199 0
-827 940 -975 0
837 846 1108 0
-659 -1037 -1169 0
-1037 -1164 -1169 0
-670 -929 -1184 0
665 1089 -1113 0
-673 707 1128 0
683 -756 -1052 0
-979 -1119 -1124 0
-686 -1063 -1116 0
932 -1056 1114 0
667 983 -1190 0
831 -903 -946 0
857 1073 1213 0
702 885 -1036 0
-1034 -1112 -1194 0
697 -809 1056 0
739 -1028 1162 0
881 -969 1198 0
-675 834 -933 0
-911 -924 -1207 0
800 821 976 0
691 839 1146 0
996 -1012 1149 0
-736 -953 -1066 0
-755 793 962 0
837 925 1128 0
670 -733 -1055 0
-862 -956 1107 0
704 -990 1019 0
-673 765 1160 0
-771 875 -1121 0
748 779 -819 0
784 929 -1039 0
802 -991 -1154 0
-731 -754 -1122 0
-731 -792 1013 0
-686 1030 1214 0
1101 -1115 1190 0
900 939 -1166 0
722 -903 1169 0
703 1100 1134 0
-721 732 -793 0
-712 -965 -1076 0
-763 774 899 0
765 1178 1223 0
660 -710 719 0
778 798 1038 0
-881 1116 1118 0
-671 748 -1198 0
-1076 1173 1181 0
1076 1083 1174 0
-737 -907 1214 0
721 -910 947 0
693 -939 1133 0
965 1017 -1148 0
747 -916 920 0
-720 923 -1180 0
-783 791 -1000 0
-947 1040 -1041 0
-743 -1145 -1150 0
665 -688 883 0
-789 -952 1001 0
-714 -721 1128 0
744 872 1138 0
693 897 994 0
-922 -1033 1150 0
811 -993 -1101 0
764 -967 1177 0
751 -816 1046 0
-741 1033 -1089 0
-671 821 -1102 0
818 -839 -1086 0
739 1106 1121 0
-747 -1021 -1073 0
-823 957 986 0
-784 -1074 -1208 0
-678 -853 1196 0
731 818 -875 0
-769 862 1085 0
-999 1069 -1109 0
-793 801 1160 0
-689 -1126 -1223 0
688 884 896 0
-704 1146 1154 0
-737 -909 -1176 0
-670 1100 1136 0
-764 -1053 -1206 0
710 845 887 0
741 -948 -1141 0
-769 -834 -1004 0
679 -1133 -1207 0
747 763 1111 0
-995 -1017 1143 0
745 877 -1188 0
744 765 858 0
-923 1014 1025 0
-923 -1114 1219 0
-728 -1079 1155 0
-809 -817 -1011 0
761 926 974 0
1051 1156 1185 0
658 1029 1121 0
-665 1175 -1223 0
878 879 -1099 0
-744 -852 1166 0
828 -847 -950 0
978 -1034 1109 0
-698 847 -932 0
856 1059 -1178 0
744 -832 -1170 0
-941 -973 1133 0
-697 921 -1192 0
-672 794 -1165 0
744 834 -864 0
698 776 793 0
840 -886 1053 0
-710 750 783 0
1014 -1018 -1121 0
659 941 1019 0
-802 -1122 1176 0
-774 -936 1217 0
-796 -881 -958 0
-1069 1104 -1158 0
-711 725 -1173 0
-662 -973 1042 0
-777 793 1020 0
-869 1005 1101 0
-738 797 800 0
-678 -714 -731 0
769 -1016 -1178 0
-694 -1005 -1196 0
721 -1015 -1031 0
-777 -962 1083 0
-790 -858 901 0
702 893 944 0
857 -1000 1035 0
750 -829 1186 0
700 -843 933 0
701 -747 1135 0
-677 926 -971 0
694 -891 984 0
687 1094 1109 0
-928 -1101 -1109 0
802 973 -1043 0
-874 1050 1160 0
685 -736 796 0
1043 -1054 -1186 0
841 -978 -1198 0
745 -880 -940 0
-803 838 -967 0
858 912 -1181 0
-798 1009 -1093 0
659 868 -1134 0
687 732 1047 0
-722 -916 -1076 0
707 896 -901 0
843 937 1171 0
-1044 1165 -1207 0
722 -754 1133 0
895 1042 1060 0
-667 -916 1132 0
760 956 966 0
-881 -885 -1215 0
987 1001 1166 0
841 1024 1054 0
-742 1155 1171 0
-708 -1006 1188 0
-812 -1134 1197 0
-693 880 1095 0
782 -1051 -1126 0
-786 -936 -982 0
677 -1161 -1204 0
728 730 -1084 0
1027 -1135 1154 0
763 -1105 -1214 0
805 1083 -1121 0
673 1016 1054 0
742 -975 1006 0
685 -983 1122 0
840 857 -1056 0
-720 846 -925 0
-870 871 -875 0
-857 922 -979 0
806 892 -1051 0
-686 902 1111 0
-703 919 1179 0
691 838 -1169 0
978 -1048 -1092 0
-753 -1058 1146 0
-881 -1036 1043 0
902 -933 -942 0
-826 -951 976 0
806 979 -1058 0
-728 992 1165 0
-833 870 1205 0
852 -916 -1200 0
-751 -962 -1098 0
972 1107 1132 0
-901 -988 1197 0
680 -804 -955 0
675 -732 1077 0
713 -999 1050 0
678 -781 1172 0
930 -1057 1096 0
976 986 -1137 0
-670 -1064 -1124 0
658 -745 1197 0
-773 -831 1042 0
-666 -749 -920 0
-849 -1077 1095 0
-689 930 -1186 0
-764 780 -907 0
780 1077 1220 0
-907 1001 1040 0
-800 -939 -1000 0
-763 -1055 -1056 0
685 951 1207 0
-754 795 -951 0
-722 856 895 0
949 1079 -1196 0
-1040 -1073 -1078 0
745 -785 -1178 0
777 790 880 0
784 -994 1202 0
-1010 1094 -1182 0
-849 -1043 1072 0
-969 -1131 -1201 0
-800 967 -971 0
724 -767 1170 0
1023 -1114 -1125 0
-726 -911 -951 0
-758 933 1094 0
685 1014 1058 0
951 -1056 -1149 0
843 -885 1178 0
-700 -928 1199 0
-696 701 -1201 0
-688 912 1203 0
973 -991 -1188 0
739 786 -863 0
828 966 973 0
-848 872 -1161 0
743 831 -1067 0
-745 -842 1018 0
-683 690 877 0
704 -801 1132 0
892 -1088 -1163 0
757 -780 -883 0
-663 -866 1076 0
-676 -681 976 0
817 -1159 1218 0
-1000 1090 1099 0
-775 -1092 1120 0
-812 952 -1217 0
807 -1090 -1167 0
710 -734 -1148 0
-863 942 1220 0
982 1033 -1182 0
665 1023 1224 0
749 1079 1120 0
790 -903 1149 0
-859 -991 1096 0
-862 -888 947 0
-765 985 1037 0
1105 1185 -1197 0
-1098 1157 1187 0
-660 701 -736 0
-1028 -1083 -1088 0
-735 850 965 0
708 1136 -1194 0
-748 891 -1077 0
704 -911 -950 0
754 787 -1212 0
687 807 -953 0
770 -809 -850 0
-743 1092 1214 0
-904 -963 1170 0
-709 1006 -1038 0
686 745 919 0
-682 -899 -1074 0
-899 925 -937 0
818 -1116 1160 0
-870 -935 -1011 0
708 -723 -1105 0
979 980 1121 0
-803 -817 1082 0
662 -925 963 0
747 847 889 0
-927 -956 980 0
777 848 924 0
839 936 -1162 0
-749 864 -1161 0
-868 -1060 1063 0
726 -732 -1076 0
-722 733 1161 0
819 -903 1159 0
853 -907 984 0
-772 868 1220 0
-724 -1060 -1154 0
-990 1023 -1058 0
944 1036 1081 0
-689 -891 1134 0
-710 -842 -1031 0
-775 891 -1007 0
-967 -1117 1205 0
-670 -918 -1051 0
-736 820 -1158 0
918 1164 -1177 0
-676 848 -873 0
-811 -831 -954 0
-941 -1022 -1042 0
728 -1133 1174 0
707 -916 1061 0
-799 -961 -1034 0
718 -878 -920 0
703 838 1006 0
764 -882 -951 0
-710 787 989 0
712 862 901 0
988 -1000 -1210 0
833 -878 -1143 0
733 867 -900 0
685 830 -1067 0
-793 -1000 -1193 0
-667 911 -1131 0
-786 1079 1080 0
677 -814 1193 0
-696 -1169 1187 0
-857 1045 -1104 0
-676 699 1024 0
841 1126 -1172 0
1117 -1166 -1223 0
-875 -942 1116 0
723 806 944 0
-710 1017 1112 0
673 -990 1030 0
-658 690 -1195 0
-708 -971 -1174 0
-851 -1122 1216 0
-908 -1019 1223 0
702 888 1145 0
-1065 -1068 1186 0
1103 1113 1215 0
-927 948 -1013 0
931 933 1172 0
808 976 1015 0
-661 -1091 1201 0
-807 -1076 1166 0
-886 1109 1115 0
-726 908 -1215 0
1022 -1082 1210 0
-820 896 -907 0
1034 1136 -1224 0
977 1035 1081 0
679 737 -852 0
-867 982 -1150 0
819 917 1043 0
-838 -1000 1185 0
-676 808 -853 0
660 -959 -1202 0
-686 867 -1023 0
714 801 -860 0
963 -1117 1175 0
-959 -1076 1085 0
-788 896 1156 0
-719 966 -1156 0
-741 -826 865 0
988 -1013 -1218 0
-778 822 934 0
-679 -821 -996 0
665 -951 1202 0
812 -1047 -1182 0
-753 -853 1213 0
722 730 885 0
-884 -951 -1091 0
680 780 -1011 0
1001 1058 1068 0
-969 -984 1178 0
-768 -880 -1133 0
-914 -927 -1139 0
-711 -779 -1026 0
-765 -925 1085 0
-825 931 -970 0
667 725 -881 0
-734 -736 -963 0
-794 1173 -1176 0
-784 -811 -895 0
1098 1137 1205 0
711 -728 -862 0
969 -1021 1211 0
919 -1027 -1148 0
706 -939 1101 0
-762 -1010 1150 0
-834 981 1003 0
-702 907 -1044 0
698 866 -1214 0
-810 -928 1089 0
894 906 -1006 0
1027 -1054 -1207 0
-736 896 1128 0
1089 -1120 1150 0
-714 763 -1056 0
-672 922 1060 0
-899 1157 -1184 0
686 -1065 1105 0
-1035 1118 1122 0
840 -1027 -1165 0
-876 -927 1070 0
669 -750 1050 0
705 -729 1102 0
665 818 1090 0
-688 879 -1020 0
-772 -909 -938 0
664 -713 717 0
-694 789 1060 0
-725 767 1149 0
753 1073 -1083 0
-730 -838 -996 0
-923 -1054 1131 0
-810 -1096 -1148 0
-803 -962 1037 0
-741 -1068 1084 0
-867 973 -1054 0
-1077 1098 -1173 0
805 958 -962 0
-734 871 1111 0
-847 -888 1221 0
689 -944 -1143 0
718 1127 -1197 0
923 -958 1179 0
-762 970 1032 0
-781 -909 -1036 0
-884 982 -1139 0
724 -1061 1219 0
838 -879 -1138 0
-861 -894 1213 0
707 -1077 -1142 0
754 -900 948 0
-860 897 -1057 0
659 773 -1183 0
-757 787 -1123 0
-802 -882 1202 0
-738 -942 -1140 0
-1099 -1121 -1161 0
769 832 -1087 0
960 -1037 -1073 0
-1082 1090 -1191 0
-733 -790 -868 0
901 -1107 1178 0
765 857 1177 0
771 1092 -1205 0
752 927 1206 0
741 -1091 1143 0
721 831 -1048 0
947 -1107 1203 0
-838 -925 1075 0
-868 -1105 -1166 0
-808 -972 -1189 0
-762 859 864 0
706 -806 914 0
660 -948 1142 0
-658 -672 -735 0
745 -1142 1223 0
-667 691 968 0
-750 1016 -1132 0
-681 -878 -1048 0
-699 -840 -1142 0
-937 -953 1158 0
665 774 -1179 0
-996 1061 -1138 0
-733 1079 -1153 0
-978 1030 -1154 0
-692 -1101 1148 0
-702 -1043 1172 0
831 -936 1074 0
-798 934 -1048 0
-701 -711 1130 0
-691 839 -1114 0
919 -923 967 0
-673 -863 936 0
676 813 -862 0
690 905 -1064 0
-829 988 -1159 0
-715 -764 767 0
-790 796 -841 0
-879 -913 936 0
809 1064 -1180 0
887 1071 1192 0
661 -845 1122 0
952 1082 -1210 0
-1146 1164 -1189 0
830 -1075 1216 0
744 867 -1129 0
-830 -1018 1193 0
-769 871 941 0
-794 -863 -1026 0
736 -744 -1125 0
796 -799 -1047 0
-878 976 1008 0
956 1000 -1058 0
-688 751 -980 0
806 -906 -1067 0
758 -788 -981 0
-658 -1124 1150 0
-1054 1094 1095 0
-811 -844 1102 0
664 1195 1199 0
-722 939 -946 0
-731 1091 -1195 0
-846 928 1164 0
850 865 -1112 0
875 -884 947 0
-959 992 1124 0
858 -1040 -1123 0
-748 -1022 -1140 0
-891 997 -1186 0
680 787 806 0
-672 -696 1038 0
888 918 -978 0
-824 -901 1145 0
723 -1109 1120 0
851 962 1131 0
663 1070 -1080 0
680 970 1160 0
-961 998 1184 0
837 951 1176 0
-1048 -1073 -1191 0
675 -766 -1178 0
-688 -739 1147 0
767 843 865 0
711 -879 -1034 0
-681 769 -1158 0
-675 887 -1062 0
-743 -867 -933 0
937 1016 -1202 0
915 -1199 -1203 0
-869 -1080 -1157 0
932 -1004 1209 0
779 -1050 1209 0
845 1073 -1205 0
748 -858 979 0
757 1027 -1063 0
-784 900 -1207 0
-851 1209 1221 0
880 1139 1183 0
735 -1120 -1137 0
-658 -847 941 0
998 -1033 -1151 0
-819 1009 1021 0
-704 875 935 0
761 -804 -877 0
685 731 -1186 0
666 -959 -1084 0
-677 -778 -1072 0
-1024 -1030 1134 0
874 925 -965 0
867 -888 1195 0
-946 -969 1050 0
-744 1031 1067 0
809 -829 -1221 0
817 -824 1163 0
-752 1164 1224 0
718 1041 1213 0
679 -687 -1107 0
-687 991 1158 0
-774 -1067 1140 0
-745 781 843 0
713 786 1060 0
752 821 880 0
755 1120 -1219 0
-736 -756 -1047 0
-677 923 -1199 0
803 827 -1011 0
706 -800 894 0
-991 1017 1075 0
-870 -902 -1172 0
791 817 1146 0
1037 -1147 -1155 0
-856 -894 1109 0
-767 1167 -1169 0
-775 -873 1039 0
-661 717 1103 0
712 -999 -1183 0
874 -881 -1070 0
-734 -790 875 0
703 759 902 0
728 -928 1160 0
-679 -920 -1089 0
-750 -1036 1119 0
781 1069 -1072 0
-715 952 -1218 0
-1000 1120 -1152 0
-910 1064 -1133 0
767 -904 -1218 0
712 1093 1112 0
-856 1013 1100 0
828 993 -1088 0
889 -903 -989 0
-887 1049 -1132 0
802 862 945 0
-877 1059 -1067 0
883 929 1049 0
-837 1089 -1185 0
-819 -858 1167 0
-847 -1038 1158 0
973 1082 1089 0
-684 -881 924 0
688 1072 1168 0
-832 -1015 -1022 0
867 963 1182 0
708 793 1011 0
689 692 868 0
-725 -902 -1220 0
-848 982 1137 0
-911 983 1114 0
-862 935 -1204 0
684 -1060 1158 0
-795 867 898 0
700 923 -1118 0
-662 929 1086 0
-683 1075 1165 0
832 -916 -1097 0
752 -974 975 0
687 -769 -1137 0
-710 949 -988 0
-885 -994 1035 0
-789 1026 -1065 0
902 -954 1220 0
-663 968 1008 0
668 -711 783 0
-859 1129 -1173 0
861 -1018 1162 0
-742 -818 1001 0
660 -1023 1194 0
-756 904 1118 0
741 -906 -974 0
-695 -757 781 0
893 -1103 1117 0
-835 1054 -1222 0
701 -742 1195 0
777 -887 -1174 0
-720 -898 -1220 0
-680 -851 993 0
-782 933 -976 0
1113 1114 1120 0
822 -936 -956 0
677 -994 1099 0
-786 -1030 1052 0
-675 -802 -903 0
-904 908 -925 0
696 -974 -1033 0
-893 1141 1146 0
821 -1047 1213 0
-714 1147 -1186 0
724 -942 -1083 0
-681 -1026 -1152 0
-699 985 1140 0
-1036 -1142 1176 0
-721 973 -1133 0
-971 -1041 -1169 0
856 997 -1076 0
941 1067 1198 0
-916 1007 -1137 0
-668 860 -1078 0
-850 971 -1166 0
-700 -706 823 0
684 973 -1166 0
-726 1002 1008 0
-709 -875 -954 0
877 898 -1198 0
-761 -1179 -1189 0
-794 1055 1169 0
-933 -1172 -1194 0
804 -825 858 0
-677 -688 757 0
944 1115 -1190 0
688 -965 1182 0
753 1201 1203 0
669 810 -1200 0
775 -913 1053 0
841 -1012 -1209 0
850 -1016 -1174 0
-682 696 -751 0
-834 876 -963 0
-713 -908 -949 0
-1134 1173 -1201 0
827 -915 1162 0
-870 913 -917 0
-1027 1031 1173 0
-1025 1113 -1223 0
-664 1195 1203 0
765 862 -1087 0
-902 -960 -1034 0
-1100 1153 -1156 0
762 886 -1166 0
-895 -1149 1157 0
666 807 993 0
-727 807 942 0
703 -857 -1023 0
-948 1085 -1213 0
791 -1066 1067 0
-795 833 1147 0
781 -1081 1210 0
735 810 820 0
662 -742 -1044 0
-822 1075 -1133 0
775 822 1058 0
-681 -710 -954 0
-920 1084 1102 0
-778 -848 1098 0
668 -836 -865 0
665 -1175 1188 0
-706 -948 1043 0
-696 983 1072 0
680 989 -1008 0
913 988 1114 0
721 -745 813 0
692 -829 841 0
1035 1110 -1166 0
-670 1006 1058 0
755 -923 1098 0
1075 -1097 -1110 0
669 -1066 -1073 0
666 -964 977 0
721 -1101 -1215 0
759 -933 -965 0
960 1117 -1127 0
720 839 -1062 0
-848 873 1008 0
820 -829 -1127 0
1019 1174 1208 0
-798 1038 -1074 0
733 -794 -962 0
688 894 1153 0
-831 -1080 1189 0
-689 -1101 1194 0
676 -1103 1123 0
900 -947 -1036 0
773 -1057 1129 0
859 871 1216 0
-985 1012 -1020 0
954 998 1151 0
708 -1046 -1084 0
-782 -815 -1056 0
788 -810 -1191 0
-1065 -1156 -1162 0
908 -1002 1045 0
712 -789 -948 0
754 -755 899 0
-901 -993 1097 0
724 893 1072 0
705 -1019 -1156 0
-832 -844 920 0
-750 1031 -1198 0
-680 884 1028 0
705 1013 1067 0
789 863 -926 0
862 -1111 -1217 0
924 1143 -1172 0
733 -769 1080 0
822 -1095 1184 0
687 -824 1036 0
-691 -757 -1173 0
874 939 945 0
916 -1028 1110 0
-685 937 -1135 0
-718 -929 1000 0
-726 -1094 -1115 0
728 826 938 0
818 -866 -924 0
-780 -871 921 0
-701 850 1141 0
895 1157 1160 0
665 776 846 0
893 1060 1109 0
-831 948 -972 0
726 -1011 1054 0
695 933 982 0
-920 -1124 1129 0
705 -726 1120 0
759 830 1168 0
-696 701 715 0
754 1007 1179 0
967 1025 1068 0
950 1090 -1105 0
-665 970 1001 0
692 -790 1034 0
706 736 -769 0
-731 -801 -1022 0
854 991 1220 0
-907 -915 1136 0
714 719 -1145 0
714 -891 950 0
723 992 -1051 0
803 -813 953 0
712 -792 923 0
-794 844 -960 0
660 -959 1021 0
-929 1009 -1172 0
838 -938 -1057 0
-688 732 988 0
-682 -710 -811 0
-915 1136 -1178 0
-761 -881 1144 0
678 -993 -1076 0
773 -1011 -1126 0
-1038 -1070 1212 0
-791 -1079 -1140 0
-1013 1138 1166 0
-989 1064 -1105 0
-772 808 1067 0
719 -751 -1117 0
-967 -968 -1147 0
-833 1063 1213 0
864 985 1152 0
-871 980 -1099 0
-858 -967 1104 0
791 839 858 0
-716 -885 -1067 0
-911 -922 923 0
766 -988 -1054 0
-677 993 -1027 0
692 -792 995 0
-802 1180 1222 0
-678 960 1151 0
660 -1091 -1149 0
847 -869 1040 0
-783 969 995 0
776 904 -1005 0
-752 930 -1094 0
717 -865 1080 0
-911 -929 -1011 0
-812 883 1215 0
767 802 -1018 0
935 1060 -1157 0
824 959 1175 0
-893 1029 1224 0
-707 897 974 0
-956 -1045 -1093 0
769 877 -987 0
794 1133 -1189 0
