c Phase 3 generated performance instance
c family=hidden_pigeonhole
c scale=10
c variant=phase4b_noise100
c noise_percent=100
c expected=UNSATISFIABLE
p cnf 1715 3200
-1 -2 91 0
-1 -2 -91 0
-1 -3 92 0
-1 -3 -92 0
-1 -4 93 0
-1 -4 -93 0
-1 -5 94 0
-1 -5 -94 0
-1 -6 95 0
-1 -6 -95 0
-1 -7 96 0
-1 -7 -96 0
-1 -8 97 0
-1 -8 -97 0
-1 -9 98 0
-1 -9 -98 0
-2 -3 99 0
-2 -3 -99 0
-2 -4 100 0
-2 -4 -100 0
-2 -5 101 0
-2 -5 -101 0
-2 -6 102 0
-2 -6 -102 0
-2 -7 103 0
-2 -7 -103 0
-2 -8 104 0
-2 -8 -104 0
-2 -9 105 0
-2 -9 -105 0
-3 -4 106 0
-3 -4 -106 0
-3 -5 107 0
-3 -5 -107 0
-3 -6 108 0
-3 -6 -108 0
-3 -7 109 0
-3 -7 -109 0
-3 -8 110 0
-3 -8 -110 0
-3 -9 111 0
-3 -9 -111 0
-4 -5 112 0
-4 -5 -112 0
-4 -6 113 0
-4 -6 -113 0
-4 -7 114 0
-4 -7 -114 0
-4 -8 115 0
-4 -8 -115 0
-4 -9 116 0
-4 -9 -116 0
-5 -6 117 0
-5 -6 -117 0
-5 -7 118 0
-5 -7 -118 0
-5 -8 119 0
-5 -8 -119 0
-5 -9 120 0
-5 -9 -120 0
-6 -7 121 0
-6 -7 -121 0
-6 -8 122 0
-6 -8 -122 0
-6 -9 123 0
-6 -9 -123 0
-7 -8 124 0
-7 -8 -124 0
-7 -9 125 0
-7 -9 -125 0
-8 -9 126 0
-8 -9 -126 0
1 2 127 0
3 -127 128 0
4 -128 129 0
5 -129 130 0
6 -130 131 0
7 -131 132 0
8 9 -132 0
-10 -11 133 0
-10 -11 -133 0
-10 -12 134 0
-10 -12 -134 0
-10 -13 135 0
-10 -13 -135 0
-10 -14 136 0
-10 -14 -136 0
-10 -15 137 0
-10 -15 -137 0
-10 -16 138 0
-10 -16 -138 0
-10 -17 139 0
-10 -17 -139 0
-10 -18 140 0
-10 -18 -140 0
-11 -12 141 0
-11 -12 -141 0
-11 -13 142 0
-11 -13 -142 0
-11 -14 143 0
-11 -14 -143 0
-11 -15 144 0
-11 -15 -144 0
-11 -16 145 0
-11 -16 -145 0
-11 -17 146 0
-11 -17 -146 0
-11 -18 147 0
-11 -18 -147 0
-12 -13 148 0
-12 -13 -148 0
-12 -14 149 0
-12 -14 -149 0
-12 -15 150 0
-12 -15 -150 0
-12 -16 151 0
-12 -16 -151 0
-12 -17 152 0
-12 -17 -152 0
-12 -18 153 0
-12 -18 -153 0
-13 -14 154 0
-13 -14 -154 0
-13 -15 155 0
-13 -15 -155 0
-13 -16 156 0
-13 -16 -156 0
-13 -17 157 0
-13 -17 -157 0
-13 -18 158 0
-13 -18 -158 0
-14 -15 159 0
-14 -15 -159 0
-14 -16 160 0
-14 -16 -160 0
-14 -17 161 0
-14 -17 -161 0
-14 -18 162 0
-14 -18 -162 0
-15 -16 163 0
-15 -16 -163 0
-15 -17 164 0
-15 -17 -164 0
-15 -18 165 0
-15 -18 -165 0
-16 -17 166 0
-16 -17 -166 0
-16 -18 167 0
-16 -18 -167 0
-17 -18 168 0
-17 -18 -168 0
10 11 169 0
12 -169 170 0
13 -170 171 0
14 -171 172 0
15 -172 173 0
16 -173 174 0
17 18 -174 0
-19 -20 175 0
-19 -20 -175 0
-19 -21 176 0
-19 -21 -176 0
-19 -22 177 0
-19 -22 -177 0
-19 -23 178 0
-19 -23 -178 0
-19 -24 179 0
-19 -24 -179 0
-19 -25 180 0
-19 -25 -180 0
-19 -26 181 0
-19 -26 -181 0
-19 -27 182 0
-19 -27 -182 0
-20 -21 183 0
-20 -21 -183 0
-20 -22 184 0
-20 -22 -184 0
-20 -23 185 0
-20 -23 -185 0
-20 -24 186 0
-20 -24 -186 0
-20 -25 187 0
-20 -25 -187 0
-20 -26 188 0
-20 -26 -188 0
-20 -27 189 0
-20 -27 -189 0
-21 -22 190 0
-21 -22 -190 0
-21 -23 191 0
-21 -23 -191 0
-21 -24 192 0
-21 -24 -192 0
-21 -25 193 0
-21 -25 -193 0
-21 -26 194 0
-21 -26 -194 0
-21 -27 195 0
-21 -27 -195 0
-22 -23 196 0
-22 -23 -196 0
-22 -24 197 0
-22 -24 -197 0
-22 -25 198 0
-22 -25 -198 0
-22 -26 199 0
-22 -26 -199 0
-22 -27 200 0
-22 -27 -200 0
-23 -24 201 0
-23 -24 -201 0
-23 -25 202 0
-23 -25 -202 0
-23 -26 203 0
-23 -26 -203 0
-23 -27 204 0
-23 -27 -204 0
-24 -25 205 0
-24 -25 -205 0
-24 -26 206 0
-24 -26 -206 0
-24 -27 207 0
-24 -27 -207 0
-25 -26 208 0
-25 -26 -208 0
-25 -27 209 0
-25 -27 -209 0
-26 -27 210 0
-26 -27 -210 0
19 20 211 0
21 -211 212 0
22 -212 213 0
23 -213 214 0
24 -214 215 0
25 -215 216 0
26 27 -216 0
-28 -29 217 0
-28 -29 -217 0
-28 -30 218 0
-28 -30 -218 0
-28 -31 219 0
-28 -31 -219 0
-28 -32 220 0
-28 -32 -220 0
-28 -33 221 0
-28 -33 -221 0
-28 -34 222 0
-28 -34 -222 0
-28 -35 223 0
-28 -35 -223 0
-28 -36 224 0
-28 -36 -224 0
-29 -30 225 0
-29 -30 -225 0
-29 -31 226 0
-29 -31 -226 0
-29 -32 227 0
-29 -32 -227 0
-29 -33 228 0
-29 -33 -228 0
-29 -34 229 0
-29 -34 -229 0
-29 -35 230 0
-29 -35 -230 0
-29 -36 231 0
-29 -36 -231 0
-30 -31 232 0
-30 -31 -232 0
-30 -32 233 0
-30 -32 -233 0
-30 -33 234 0
-30 -33 -234 0
-30 -34 235 0
-30 -34 -235 0
-30 -35 236 0
-30 -35 -236 0
-30 -36 237 0
-30 -36 -237 0
-31 -32 238 0
-31 -32 -238 0
-31 -33 239 0
-31 -33 -239 0
-31 -34 240 0
-31 -34 -240 0
-31 -35 241 0
-31 -35 -241 0
-31 -36 242 0
-31 -36 -242 0
-32 -33 243 0
-32 -33 -243 0
-32 -34 244 0
-32 -34 -244 0
-32 -35 245 0
-32 -35 -245 0
-32 -36 246 0
-32 -36 -246 0
-33 -34 247 0
-33 -34 -247 0
-33 -35 248 0
-33 -35 -248 0
-33 -36 249 0
-33 -36 -249 0
-34 -35 250 0
-34 -35 -250 0
-34 -36 251 0
-34 -36 -251 0
-35 -36 252 0
-35 -36 -252 0
28 29 253 0
30 -253 254 0
31 -254 255 0
32 -255 256 0
33 -256 257 0
34 -257 258 0
35 36 -258 0
-37 -38 259 0
-37 -38 -259 0
-37 -39 260 0
-37 -39 -260 0
-37 -40 261 0
-37 -40 -261 0
-37 -41 262 0
-37 -41 -262 0
-37 -42 263 0
-37 -42 -263 0
-37 -43 264 0
-37 -43 -264 0
-37 -44 265 0
-37 -44 -265 0
-37 -45 266 0
-37 -45 -266 0
-38 -39 267 0
-38 -39 -267 0
-38 -40 268 0
-38 -40 -268 0
-38 -41 269 0
-38 -41 -269 0
-38 -42 270 0
-38 -42 -270 0
-38 -43 271 0
-38 -43 -271 0
-38 -44 272 0
-38 -44 -272 0
-38 -45 273 0
-38 -45 -273 0
-39 -40 274 0
-39 -40 -274 0
-39 -41 275 0
-39 -41 -275 0
-39 -42 276 0
-39 -42 -276 0
-39 -43 277 0
-39 -43 -277 0
-39 -44 278 0
-39 -44 -278 0
-39 -45 279 0
-39 -45 -279 0
-40 -41 280 0
-40 -41 -280 0
-40 -42 281 0
-40 -42 -281 0
-40 -43 282 0
-40 -43 -282 0
-40 -44 283 0
-40 -44 -283 0
-40 -45 284 0
-40 -45 -284 0
-41 -42 285 0
-41 -42 -285 0
-41 -43 286 0
-41 -43 -286 0
-41 -44 287 0
-41 -44 -287 0
-41 -45 288 0
-41 -45 -288 0
-42 -43 289 0
-42 -43 -289 0
-42 -44 290 0
-42 -44 -290 0
-42 -45 291 0
-42 -45 -291 0
-43 -44 292 0
-43 -44 -292 0
-43 -45 293 0
-43 -45 -293 0
-44 -45 294 0
-44 -45 -294 0
37 38 295 0
39 -295 296 0
40 -296 297 0
41 -297 298 0
42 -298 299 0
43 -299 300 0
44 45 -300 0
-46 -47 301 0
-46 -47 -301 0
-46 -48 302 0
-46 -48 -302 0
-46 -49 303 0
-46 -49 -303 0
-46 -50 304 0
-46 -50 -304 0
-46 -51 305 0
-46 -51 -305 0
-46 -52 306 0
-46 -52 -306 0
-46 -53 307 0
-46 -53 -307 0
-46 -54 308 0
-46 -54 -308 0
-47 -48 309 0
-47 -48 -309 0
-47 -49 310 0
-47 -49 -310 0
-47 -50 311 0
-47 -50 -311 0
-47 -51 312 0
-47 -51 -312 0
-47 -52 313 0
-47 -52 -313 0
-47 -53 314 0
-47 -53 -314 0
-47 -54 315 0
-47 -54 -315 0
-48 -49 316 0
-48 -49 -316 0
-48 -50 317 0
-48 -50 -317 0
-48 -51 318 0
-48 -51 -318 0
-48 -52 319 0
-48 -52 -319 0
-48 -53 320 0
-48 -53 -320 0
-48 -54 321 0
-48 -54 -321 0
-49 -50 322 0
-49 -50 -322 0
-49 -51 323 0
-49 -51 -323 0
-49 -52 324 0
-49 -52 -324 0
-49 -53 325 0
-49 -53 -325 0
-49 -54 326 0
-49 -54 -326 0
-50 -51 327 0
-50 -51 -327 0
-50 -52 328 0
-50 -52 -328 0
-50 -53 329 0
-50 -53 -329 0
-50 -54 330 0
-50 -54 -330 0
-51 -52 331 0
-51 -52 -331 0
-51 -53 332 0
-51 -53 -332 0
-51 -54 333 0
-51 -54 -333 0
-52 -53 334 0
-52 -53 -334 0
-52 -54 335 0
-52 -54 -335 0
-53 -54 336 0
-53 -54 -336 0
46 47 337 0
48 -337 338 0
49 -338 339 0
50 -339 340 0
51 -340 341 0
52 -341 342 0
53 54 -342 0
-55 -56 343 0
-55 -56 -343 0
-55 -57 344 0
-55 -57 -344 0
-55 -58 345 0
-55 -58 -345 0
-55 -59 346 0
-55 -59 -346 0
-55 -60 347 0
-55 -60 -347 0
-55 -61 348 0
-55 -61 -348 0
-55 -62 349 0
-55 -62 -349 0
-55 -63 350 0
-55 -63 -350 0
-56 -57 351 0
-56 -57 -351 0
-56 -58 352 0
-56 -58 -352 0
-56 -59 353 0
-56 -59 -353 0
-56 -60 354 0
-56 -60 -354 0
-56 -61 355 0
-56 -61 -355 0
-56 -62 356 0
-56 -62 -356 0
-56 -63 357 0
-56 -63 -357 0
-57 -58 358 0
-57 -58 -358 0
-57 -59 359 0
-57 -59 -359 0
-57 -60 360 0
-57 -60 -360 0
-57 -61 361 0
-57 -61 -361 0
-57 -62 362 0
-57 -62 -362 0
-57 -63 363 0
-57 -63 -363 0
-58 -59 364 0
-58 -59 -364 0
-58 -60 365 0
-58 -60 -365 0
-58 -61 366 0
-58 -61 -366 0
-58 -62 367 0
-58 -62 -367 0
-58 -63 368 0
-58 -63 -368 0
-59 -60 369 0
-59 -60 -369 0
-59 -61 370 0
-59 -61 -370 0
-59 -62 371 0
-59 -62 -371 0
-59 -63 372 0
-59 -63 -372 0
-60 -61 373 0
-60 -61 -373 0
-60 -62 374 0
-60 -62 -374 0
-60 -63 375 0
-60 -63 -375 0
-61 -62 376 0
-61 -62 -376 0
-61 -63 377 0
-61 -63 -377 0
-62 -63 378 0
-62 -63 -378 0
55 56 379 0
57 -379 380 0
58 -380 381 0
59 -381 382 0
60 -382 383 0
61 -383 384 0
62 63 -384 0
-64 -65 385 0
-64 -65 -385 0
-64 -66 386 0
-64 -66 -386 0
-64 -67 387 0
-64 -67 -387 0
-64 -68 388 0
-64 -68 -388 0
-64 -69 389 0
-64 -69 -389 0
-64 -70 390 0
-64 -70 -390 0
-64 -71 391 0
-64 -71 -391 0
-64 -72 392 0
-64 -72 -392 0
-65 -66 393 0
-65 -66 -393 0
-65 -67 394 0
-65 -67 -394 0
-65 -68 395 0
-65 -68 -395 0
-65 -69 396 0
-65 -69 -396 0
-65 -70 397 0
-65 -70 -397 0
-65 -71 398 0
-65 -71 -398 0
-65 -72 399 0
-65 -72 -399 0
-66 -67 400 0
-66 -67 -400 0
-66 -68 401 0
-66 -68 -401 0
-66 -69 402 0
-66 -69 -402 0
-66 -70 403 0
-66 -70 -403 0
-66 -71 404 0
-66 -71 -404 0
-66 -72 405 0
-66 -72 -405 0
-67 -68 406 0
-67 -68 -406 0
-67 -69 407 0
-67 -69 -407 0
-67 -70 408 0
-67 -70 -408 0
-67 -71 409 0
-67 -71 -409 0
-67 -72 410 0
-67 -72 -410 0
-68 -69 411 0
-68 -69 -411 0
-68 -70 412 0
-68 -70 -412 0
-68 -71 413 0
-68 -71 -413 0
-68 -72 414 0
-68 -72 -414 0
-69 -70 415 0
-69 -70 -415 0
-69 -71 416 0
-69 -71 -416 0
-69 -72 417 0
-69 -72 -417 0
-70 -71 418 0
-70 -71 -418 0
-70 -72 419 0
-70 -72 -419 0
-71 -72 420 0
-71 -72 -420 0
64 65 421 0
66 -421 422 0
67 -422 423 0
68 -423 424 0
69 -424 425 0
70 -425 426 0
71 72 -426 0
-73 -74 427 0
-73 -74 -427 0
-73 -75 428 0
-73 -75 -428 0
-73 -76 429 0
-73 -76 -429 0
-73 -77 430 0
-73 -77 -430 0
-73 -78 431 0
-73 -78 -431 0
-73 -79 432 0
-73 -79 -432 0
-73 -80 433 0
-73 -80 -433 0
-73 -81 434 0
-73 -81 -434 0
-74 -75 435 0
-74 -75 -435 0
-74 -76 436 0
-74 -76 -436 0
-74 -77 437 0
-74 -77 -437 0
-74 -78 438 0
-74 -78 -438 0
-74 -79 439 0
-74 -79 -439 0
-74 -80 440 0
-74 -80 -440 0
-74 -81 441 0
-74 -81 -441 0
-75 -76 442 0
-75 -76 -442 0
-75 -77 443 0
-75 -77 -443 0
-75 -78 444 0
-75 -78 -444 0
-75 -79 445 0
-75 -79 -445 0
-75 -80 446 0
-75 -80 -446 0
-75 -81 447 0
-75 -81 -447 0
-76 -77 448 0
-76 -77 -448 0
-76 -78 449 0
-76 -78 -449 0
-76 -79 450 0
-76 -79 -450 0
-76 -80 451 0
-76 -80 -451 0
-76 -81 452 0
-76 -81 -452 0
-77 -78 453 0
-77 -78 -453 0
-77 -79 454 0
-77 -79 -454 0
-77 -80 455 0
-77 -80 -455 0
-77 -81 456 0
-77 -81 -456 0
-78 -79 457 0
-78 -79 -457 0
-78 -80 458 0
-78 -80 -458 0
-78 -81 459 0
-78 -81 -459 0
-79 -80 460 0
-79 -80 -460 0
-79 -81 461 0
-79 -81 -461 0
-80 -81 462 0
-80 -81 -462 0
73 74 463 0
75 -463 464 0
76 -464 465 0
77 -465 466 0
78 -466 467 0
79 -467 468 0
80 81 -468 0
-82 -83 469 0
-82 -83 -469 0
-82 -84 470 0
-82 -84 -470 0
-82 -85 471 0
-82 -85 -471 0
-82 -86 472 0
-82 -86 -472 0
-82 -87 473 0
-82 -87 -473 0
-82 -88 474 0
-82 -88 -474 0
-82 -89 475 0
-82 -89 -475 0
-82 -90 476 0
-82 -90 -476 0
-83 -84 477 0
-83 -84 -477 0
-83 -85 478 0
-83 -85 -478 0
-83 -86 479 0
-83 -86 -479 0
-83 -87 480 0
-83 -87 -480 0
-83 -88 481 0
-83 -88 -481 0
-83 -89 482 0
-83 -89 -482 0
-83 -90 483 0
-83 -90 -483 0
-84 -85 484 0
-84 -85 -484 0
-84 -86 485 0
-84 -86 -485 0
-84 -87 486 0
-84 -87 -486 0
-84 -88 487 0
-84 -88 -487 0
-84 -89 488 0
-84 -89 -488 0
-84 -90 489 0
-84 -90 -489 0
-85 -86 490 0
-85 -86 -490 0
-85 -87 491 0
-85 -87 -491 0
-85 -88 492 0
-85 -88 -492 0
-85 -89 493 0
-85 -89 -493 0
-85 -90 494 0
-85 -90 -494 0
-86 -87 495 0
-86 -87 -495 0
-86 -88 496 0
-86 -88 -496 0
-86 -89 497 0
-86 -89 -497 0
-86 -90 498 0
-86 -90 -498 0
-87 -88 499 0
-87 -88 -499 0
-87 -89 500 0
-87 -89 -500 0
-87 -90 501 0
-87 -90 -501 0
-88 -89 502 0
-88 -89 -502 0
-88 -90 503 0
-88 -90 -503 0
-89 -90 504 0
-89 -90 -504 0
82 83 505 0
84 -505 506 0
85 -506 507 0
86 -507 508 0
87 -508 509 0
88 -509 510 0
89 90 -510 0
-1 -10 511 0
-1 -10 -511 0
-1 -19 512 0
-1 -19 -512 0
-1 -28 513 0
-1 -28 -513 0
-1 -37 514 0
-1 -37 -514 0
-1 -46 515 0
-1 -46 -515 0
-1 -55 516 0
-1 -55 -516 0
-1 -64 517 0
-1 -64 -517 0
-1 -73 518 0
-1 -73 -518 0
-1 -82 519 0
-1 -82 -519 0
-10 -19 520 0
-10 -19 -520 0
-10 -28 521 0
-10 -28 -521 0
-10 -37 522 0
-10 -37 -522 0
-10 -46 523 0
-10 -46 -523 0
-10 -55 524 0
-10 -55 -524 0
-10 -64 525 0
-10 -64 -525 0
-10 -73 526 0
-10 -73 -526 0
-10 -82 527 0
-10 -82 -527 0
-19 -28 528 0
-19 -28 -528 0
-19 -37 529 0
-19 -37 -529 0
-19 -46 530 0
-19 -46 -530 0
-19 -55 531 0
-19 -55 -531 0
-19 -64 532 0
-19 -64 -532 0
-19 -73 533 0
-19 -73 -533 0
-19 -82 534 0
-19 -82 -534 0
-28 -37 535 0
-28 -37 -535 0
-28 -46 536 0
-28 -46 -536 0
-28 -55 537 0
-28 -55 -537 0
-28 -64 538 0
-28 -64 -538 0
-28 -73 539 0
-28 -73 -539 0
-28 -82 540 0
-28 -82 -540 0
-37 -46 541 0
-37 -46 -541 0
-37 -55 542 0
-37 -55 -542 0
-37 -64 543 0
-37 -64 -543 0
-37 -73 544 0
-37 -73 -544 0
-37 -82 545 0
-37 -82 -545 0
-46 -55 546 0
-46 -55 -546 0
-46 -64 547 0
-46 -64 -547 0
-46 -73 548 0
-46 -73 -548 0
-46 -82 549 0
-46 -82 -549 0
-55 -64 550 0
-55 -64 -550 0
-55 -73 551 0
-55 -73 -551 0
-55 -82 552 0
-55 -82 -552 0
-64 -73 553 0
-64 -73 -553 0
-64 -82 554 0
-64 -82 -554 0
-73 -82 555 0
-73 -82 -555 0
-2 -11 556 0
-2 -11 -556 0
-2 -20 557 0
-2 -20 -557 0
-2 -29 558 0
-2 -29 -558 0
-2 -38 559 0
-2 -38 -559 0
-2 -47 560 0
-2 -47 -560 0
-2 -56 561 0
-2 -56 -561 0
-2 -65 562 0
-2 -65 -562 0
-2 -74 563 0
-2 -74 -563 0
-2 -83 564 0
-2 -83 -564 0
-11 -20 565 0
-11 -20 -565 0
-11 -29 566 0
-11 -29 -566 0
-11 -38 567 0
-11 -38 -567 0
-11 -47 568 0
-11 -47 -568 0
-11 -56 569 0
-11 -56 -569 0
-11 -65 570 0
-11 -65 -570 0
-11 -74 571 0
-11 -74 -571 0
-11 -83 572 0
-11 -83 -572 0
-20 -29 573 0
-20 -29 -573 0
-20 -38 574 0
-20 -38 -574 0
-20 -47 575 0
-20 -47 -575 0
-20 -56 576 0
-20 -56 -576 0
-20 -65 577 0
-20 -65 -577 0
-20 -74 578 0
-20 -74 -578 0
-20 -83 579 0
-20 -83 -579 0
-29 -38 580 0
-29 -38 -580 0
-29 -47 581 0
-29 -47 -581 0
-29 -56 582 0
-29 -56 -582 0
-29 -65 583 0
-29 -65 -583 0
-29 -74 584 0
-29 -74 -584 0
-29 -83 585 0
-29 -83 -585 0
-38 -47 586 0
-38 -47 -586 0
-38 -56 587 0
-38 -56 -587 0
-38 -65 588 0
-38 -65 -588 0
-38 -74 589 0
-38 -74 -589 0
-38 -83 590 0
-38 -83 -590 0
-47 -56 591 0
-47 -56 -591 0
-47 -65 592 0
-47 -65 -592 0
-47 -74 593 0
-47 -74 -593 0
-47 -83 594 0
-47 -83 -594 0
-56 -65 595 0
-56 -65 -595 0
-56 -74 596 0
-56 -74 -596 0
-56 -83 597 0
-56 -83 -597 0
-65 -74 598 0
-65 -74 -598 0
-65 -83 599 0
-65 -83 -599 0
-74 -83 600 0
-74 -83 -600 0
-3 -12 601 0
-3 -12 -601 0
-3 -21 602 0
-3 -21 -602 0
-3 -30 603 0
-3 -30 -603 0
-3 -39 604 0
-3 -39 -604 0
-3 -48 605 0
-3 -48 -605 0
-3 -57 606 0
-3 -57 -606 0
-3 -66 607 0
-3 -66 -607 0
-3 -75 608 0
-3 -75 -608 0
-3 -84 609 0
-3 -84 -609 0
-12 -21 610 0
-12 -21 -610 0
-12 -30 611 0
-12 -30 -611 0
-12 -39 612 0
-12 -39 -612 0
-12 -48 613 0
-12 -48 -613 0
-12 -57 614 0
-12 -57 -614 0
-12 -66 615 0
-12 -66 -615 0
-12 -75 616 0
-12 -75 -616 0
-12 -84 617 0
-12 -84 -617 0
-21 -30 618 0
-21 -30 -618 0
-21 -39 619 0
-21 -39 -619 0
-21 -48 620 0
-21 -48 -620 0
-21 -57 621 0
-21 -57 -621 0
-21 -66 622 0
-21 -66 -622 0
-21 -75 623 0
-21 -75 -623 0
-21 -84 624 0
-21 -84 -624 0
-30 -39 625 0
-30 -39 -625 0
-30 -48 626 0
-30 -48 -626 0
-30 -57 627 0
-30 -57 -627 0
-30 -66 628 0
-30 -66 -628 0
-30 -75 629 0
-30 -75 -629 0
-30 -84 630 0
-30 -84 -630 0
-39 -48 631 0
-39 -48 -631 0
-39 -57 632 0
-39 -57 -632 0
-39 -66 633 0
-39 -66 -633 0
-39 -75 634 0
-39 -75 -634 0
-39 -84 635 0
-39 -84 -635 0
-48 -57 636 0
-48 -57 -636 0
-48 -66 637 0
-48 -66 -637 0
-48 -75 638 0
-48 -75 -638 0
-48 -84 639 0
-48 -84 -639 0
-57 -66 640 0
-57 -66 -640 0
-57 -75 641 0
-57 -75 -641 0
-57 -84 642 0
-57 -84 -642 0
-66 -75 643 0
-66 -75 -643 0
-66 -84 644 0
-66 -84 -644 0
-75 -84 645 0
-75 -84 -645 0
-4 -13 646 0
-4 -13 -646 0
-4 -22 647 0
-4 -22 -647 0
-4 -31 648 0
-4 -31 -648 0
-4 -40 649 0
-4 -40 -649 0
-4 -49 650 0
-4 -49 -650 0
-4 -58 651 0
-4 -58 -651 0
-4 -67 652 0
-4 -67 -652 0
-4 -76 653 0
-4 -76 -653 0
-4 -85 654 0
-4 -85 -654 0
-13 -22 655 0
-13 -22 -655 0
-13 -31 656 0
-13 -31 -656 0
-13 -40 657 0
-13 -40 -657 0
-13 -49 658 0
-13 -49 -658 0
-13 -58 659 0
-13 -58 -659 0
-13 -67 660 0
-13 -67 -660 0
-13 -76 661 0
-13 -76 -661 0
-13 -85 662 0
-13 -85 -662 0
-22 -31 663 0
-22 -31 -663 0
-22 -40 664 0
-22 -40 -664 0
-22 -49 665 0
-22 -49 -665 0
-22 -58 666 0
-22 -58 -666 0
-22 -67 667 0
-22 -67 -667 0
-22 -76 668 0
-22 -76 -668 0
-22 -85 669 0
-22 -85 -669 0
-31 -40 670 0
-31 -40 -670 0
-31 -49 671 0
-31 -49 -671 0
-31 -58 672 0
-31 -58 -672 0
-31 -67 673 0
-31 -67 -673 0
-31 -76 674 0
-31 -76 -674 0
-31 -85 675 0
-31 -85 -675 0
-40 -49 676 0
-40 -49 -676 0
-40 -58 677 0
-40 -58 -677 0
-40 -67 678 0
-40 -67 -678 0
-40 -76 679 0
-40 -76 -679 0
-40 -85 680 0
-40 -85 -680 0
-49 -58 681 0
-49 -58 -681 0
-49 -67 682 0
-49 -67 -682 0
-49 -76 683 0
-49 -76 -683 0
-49 -85 684 0
-49 -85 -684 0
-58 -67 685 0
-58 -67 -685 0
-58 -76 686 0
-58 -76 -686 0
-58 -85 687 0
-58 -85 -687 0
-67 -76 688 0
-67 -76 -688 0
-67 -85 689 0
-67 -85 -689 0
-76 -85 690 0
-76 -85 -690 0
-5 -14 691 0
-5 -14 -691 0
-5 -23 692 0
-5 -23 -692 0
-5 -32 693 0
-5 -32 -693 0
-5 -41 694 0
-5 -41 -694 0
-5 -50 695 0
-5 -50 -695 0
-5 -59 696 0
-5 -59 -696 0
-5 -68 697 0
-5 -68 -697 0
-5 -77 698 0
-5 -77 -698 0
-5 -86 699 0
-5 -86 -699 0
-14 -23 700 0
-14 -23 -700 0
-14 -32 701 0
-14 -32 -701 0
-14 -41 702 0
-14 -41 -702 0
-14 -50 703 0
-14 -50 -703 0
-14 -59 704 0
-14 -59 -704 0
-14 -68 705 0
-14 -68 -705 0
-14 -77 706 0
-14 -77 -706 0
-14 -86 707 0
-14 -86 -707 0
-23 -32 708 0
-23 -32 -708 0
-23 -41 709 0
-23 -41 -709 0
-23 -50 710 0
-23 -50 -710 0
-23 -59 711 0
-23 -59 -711 0
-23 -68 712 0
-23 -68 -712 0
-23 -77 713 0
-23 -77 -713 0
-23 -86 714 0
-23 -86 -714 0
-32 -41 715 0
-32 -41 -715 0
-32 -50 716 0
-32 -50 -716 0
-32 -59 717 0
-32 -59 -717 0
-32 -68 718 0
-32 -68 -718 0
-32 -77 719 0
-32 -77 -719 0
-32 -86 720 0
-32 -86 -720 0
-41 -50 721 0
-41 -50 -721 0
-41 -59 722 0
-41 -59 -722 0
-41 -68 723 0
-41 -68 -723 0
-41 -77 724 0
-41 -77 -724 0
-41 -86 725 0
-41 -86 -725 0
-50 -59 726 0
-50 -59 -726 0
-50 -68 727 0
-50 -68 -727 0
-50 -77 728 0
-50 -77 -728 0
-50 -86 729 0
-50 -86 -729 0
-59 -68 730 0
-59 -68 -730 0
-59 -77 731 0
-59 -77 -731 0
-59 -86 732 0
-59 -86 -732 0
-68 -77 733 0
-68 -77 -733 0
-68 -86 734 0
-68 -86 -734 0
-77 -86 735 0
-77 -86 -735 0
-6 -15 736 0
-6 -15 -736 0
-6 -24 737 0
-6 -24 -737 0
-6 -33 738 0
-6 -33 -738 0
-6 -42 739 0
-6 -42 -739 0
-6 -51 740 0
-6 -51 -740 0
-6 -60 741 0
-6 -60 -741 0
-6 -69 742 0
-6 -69 -742 0
-6 -78 743 0
-6 -78 -743 0
-6 -87 744 0
-6 -87 -744 0
-15 -24 745 0
-15 -24 -745 0
-15 -33 746 0
-15 -33 -746 0
-15 -42 747 0
-15 -42 -747 0
-15 -51 748 0
-15 -51 -748 0
-15 -60 749 0
-15 -60 -749 0
-15 -69 750 0
-15 -69 -750 0
-15 -78 751 0
-15 -78 -751 0
-15 -87 752 0
-15 -87 -752 0
-24 -33 753 0
-24 -33 -753 0
-24 -42 754 0
-24 -42 -754 0
-24 -51 755 0
-24 -51 -755 0
-24 -60 756 0
-24 -60 -756 0
-24 -69 757 0
-24 -69 -757 0
-24 -78 758 0
-24 -78 -758 0
-24 -87 759 0
-24 -87 -759 0
-33 -42 760 0
-33 -42 -760 0
-33 -51 761 0
-33 -51 -761 0
-33 -60 762 0
-33 -60 -762 0
-33 -69 763 0
-33 -69 -763 0
-33 -78 764 0
-33 -78 -764 0
-33 -87 765 0
-33 -87 -765 0
-42 -51 766 0
-42 -51 -766 0
-42 -60 767 0
-42 -60 -767 0
-42 -69 768 0
-42 -69 -768 0
-42 -78 769 0
-42 -78 -769 0
-42 -87 770 0
-42 -87 -770 0
-51 -60 771 0
-51 -60 -771 0
-51 -69 772 0
-51 -69 -772 0
-51 -78 773 0
-51 -78 -773 0
-51 -87 774 0
-51 -87 -774 0
-60 -69 775 0
-60 -69 -775 0
-60 -78 776 0
-60 -78 -776 0
-60 -87 777 0
-60 -87 -777 0
-69 -78 778 0
-69 -78 -778 0
-69 -87 779 0
-69 -87 -779 0
-78 -87 780 0
-78 -87 -780 0
-7 -16 781 0
-7 -16 -781 0
-7 -25 782 0
-7 -25 -782 0
-7 -34 783 0
-7 -34 -783 0
-7 -43 784 0
-7 -43 -784 0
-7 -52 785 0
-7 -52 -785 0
-7 -61 786 0
-7 -61 -786 0
-7 -70 787 0
-7 -70 -787 0
-7 -79 788 0
-7 -79 -788 0
-7 -88 789 0
-7 -88 -789 0
-16 -25 790 0
-16 -25 -790 0
-16 -34 791 0
-16 -34 -791 0
-16 -43 792 0
-16 -43 -792 0
-16 -52 793 0
-16 -52 -793 0
-16 -61 794 0
-16 -61 -794 0
-16 -70 795 0
-16 -70 -795 0
-16 -79 796 0
-16 -79 -796 0
-16 -88 797 0
-16 -88 -797 0
-25 -34 798 0
-25 -34 -798 0
-25 -43 799 0
-25 -43 -799 0
-25 -52 800 0
-25 -52 -800 0
-25 -61 801 0
-25 -61 -801 0
-25 -70 802 0
-25 -70 -802 0
-25 -79 803 0
-25 -79 -803 0
-25 -88 804 0
-25 -88 -804 0
-34 -43 805 0
-34 -43 -805 0
-34 -52 806 0
-34 -52 -806 0
-34 -61 807 0
-34 -61 -807 0
-34 -70 808 0
-34 -70 -808 0
-34 -79 809 0
-34 -79 -809 0
-34 -88 810 0
-34 -88 -810 0
-43 -52 811 0
-43 -52 -811 0
-43 -61 812 0
-43 -61 -812 0
-43 -70 813 0
-43 -70 -813 0
-43 -79 814 0
-43 -79 -814 0
-43 -88 815 0
-43 -88 -815 0
-52 -61 816 0
-52 -61 -816 0
-52 -70 817 0
-52 -70 -817 0
-52 -79 818 0
-52 -79 -818 0
-52 -88 819 0
-52 -88 -819 0
-61 -70 820 0
-61 -70 -820 0
-61 -79 821 0
-61 -79 -821 0
-61 -88 822 0
-61 -88 -822 0
-70 -79 823 0
-70 -79 -823 0
-70 -88 824 0
-70 -88 -824 0
-79 -88 825 0
-79 -88 -825 0
-8 -17 826 0
-8 -17 -826 0
-8 -26 827 0
-8 -26 -827 0
-8 -35 828 0
-8 -35 -828 0
-8 -44 829 0
-8 -44 -829 0
-8 -53 830 0
-8 -53 -830 0
-8 -62 831 0
-8 -62 -831 0
-8 -71 832 0
-8 -71 -832 0
-8 -80 833 0
-8 -80 -833 0
-8 -89 834 0
-8 -89 -834 0
-17 -26 835 0
-17 -26 -835 0
-17 -35 836 0
-17 -35 -836 0
-17 -44 837 0
-17 -44 -837 0
-17 -53 838 0
-17 -53 -838 0
-17 -62 839 0
-17 -62 -839 0
-17 -71 840 0
-17 -71 -840 0
-17 -80 841 0
-17 -80 -841 0
-17 -89 842 0
-17 -89 -842 0
-26 -35 843 0
-26 -35 -843 0
-26 -44 844 0
-26 -44 -844 0
-26 -53 845 0
-26 -53 -845 0
-26 -62 846 0
-26 -62 -846 0
-26 -71 847 0
-26 -71 -847 0
-26 -80 848 0
-26 -80 -848 0
-26 -89 849 0
-26 -89 -849 0
-35 -44 850 0
-35 -44 -850 0
-35 -53 851 0
-35 -53 -851 0
-35 -62 852 0
-35 -62 -852 0
-35 -71 853 0
-35 -71 -853 0
-35 -80 854 0
-35 -80 -854 0
-35 -89 855 0
-35 -89 -855 0
-44 -53 856 0
-44 -53 -856 0
-44 -62 857 0
-44 -62 -857 0
-44 -71 858 0
-44 -71 -858 0
-44 -80 859 0
-44 -80 -859 0
-44 -89 860 0
-44 -89 -860 0
-53 -62 861 0
-53 -62 -861 0
-53 -71 862 0
-53 -71 -862 0
-53 -80 863 0
-53 -80 -863 0
-53 -89 864 0
-53 -89 -864 0
-62 -71 865 0
-62 -71 -865 0
-62 -80 866 0
-62 -80 -866 0
-62 -89 867 0
-62 -89 -867 0
-71 -80 868 0
-71 -80 -868 0
-71 -89 869 0
-71 -89 -869 0
-80 -89 870 0
-80 -89 -870 0
-9 -18 871 0
-9 -18 -871 0
-9 -27 872 0
-9 -27 -872 0
-9 -36 873 0
-9 -36 -873 0
-9 -45 874 0
-9 -45 -874 0
-9 -54 875 0
-9 -54 -875 0
-9 -63 876 0
-9 -63 -876 0
-9 -72 877 0
-9 -72 -877 0
-9 -81 878 0
-9 -81 -878 0
-9 -90 879 0
-9 -90 -879 0
-18 -27 880 0
-18 -27 -880 0
-18 -36 881 0
-18 -36 -881 0
-18 -45 882 0
-18 -45 -882 0
-18 -54 883 0
-18 -54 -883 0
-18 -63 884 0
-18 -63 -884 0
-18 -72 885 0
-18 -72 -885 0
-18 -81 886 0
-18 -81 -886 0
-18 -90 887 0
-18 -90 -887 0
-27 -36 888 0
-27 -36 -888 0
-27 -45 889 0
-27 -45 -889 0
-27 -54 890 0
-27 -54 -890 0
-27 -63 891 0
-27 -63 -891 0
-27 -72 892 0
-27 -72 -892 0
-27 -81 893 0
-27 -81 -893 0
-27 -90 894 0
-27 -90 -894 0
-36 -45 895 0
-36 -45 -895 0
-36 -54 896 0
-36 -54 -896 0
-36 -63 897 0
-36 -63 -897 0
-36 -72 898 0
-36 -72 -898 0
-36 -81 899 0
-36 -81 -899 0
-36 -90 900 0
-36 -90 -900 0
-45 -54 901 0
-45 -54 -901 0
-45 -63 902 0
-45 -63 -902 0
-45 -72 903 0
-45 -72 -903 0
-45 -81 904 0
-45 -81 -904 0
-45 -90 905 0
-45 -90 -905 0
-54 -63 906 0
-54 -63 -906 0
-54 -72 907 0
-54 -72 -907 0
-54 -81 908 0
-54 -81 -908 0
-54 -90 909 0
-54 -90 -909 0
-63 -72 910 0
-63 -72 -910 0
-63 -81 911 0
-63 -81 -911 0
-63 -90 912 0
-63 -90 -912 0
-72 -81 913 0
-72 -81 -913 0
-72 -90 914 0
-72 -90 -914 0
-81 -90 915 0
-81 -90 -915 0
1102 -1205 -1287 0
976 1661 1685 0
-985 1212 -1708 0
-916 -1470 1540 0
1411 1651 1714 0
1243 -1248 -1541 0
1283 -1496 1659 0
-1292 1308 -1587 0
963 1389 -1633 0
1248 -1381 -1636 0
988 -1251 1373 0
-1461 -1522 -1692 0
1309 1318 -1508 0
1308 1570 1578 0
1014 1212 -1243 0
-1024 1439 -1658 0
-931 -1193 -1454 0
-989 -1410 -1613 0
1051 -1292 1477 0
-957 1238 1483 0
994 1674 -1713 0
-1273 1321 -1371 0
-1067 -1388 -1506 0
-1090 1102 -1276 0
-1010 1012 -1228 0
1155 1296 1300 0
-977 1186 -1628 0
1015 1363 -1445 0
1276 -1574 1590 0
-927 -992 1502 0
-1185 -1315 -1381 0
-1061 1508 1552 0
-1212 1307 1374 0
-1037 1080 1209 0
1157 1545 -1573 0
-952 -1408 -1695 0
916 -1362 1500 0
-1354 1485 -1701 0
1326 1612 -1684 0
956 -1047 -1413 0
-1048 -1142 -1595 0
1015 -1219 1524 0
-956 -970 -1019 0
1302 -1423 1447 0
1010 1194 1516 0
-972 1039 -1473 0
950 1106 1627 0
1124 1363 1621 0
-1005 -1486 -1655 0
-1130 -1681 1699 0
-958 -1207 1361 0
-1041 -1176 -1413 0
-1101 -1210 1254 0
-1315 -1391 1631 0
-919 -1418 -1524 0
1096 -1448 -1478 0
1164 -1286 1499 0
984 -1487 -1545 0
-1048 -1227 -1534 0
941 -1141 -1200 0
-1358 1414 1648 0
1019 -1110 -1316 0
-930 970 -1214 0
1065 -1202 1630 0
1057 -1171 1428 0
-1272 -1647 1667 0
1032 1300 -1677 0
-1220 -1517 -1715 0
-952 -1297 -1412 0
-1285 -1564 1592 0
1460 1606 -1647 0
-933 978 1532 0
-1411 -1485 1676 0
-1083 1108 1158 0
-943 1399 -1531 0
-1043 1070 -1539 0
922 -991 -1334 0
-1017 -1295 -1528 0
-1032 -1173 1198 0
1020 1407 1686 0
1072 -1132 1311 0
1292 1315 1411 0
-1421 -1644 1673 0
969 -1137 -1389 0
1079 1217 -1414 0
1088 1528 1564 0
-1258 1313 1542 0
962 -999 -1485 0
-958 -977 1276 0
-1193 -1234 1628 0
1060 -1476 -1622 0
931 1053 1301 0
-1072 1149 -1453 0
-1231 -1589 -1672 0
-997 -1217 1494 0
-1336 1393 1501 0
1317 -1415 1639 0
-976 1066 -1248 0
1364 -1483 -1511 0
-1444 -1451 -1565 0
-1080 -1133 -1147 0
-932 -958 1151 0
-963 1534 -1702 0
1074 -1385 1682 0
-1029 -1033 1659 0
978 1234 1495 0
-1026 1259 -1475 0
-1183 1217 -1556 0
1221 1397 1501 0
1404 1544 1638 0
-1090 -1130 1601 0
1543 1620 1686 0
1147 -1214 -1401 0
1161 1251 1413 0
-927 981 -1456 0
-1111 1195 -1287 0
951 -1167 -1648 0
937 1226 -1251 0
-1036 -1497 -1634 0
1399 1451 -1695 0
-939 954 1175 0
988 1285 -1662 0
-1259 -1483 1581 0
-1031 1374 1604 0
-1276 -1455 1674 0
930 -1101 -1593 0
-1245 -1339 1540 0
1181 -1516 1534 0
1011 -1268 1394 0
-987 1205 -1537 0
1352 1593 -1636 0
-921 1430 -1467 0
-964 1047 1698 0
1404 1447 1538 0
995 1200 1256 0
1041 1110 1546 0
1083 1202 1249 0
1042 1080 -1097 0
-1548 -1617 1620 0
1057 1164 -1629 0
-997 1019 -1055 0
-1022 1099 -1603 0
925 974 -1679 0
-953 -1533 1602 0
1323 1417 1437 0
1103 1261 -1600 0
947 1331 1690 0
-1172 -1193 1446 0
-1106 -1253 -1594 0
1142 1233 -1262 0
-923 -1198 1483 0
937 -1268 -1281 0
1149 -1303 -1459 0
-1136 -1377 1558 0
-1059 1474 -1515 0
1130 1340 -1421 0
1263 1542 1606 0
-1293 1398 1667 0
1078 -1219 -1341 0
976 1072 1192 0
-991 -1088 1348 0
-949 -1021 1346 0
-1344 -1636 -1638 0
-1187 -1357 1487 0
-1073 -1115 1395 0
-1485 1517 1682 0
1018 1392 -1403 0
1149 -1170 -1603 0
-1097 -1196 -1564 0
-924 -1063 -1690 0
1154 1405 1665 0
1166 1245 1357 0
-1132 -1229 -1422 0
-1219 1459 -1586 0
992 1198 -1660 0
-1307 1356 1694 0
972 1462 1582 0
1158 -1623 -1677 0
-1141 -1538 1619 0
1105 -1410 -1493 0
-930 -1251 -1263 0
-1160 1346 -1372 0
1249 1287 -1573 0
-1131 1161 1684 0
1248 -1389 1539 0
-1183 1423 1520 0
-1338 -1504 1699 0
-1183 1310 -1549 0
1280 -1625 -1651 0
1555 -1635 1664 0
1039 1230 1715 0
-923 1218 -1544 0
-1026 1419 1461 0
-959 -1200 -1637 0
-937 -994 1655 0
-1276 1433 -1483 0
-1284 1498 1639 0
-931 1162 -1239 0
1036 -1101 -1136 0
-1509 1580 -1675 0
1426 1480 1675 0
1179 1522 1567 0
1222 1298 1457 0
952 1469 -1590 0
933 -1083 -1560 0
-1132 -1409 -1495 0
1060 -1160 -1529 0
1058 -1314 -1513 0
-1272 1277 -1342 0
-994 1121 1674 0
-1102 1205 1554 0
1287 1292 -1691 0
-998 -1066 1364 0
-1149 -1508 1599 0
-1353 -1421 1637 0
1200 1441 1693 0
-1326 -1382 -1592 0
969 -1111 1226 0
-933 -1449 -1531 0
1339 1377 -1550 0
-1156 -1157 -1477 0
1443 -1454 -1642 0
1206 1340 -1410 0
1375 1450 -1520 0
-1090 -1448 1469 0
-962 1387 1692 0
-944 -1326 -1385 0
-965 -1266 1295 0
-1165 1248 1578 0
1001 -1259 -1338 0
959 1334 1390 0
-941 -1518 -1668 0
-922 -1257 -1597 0
1158 -1568 -1679 0
-1255 -1358 -1394 0
-1237 -1657 -1660 0
1013 -1053 -1554 0
-1037 1059 1482 0
924 1413 -1439 0
-926 -1074 -1349 0
1337 1513 1601 0
1071 1237 -1645 0
-1251 -1344 -1462 0
1143 1403 -1683 0
-1076 1120 -1167 0
977 -978 -1167 0
-1139 -1411 -1464 0
1406 1501 1670 0
1025 -1168 1591 0
-1080 1128 -1131 0
-920 -1404 1409 0
-1000 1078 -1636 0
1008 1269 1699 0
988 -1108 -1613 0
-1000 1343 -1418 0
1117 1157 1509 0
1125 -1253 -1273 0
-933 1080 -1473 0
-1249 1367 -1651 0
-1089 -1421 1567 0
-1502 -1516 -1640 0
-1100 1153 1346 0
1187 -1412 -1512 0
-1128 1401 -1650 0
966 -1132 1377 0
-1098 -1138 1580 0
1279 -1344 1439 0
1285 1365 -1603 0
-945 949 1507 0
1344 -1347 -1522 0
-1233 -1262 -1597 0
934 -1280 1569 0
1085 1331 1425 0
-1151 1206 -1572 0
1211 -1301 -1608 0
-1124 -1236 1407 0
-927 -1087 1386 0
1328 -1520 1701 0
1154 1611 -1714 0
-937 -1314 -1410 0
980 1149 1263 0
951 977 1069 0
-987 1147 -1340 0
-1020 -1208 -1613 0
1324 1457 1543 0
1092 1098 1321 0
1029 -1322 1438 0
1280 -1325 -1566 0
1436 -1460 1637 0
-1023 -1067 1170 0
1218 1341 1616 0
-1046 -1109 -1691 0
1337 1398 -1621 0
1020 1469 1517 0
-1078 -1347 1494 0
1229 1632 -1699 0
-1180 1623 1635 0
1244 1593 1635 0
-960 -1448 -1548 0
1144 1458 -1651 0
-1012 -1023 -1614 0
1203 1499 -1601 0
-1209 -1298 -1509 0
1355 -1406 1501 0
1266 -1273 1639 0
-1040 1274 -1535 0
1265 -1539 1605 0
-974 1408 -1509 0
-1332 -1441 -1698 0
1166 1512 1670 0
1188 -1354 1393 0
-1083 1089 1466 0
-1086 1375 1450 0
1177 -1355 1604 0
-1322 1471 -1711 0
1067 1290 -1680 0
-979 1035 1663 0
1381 1480 -1610 0
-1037 -1458 -1690 0
-1087 -1447 -1706 0
-955 1162 -1357 0
-949 -973 1706 0
1281 -1333 -1565 0
-923 -1210 1218 0
1392 1583 1674 0
-1233 -1484 1648 0
1134 1403 1465 0
-1299 -1442 1539 0
1409 1570 -1715 0
1420 -1534 -1631 0
1062 -1072 -1674 0
1031 -1062 1546 0
1340 -1446 1501 0
-927 -1087 -1393 0
-1187 -1337 -1504 0
1154 -1241 -1432 0
1265 1646 -1678 0
-1118 -1345 1471 0
-1084 -1420 1575 0
-1043 -1270 1410 0
951 -1116 1574 0
994 -1125 1155 0
940 -944 -1657 0
1620 1693 1703 0
1013 1104 -1465 0
1284 -1475 -1527 0
1349 -1395 -1660 0
-952 -1458 -1647 0
924 1324 1551 0
1076 1189 -1702 0
-968 1270 1415 0
-925 -947 -1486 0
-1063 1275 -1296 0
953 1027 -1545 0
-1460 -1582 1670 0
1255 1272 1611 0
-1164 -1340 -1483 0
-977 -1065 -1231 0
-1005 1040 -1135 0
-1286 1353 1436 0
-1400 1524 1606 0
-1026 1097 -1212 0
1204 -1247 -1504 0
1263 -1420 1714 0
-1297 -1523 1628 0
-1445 1563 1631 0
1094 1360 1397 0
1216 1245 1310 0
944 968 976 0
1178 -1256 -1406 0
1184 1620 1667 0
950 -1356 1651 0
-1279 1512 1539 0
-1014 -1173 -1451 0
1053 1408 -1473 0
979 1184 -1393 0
1433 -1613 -1628 0
-1066 -1164 1613 0
1057 -1234 -1708 0
-1323 1514 1700 0
-1008 1191 -1522 0
-1091 1448 -1674 0
-974 -1337 -1634 0
986 1249 -1531 0
1202 1302 1434 0
1160 1445 1706 0
1066 -1196 1338 0
-918 -1122 -1370 0
-1041 -1058 1151 0
-975 1060 1385 0
988 1149 1351 0
-1081 -1203 1373 0
1372 -1558 -1600 0
-1102 1150 -1343 0
1263 -1284 -1515 0
-1108 -1173 1419 0
1051 -1126 1200 0
-1078 1277 -1677 0
-1274 -1528 1631 0
1139 1215 -1371 0
959 -1406 1454 0
-957 -1196 1268 0
1243 1484 1605 0
-1180 -1284 1410 0
-1041 -1311 -1418 0
-1102 -1191 1658 0
1486 -1617 -1678 0
-1038 1171 1195 0
-972 1026 -1332 0
1133 -1153 -1389 0
970 1274 -1567 0
1244 1319 -1394 0
1050 1440 1520 0
1008 1201 1316 0
939 -1034 -1648 0
-953 1106 1307 0
-1147 -1174 -1709 0
1297 -1347 1598 0
-922 -1013 1586 0
-1426 1444 -1583 0
-1256 1263 1683 0
-938 -1282 1663 0
936 1014 1429 0
1203 -1305 -1640 0
1210 -1401 -1668 0
988 -1573 1662 0
-1083 -1308 1387 0
-1092 1539 1570 0
-1154 1192 1328 0
1169 1260 1652 0
935 -997 -1586 0
-945 -996 -1320 0
-1602 1644 1705 0
1319 -1408 1465 0
1040 -1320 -1554 0
932 1084 -1574 0
-1013 -1319 -1703 0
1018 1466 -1613 0
-1117 -1499 -1607 0
-970 1021 -1172 0
939 -944 -1074 0
-971 1162 1192 0
-922 -944 -1563 0
1372 -1417 -1624 0
-1095 1188 1622 0
-1564 -1687 1710 0
-1438 -1710 -1712 0
1135 1481 1488 0
-1108 -1431 1567 0
-946 -1554 1713 0
-1229 -1325 1580 0
-999 -1182 1437 0
1197 -1436 1577 0
-1110 -1332 -1549 0
-1418 1425 1701 0
-1010 -1102 -1521 0
-1176 -1384 -1609 0
-957 -1453 -1698 0
1044 -1502 1585 0
1108 1240 1534 0
1032 -1205 1377 0
1418 1555 1625 0
1097 1199 -1230 0
1095 -1112 1320 0
1276 -1500 -1615 0
-1214 1582 1711 0
1022 -1330 -1430 0
-918 -1511 -1545 0
1405 1503 1685 0
953 1240 1302 0
942 -1247 -1293 0
-993 -1225 -1427 0
-1070 1333 -1525 0
1108 -1465 1543 0
-1234 1255 1307 0
-1174 1222 -1364 0
975 1369 1426 0
-1200 1238 -1492 0
1367 -1434 -1467 0
-929 -1002 1321 0
-978 -1066 1158 0
1151 -1336 -1547 0
1006 -1036 -1089 0
-948 1075 1291 0
1186 1472 -1610 0
1053 1168 1628 0
-1371 1565 -1636 0
-1329 1330 -1541 0
-1281 -1288 -1364 0
926 1334 -1663 0
-1063 1221 -1599 0
-1220 1293 1444 0
-1125 -1357 -1635 0
-998 1247 1355 0
971 -1050 1153 0
-990 -1178 1266 0
-1193 1387 1611 0
922 1035 1201 0
923 1322 -1410 0
997 1240 1559 0
-967 -1213 1457 0
1151 -1160 -1412 0
1137 1273 -1623 0
-1370 1441 1549 0
-937 -1488 1665 0
-1032 -1540 1686 0
-1410 1542 1633 0
1022 -1082 -1122 0
919 -1435 -1563 0
1163 -1353 1626 0
935 -959 1572 0
-1123 1270 -1378 0
-1066 -1089 1172 0
-1034 -1326 1329 0
1137 -1704 -1712 0
-1069 1451 -1690 0
1022 1281 1418 0
1462 1556 1600 0
1135 1581 1624 0
-1002 1309 1475 0
-1405 1464 -1712 0
-1364 -1511 -1701 0
926 1650 -1691 0
-1081 -1401 -1545 0
1073 -1169 1574 0
968 -1134 -1431 0
-1463 1487 1595 0
-968 1231 1627 0
-951 1388 1474 0
-1358 1461 -1554 0
919 1047 1465 0
1109 1357 1681 0
1040 -1127 1626 0
-1227 1318 -1385 0
1021 -1525 -1573 0
1445 1466 -1548 0
1057 -1582 1676 0
-1090 1332 -1593 0
1433 1607 1612 0
972 -1102 -1268 0
-966 -1075 1135 0
-973 1137 1393 0
-950 -1307 1576 0
1053 1349 -1437 0
-1063 -1504 1592 0
941 -1376 -1493 0
1038 1236 -1558 0
-1285 1514 1650 0
1240 -1607 1654 0
1333 1491 -1715 0
1228 1534 1615 0
-981 -1137 -1181 0
956 -1184 -1679 0
-1099 1278 1680 0
-975 1000 -1088 0
958 -1117 1713 0
979 -1010 1549 0
-1150 1343 -1383 0
-1022 1394 1404 0
-990 1626 1701 0
1146 -1173 -1602 0
-1097 1208 1302 0
1297 1428 -1488 0
933 1421 -1684 0
-1005 1066 -1344 0
-1435 -1507 1553 0
1268 -1269 1273 0
1089 -1448 1645 0
-1121 -1313 -1393 0
-1130 -1141 -1630 0
-1106 1482 1603 0
-1240 -1528 -1670 0
999 -1034 1424 0
1020 -1298 -1696 0
-1340 -1571 1619 0
1048 1421 1683 0
1223 1230 1306 0
-1243 1585 -1638 0
-1012 1475 1553 0
1097 -1144 -1564 0
1136 1374 -1545 0
1128 -1556 1687 0
1579 1599 1635 0
-1594 1636 1654 0
-1235 -1585 -1687 0
-1096 1304 1346 0
1065 -1379 1519 0
-1261 1381 -1690 0
-1179 1218 -1469 0
-928 1260 1682 0
-1122 1320 1472 0
1378 -1520 -1606 0
1150 1310 1564 0
-1195 -1536 1693 0
1424 1616 -1659 0
-1242 -1368 -1495 0
936 -1084 -1597 0
1376 1419 -1494 0
-986 -1195 -1244 0
1298 1367 1536 0
982 1368 1623 0
-926 -1224 1553 0
1327 -1410 1488 0
992 -1437 -1489 0
-1005 1182 1343 0
982 998 -1385 0
1063 1218 -1646 0
-1013 -1036 1273 0
-921 1108 1697 0
1136 -1187 1359 0
1037 1354 -1682 0
1252 -1293 1494 0
-1090 -1205 1698 0
1048 -1067 -1629 0
1141 1167 -1530 0
-1383 1384 1706 0
1641 1666 -1673 0
1160 1482 -1575 0
973 -1125 -1412 0
-1046 1189 1449 0
1344 1622 1641 0
1183 -1367 -1679 0
939 -970 -1072 0
956 -1164 -1181 0
1458 1468 -1498 0
-945 -1089 -1271 0
1068 -1355 1604 0
1075 1243 1475 0
-954 1632 -1658 0
1562 -1597 -1670 0
997 1217 -1585 0
935 990 1391 0
-1070 -1291 1513 0
-1293 -1426 1655 0
1007 -1123 -1439 0
-1092 1110 1440 0
-950 1516 -1650 0
-1331 -1448 -1699 0
993 1554 -1689 0
-1151 1414 1585 0
1185 -1434 -1615 0
-1614 -1635 -1637 0
-1512 -1515 1710 0
946 -1421 -1465 0
-1114 -1252 1539 0
942 1189 -1518 0
981 1157 -1515 0
1085 1242 -1290 0
-1075 1598 1635 0
1230 -1595 1673 0
1147 1375 -1710 0
954 1349 1667 0
-1086 1312 1469 0
1033 -1296 -1402 0
-926 1574 1647 0
1017 -1153 -1400 0
-975 -1190 -1403 0
927 1121 1364 0
1072 1503 -1687 0
-1036 1153 1654 0
-929 -1486 -1686 0
1024 1182 1323 0
-1493 1667 1696 0
-1038 -1061 1358 0
-986 1153 1269 0
-1437 -1462 -1576 0
-959 961 -1536 0
-1033 1521 1590 0
-1049 -1100 1461 0
-980 986 -1614 0
1494 -1617 1669 0
1102 1242 -1607 0
-1087 1168 -1489 0
1286 1531 -1630 0
937 1070 1222 0
-1090 1459 1641 0
-1350 -1489 1692 0
940 -1038 1182 0
950 -1190 -1495 0
-972 -1236 1638 0
929 1062 -1239 0
1243 -1361 -1490 0
-1072 1547 -1682 0
-1051 -1113 1683 0
-1217 -1279 -1697 0
1147 -1609 1632 0
995 1520 1632 0
-1334 1390 1642 0
989 1244 1562 0
-919 940 996 0
-1068 1487 -1630 0
1221 1398 -1673 0
-1169 -1188 1380 0
1219 -1480 1714 0
982 -1038 -1352 0
-979 1116 1568 0
1211 1390 -1594 0
-926 -1042 -1154 0
-919 -1124 1323 0
-1384 -1581 1637 0
-1225 -1292 -1359 0
-1169 -1328 -1695 0
-1222 -1251 1429 0
993 1130 -1168 0
1080 1092 1437 0
-984 1185 1370 0
944 -1037 -1468 0
-1030 1163 -1539 0
-917 924 -1548 0
-1077 1099 1621 0
972 1352 1669 0
1128 -1553 1663 0
-928 1099 -1667 0
-1166 1271 -1706 0
-1188 1442 1604 0
-1166 -1413 1472 0
1080 1339 -1685 0
981 -1310 1500 0
-1077 -1277 1350 0
1266 -1492 1662 0
-1242 -1526 1590 0
-1606 -1623 -1666 0
-1066 -1442 -1586 0
1262 -1274 1705 0
-1134 -1175 -1514 0
1180 -1242 1658 0
1538 1570 -1632 0
-1404 1421 1509 0
-918 1042 -1238 0
-1021 -1188 1514 0
1232 1297 1520 0
-1497 1512 1530 0
-1202 1389 -1626 0
-1203 -1312 -1509 0
932 1004 -1295 0
-1017 -1034 1216 0
-1179 1339 1425 0
-1015 -1373 -1599 0
1117 1316 1367 0
-1213 1406 -1484 0
-1156 1201 -1464 0
-1287 -1554 -1667 0
1003 -1225 1308 0
1014 1249 1505 0
-1247 -1524 -1537 0
-944 -1445 1670 0
-1143 1564 -1659 0
-1024 1534 1624 0
-1036 -1078 1352 0
-1009 1039 -1573 0
1565 -1594 -1631 0
-995 -1087 1169 0
1069 1124 1580 0
1202 1319 -1361 0
1031 1084 1209 0
-1058 1516 1675 0
951 -1124 -1448 0
1053 1210 -1546 0
-1203 1305 1676 0
-1109 1481 1686 0
1030 1395 -1462 0
1137 -1164 -1234 0
1213 1340 -1648 0
-1205 -1376 -1583 0
-1144 1250 1682 0
-934 -1464 -1534 0
1140 -1201 1631 0
-1063 -1162 1244 0
-1417 -1496 1706 0
968 -1040 1682 0
-1029 1297 1695 0
1184 -1551 1588 0
-1238 1275 -1673 0
1079 -1178 1363 0
-926 -1238 -1357 0
976 1409 1489 0
997 -1080 1223 0
-1332 1521 1711 0
1196 -1207 -1223 0
943 1308 1655 0
-1090 1117 -1570 0
1325 -1344 -1707 0
1101 -1548 -1608 0
-1009 1055 -1103 0
-1061 -1295 1391 0
1073 -1668 1680 0
1312 -1356 -1571 0
1281 -1293 -1551 0
1298 -1380 -1499 0
-1202 -1281 1482 0
-1009 -1549 -1551 0
-934 1114 -1530 0
1118 1430 -1524 0
-973 1082 1412 0
-1056 -1211 1542 0
1193 1254 -1312 0
-1256 -1510 -1540 0
-1286 1588 -1670 0
-1075 1316 -1444 0
997 -1295 -1590 0
1201 1424 -1491 0
1253 -1647 1673 0
1383 1501 1667 0
931 -1129 -1314 0
993 1283 -1349 0
-1510 1523 1651 0
1258 -1373 1655 0
917 -1077 -1226 0
-977 -1341 1662 0
-960 1291 1652 0
-1027 1149 1190 0
-1484 -1621 1670 0
-1047 1074 -1617 0
1292 -1304 1399 0
-935 1200 -1643 0
1004 1077 -1434 0
980 1465 -1698 0
1029 -1231 -1289 0
1035 -1187 -1390 0
1509 1593 1650 0
-1132 -1412 -1550 0
-1148 1227 -1474 0
-948 985 -1374 0
1040 -1459 1485 0
-1095 1263 1524 0
946 -1410 1685 0
-995 1537 1541 0
-1175 -1188 -1575 0
1194 1455 1669 0
-1257 1279 -1297 0
-941 -1069 1221 0
1034 -1435 1453 0
1119 -1170 1210 0
1305 1306 -1407 0
1418 -1494 1637 0
-946 1372 1446 0
-1015 1304 -1374 0
1149 -1200 -1540 0
-1089 1378 -1598 0
-1095 -1335 1599 0
-1041 1127 -1678 0
929 1166 -1244 0
1167 1634 -1652 0
1216 -1344 -1546 0
1121 1137 -1151 0
1199 -1573 1685 0
1405 1411 1678 0
-932 1385 -1652 0
-920 -935 -1261 0
1165 1562 1693 0
1015 -1223 -1653 0
-1075 1208 1365 0
1395 1568 -1583 0
991 -1203 -1379 0
-1116 1396 -1422 0
995 1281 1650 0
1143 -1202 -1260 0
-1035 -1536 -1591 0
1270 1281 -1682 0
-1241 1521 1644 0
-1328 1395 1587 0
-1068 -1436 -1662 0
-1319 1517 1567 0
999 1195 1696 0
-984 -1457 1654 0
991 -1266 1291 0
1175 1295 1627 0
1020 1370 -1407 0
1068 1374 -1482 0
-1139 1280 -1615 0
-1032 -1178 1682 0
-1239 -1560 -1636 0
946 -1094 -1306 0
-1115 1442 -1620 0
1000 1393 -1506 0
-1042 1097 -1266 0
1152 -1161 -1208 0
1441 1482 -1714 0
-1136 1281 1598 0
1176 -1213 -1466 0
-1142 -1365 1684 0
-1060 1307 1442 0
968 1577 1595 0
1018 1153 -1553 0
-1274 -1297 1577 0
-1095 -1158 -1352 0
1318 1410 1424 0
922 -1328 1360 0
944 1079 -1659 0
1043 -1108 -1666 0
-950 -1080 -1527 0
1062 -1405 1465 0
-1374 1563 -1690 0
1024 -1491 -1681 0
-1237 1354 1408 0
1009 -1551 1620 0
-1490 1622 1629 0
1058 -1495 1544 0
944 1318 1410 0
1268 -1288 -1674 0
1085 1237 1407 0
1104 -1151 1399 0
1049 -1506 -1575 0
1177 1369 1444 0
-1455 -1519 -1640 0
1009 -1193 1298 0
1199 1443 1592 0
1005 -1540 1657 0
-968 -986 -1038 0
-1119 1167 -1234 0
1031 -1273 -1591 0
-1237 -1500 -1598 0
1210 -1370 1546 0
917 1173 1507 0
1340 1380 1533 0
-1002 1497 -1645 0
1395 -1549 -1656 0
-1250 -1315 1440 0
967 -1035 1705 0
972 1318 1325 0
966 -1062 -1139 0
-982 1503 1550 0
1187 -1201 1285 0
1533 -1652 -1685 0
1003 -1419 -1667 0
1390 -1397 -1541 0
962 1257 1330 0
947 1166 1457 0
-1062 1187 1433 0
-1025 1347 1469 0
1370 1649 1690 0
-1167 -1300 1369 0
1241 -1333 1706 0
1096 -1117 -1566 0
-1077 1511 1541 0
-1099 1246 -1352 0
1028 1412 1535 0
938 1421 -1672 0
-974 -1467 -1713 0
-1066 -1069 -1220 0
957 1577 1705 0
-936 -1303 1327 0
934 -947 -1556 0
916 -1283 1628 0
-1352 1425 -1631 0
1059 1450 -1570 0
1085 -1453 -1667 0
-972 1079 -1149 0
1197 1242 -1457 0
-959 -965 -1598 0
998 -1211 -1230 0
-1425 -1468 -1692 0
-1047 -1225 -1383 0
940 1303 1478 0
1409 -1449 1609 0
-934 -963 1341 0
-927 -1086 -1210 0
1294 -1352 1526 0
1063 1409 -1496 0
1029 -1226 1338 0
1120 1386 1661 0
-999 1187 1322 0
998 -1232 1341 0
-956 -1165 -1694 0
-1109 1281 1674 0
1190 -1376 -1443 0
944 1031 1488 0
-972 1449 -1683 0
-1042 1198 -1208 0
1319 -1416 1640 0
-1181 -1335 -1437 0
962 1188 1596 0
-1149 -1626 -1667 0
1051 -1339 -1619 0
981 1132 1522 0
1015 -1165 1381 0
-1224 -1469 1676 0
1065 1366 1379 0
-1127 1528 -1652 0
1338 -1597 1662 0
-1251 -1505 -1613 0
934 1550 -1650 0
-941 -1284 1368 0
-943 -1024 1274 0
-1020 -1157 -1698 0
1358 -1548 -1636 0
1040 -1384 -1427 0
1031 -1299 -1459 0
-1083 1318 1640 0
1218 1426 1593 0
-1131 1462 1500 0
1054 1131 -1348 0
1165 1494 1513 0
1333 1425 1580 0
-1039 -1351 -1513 0
-1016 -1332 1585 0
-1140 -1416 1655 0
957 976 1253 0
1493 -1589 -1621 0
1287 1389 1621 0
-957 1026 -1691 0
-1449 1566 1626 0
1060 -1087 -1176 0
-970 1654 1713 0
956 -1009 1108 0
-1043 -1647 1682 0
1085 -1542 1587 0
-977 1115 -1434 0
-935 -1631 -1634 0
-1093 1318 1524 0
967 1054 1066 0
-979 1508 1625 0
-964 -1195 1503 0
-1581 1600 1677 0
1082 1420 -1494 0
-1440 -1696 1703 0
1055 -1376 -1377 0
1277 1401 -1475 0
1023 -1512 -1694 0
-1254 -1469 -1714 0
1152 1283 -1520 0
-942 1172 -1489 0
981 1548 -1568 0
1084 1639 -1695 0
-1245 1367 1543 0
-935 -1274 1682 0
1154 -1382 1527 0
-934 -986 1494 0
1070 1542 -1616 0
1066 -1516 1605 0
1044 1485 1681 0
-1153 1269 -1290 0
-1235 -1299 -1715 0
-964 1143 1473 0
1260 1334 -1398 0
-1208 -1340 1494 0
1197 -1495 1710 0
-1111 -1257 -1287 0
-1060 1192 -1615 0
1133 -1618 1697 0
-1029 -1335 -1498 0
1009 -1030 -1116 0
-1021 1467 -1666 0
-1348 1571 -1660 0
1129 -1584 -1689 0
-1153 -1487 1612 0
-1059 1311 1335 0
1194 1481 -1530 0
-1309 1402 -1592 0
-1151 1668 1672 0
-1048 -1345 -1669 0
-997 -1256 1478 0
1039 1131 -1267 0
1636 1666 1679 0
955 -971 1597 0
-1086 1113 1675 0
-1355 -1424 1631 0
-1196 -1447 1607 0
-1220 -1405 1615 0
927 -942 1463 0
-1212 1413 1671 0
-1167 1278 1533 0
-1045 -1154 -1321 0
965 1530 -1698 0
-1457 1602 1604 0
-1353 -1455 -1554 0
-946 964 1114 0
1356 -1438 1505 0
-1300 -1564 -1589 0
-1020 -1276 1576 0
1320 -1484 -1494 0
944 1371 -1494 0
1112 -1148 -1252 0
-1420 1603 1677 0
-939 1331 1386 0
949 1036 1345 0
-1043 -1228 1497 0
919 -1661 1715 0
928 1279 1443 0
929 -1332 1623 0
931 991 -1378 0
1508 1517 1585 0
-1015 -1319 1563 0
1342 1555 -1591 0
971 -1042 1275 0
1033 -1352 1555 0
-1088 1219 1293 0
-1030 -1166 1432 0
-1022 -1495 -1631 0
-1012 -1213 1432 0
1390 1435 -1529 0
-1029 -1261 1594 0
-984 1348 1413 0
-1057 -1460 -1528 0
-1224 1423 -1539 0
1327 -1450 1686 0
-995 -1112 -1597 0
-1367 1546 1650 0
1171 -1218 1590 0
1019 1219 1416 0
953 1181 -1656 0
-982 -1165 1337 0
-1328 1525 -1688 0
-1242 -1276 1522 0
1285 1286 1503 0
-1094 1224 -1714 0
-1146 1449 -1660 0
-921 -961 1694 0
-990 -1353 -1607 0
-1223 -1327 -1507 0
-1163 1297 -1481 0
-1172 -1397 1648 0
1301 1305 1607 0
-1028 1280 1682 0
989 1206 -1390 0
-1116 -1313 1378 0
994 1225 1711 0
-1236 -1495 -1695 0
1325 1453 1710 0
982 1103 1265 0
1231 -1482 1681 0
-1023 -1102 1648 0
-1523 -1525 1556 0
-996 -1504 1554 0
-957 -1184 -1713 0
1144 1371 -1391 0
-1034 1130 1138 0
-959 998 -1385 0
-1189 -1293 1710 0
1097 1157 1565 0
1041 1437 1603 0
1066 1341 1373 0
-1189 1579 -1714 0
1447 -1616 1696 0
-1000 1250 -1501 0
-1220 1552 1605 0
967 -1080 1361 0
1132 1192 1200 0
-1075 -1299 1416 0
-951 -1460 -1624 0
-1080 1168 1390 0
975 -1317 1699 0
1047 -1457 1686 0
-947 1068 1178 0
1024 -1483 1575 0
-975 -1480 -1666 0
-1607 1612 -1654 0
1056 1157 -1589 0
-1483 -1599 1679 0
1113 -1234 -1430 0
-1094 1527 -1621 0
994 1148 1680 0
-953 -1149 -1310 0
-1063 1235 1650 0
917 -1255 1618 0
-1346 1627 -1644 0
1114 1347 1639 0
1233 -1265 -1594 0
-1118 1204 -1663 0
-1030 -1193 -1618 0
948 -1236 -1422 0
1180 -1403 -1614 0
-1166 -1213 1512 0
961 -1428 1554 0
1317 1435 1571 0
-953 1087 1381 0
1356 1527 -1537 0
-1138 -1294 -1369 0
1024 1484 1644 0
982 -1549 1652 0
-922 -1473 1546 0
-1237 -1247 -1609 0
1313 -1365 -1660 0
1519 -1560 -1676 0
-1047 1103 1645 0
-1194 -1386 1676 0
-1038 -1228 1462 0
-1213 -1327 1453 0
-1138 -1273 -1600 0
1104 1117 -1464 0
-1077 1467 -1574 0
-1109 1288 1369 0
-1368 1408 -1507 0
-1442 1449 -1587 0
1029 -1189 1489 0
1137 1147 1331 0
-1206 -1344 -1371 0
1025 -1330 -1412 0
1094 1451 1477 0
-1024 -1384 1428 0
-1231 -1316 -1505 0
-1190 1653 -1703 0
1214 1427 1539 0
-1208 1258 1322 0
-1100 1132 1546 0
1372 -1381 1622 0
-943 1128 -1660 0
-1087 1115 1672 0
1006 -1427 -1530 0
-1187 1214 -1556 0
-1016 1274 1496 0
-1303 -1367 1398 0
1146 -1416 -1481 0
1157 1601 -1650 0
1095 1576 -1622 0
-1159 -1310 1696 0
916 -1235 1480 0
1354 1557 -1597 0
-965 1442 1577 0
1230 1375 1439 0
1203 -1501 1649 0
-1123 1425 -1513 0
-931 -1021 -1088 0
1114 1369 1410 0
973 1392 1565 0
1116 1187 -1343 0
943 1283 -1662 0
1168 -1264 1549 0
-1296 1326 1367 0
1192 -1278 -1542 0
-1250 -1402 1680 0
930 1138 1485 0
953 -1002 -1226 0
1117 1129 1580 0
1166 1201 1383 0
-1218 -1267 -1595 0
1244 -1258 -1605 0
968 1539 -1674 0
-1228 1346 -1671 0
-1059 -1387 1615 0
1301 -1489 1650 0
1448 -1502 -1709 0
941 -1006 -1663 0
-1202 1385 -1557 0
-1272 -1521 1534 0
-1339 -1477 1698 0
-943 1183 1526 0
1320 -1358 1712 0
-1191 -1576 1635 0
1312 -1542 -1552 0
-1293 -1391 1615 0
-1133 -1207 -1506 0
1047 -1512 -1676 0
-1357 1406 -1479 0
1005 1078 -1183 0
1221 -1259 1650 0
-1253 1309 -1695 0
-1204 -1529 1680 0
1172 -1403 -1620 0
1274 1275 1687 0
-1086 -1346 1704 0
-1116 1119 -1623 0
1000 -1077 1113 0
918 1095 -1329 0
-1049 1143 -1221 0
-1130 1311 1634 0
-1018 -1364 1533 0
-1013 -1045 -1372 0
-1097 1433 -1594 0
-1374 1508 1595 0
-992 -995 -1302 0
-990 1280 1404 0
-984 -1307 -1554 0
-1461 1606 -1680 0
1002 1191 -1348 0
1146 -1256 -1404 0
1195 -1485 1693 0
1352 -1406 1607 0
-1331 1442 1591 0
1049 -1120 1650 0
-1192 -1369 -1607 0
-1036 1126 1195 0
-1098 1365 1555 0
-1030 1674 -1681 0
-971 993 -1525 0
-1356 1393 -1616 0
-1150 -1326 -1335 0
-1065 -1220 -1309 0
-1038 -1339 -1445 0
-1498 1500 1643 0
-1387 1510 1630 0
-1257 1445 1684 0
1405 1439 1567 0
1059 1423 -1703 0
-1186 1267 -1519 0
-1006 -1120 -1426 0
1038 1334 -1520 0
-1233 1235 1517 0
-916 -1151 1260 0
-923 1180 -1397 0
985 1393 -1612 0
-991 -1022 -1459 0
1111 1349 -1361 0
-942 -1193 1239 0
1118 -1264 1383 0
-1302 -1693 -1711 0
981 -1046 1240 0
1345 -1396 -1613 0
1047 1331 -1531 0
1436 -1505 1527 0
1075 -1163 1186 0
1536 -1639 -1707 0
1389 1559 -1580 0
-1130 -1406 1498 0
-941 1023 -1417 0
-1065 -1101 -1363 0
-1381 1474 -1676 0
1257 -1436 -1658 0
-1026 1050 1484 0
1135 -1422 -1539 0
927 1219 -1710 0
1007 1299 -1597 0
-934 -1061 -1642 0
-1173 -1475 -1633 0
1229 -1263 1324 0
-989 1280 1689 0
-1066 -1446 -1646 0
-1116 -1162 -1635 0
-1055 1379 -1512 0
-1028 -1230 1494 0
923 1257 1619 0
1340 -1639 -1710 0
1033 -1058 1543 0
1113 1183 -1445 0
-949 -1327 -1530 0
978 1481 1503 0
1078 1231 -1531 0
1105 -1414 1578 0
-1594 -1654 -1662 0
-1098 1305 1361 0
1247 1285 1621 0
1235 -1265 1292 0
-1101 1140 1340 0
1249 1258 -1315 0
-967 -1238 1418 0
967 -1011 1252 0
-1018 1374 1388 0
-1260 1271 -1499 0
-1370 1622 1647 0
1033 1586 1634 0
1083 -1335 1426 0
-949 958 1616 0
-921 -1363 1428 0
-1036 -1078 1569 0
-970 -1086 1152 0
1040 1052 1389 0
964 1006 -1401 0
932 947 1323 0
-1294 1434 1549 0
-1207 1349 1645 0
-1171 1339 -1568 0
1308 -1502 -1548 0
-1051 -1361 -1664 0
1045 -1350 -1494 0
-1031 1347 1400 0
-1218 -1242 1585 0
1216 1520 -1554 0
-1160 1171 -1601 0
1324 -1613 -1630 0
-1108 1302 1543 0
1417 -1467 1532 0
-1256 -1348 1448 0
1235 -1297 -1697 0
1204 -1250 -1550 0
1193 -1257 -1449 0
1017 -1087 -1233 0
997 1027 1226 0
937 1414 1568 0
1096 1693 1707 0
-1122 1526 1538 0
-939 -1141 1256 0
1014 -1342 1374 0
1316 -1602 -1618 0
955 -1110 1329 0
1347 -1532 -1671 0
-982 1384 -1489 0
1403 -1404 1611 0
-937 -1185 1647 0
-919 -1025 1386 0
956 1298 1618 0
962 -1193 1430 0
1173 -1484 1585 0
-1326 -1412 -1545 0
953 -1045 -1602 0
927 1042 -1669 0
-963 -1064 1334 0
-1185 1189 -1558 0
-932 1091 1158 0
1108 1236 -1563 0
-1165 1307 1440 0
1061 -1561 1705 0
1017 -1137 -1143 0
1491 1517 1692 0
-1118 1641 1669 0
-987 -1417 1551 0
-930 1442 -1456 0
-995 1052 -1198 0
-924 1051 1220 0
1103 1401 -1689 0
-1203 -1241 -1600 0
-1414 1472 -1541 0
987 -1001 -1299 0
-1098 -1349 1571 0
-1104 -1318 1613 0
-934 -1406 -1480 0
1267 1303 1663 0
-1285 1531 -1623 0
-1174 -1566 1636 0
975 -1460 1706 0
1153 -1181 -1236 0
-1055 -1383 1659 0
-1055 1313 -1372 0
-992 -1299 1408 0
1098 1132 1321 0
1065 1292 1413 0
1065 1076 1349 0
-1017 -1322 1349 0
-1212 1265 1491 0
1516 -1599 1618 0
-939 1323 -1682 0
-971 -1002 -1223 0
1022 -1268 1334 0
930 -1403 -1545 0
1021 1058 -1617 0
-979 -1273 1432 0
979 -1439 -1638 0
1156 -1240 1676 0
1115 1117 1600 0
1360 1628 1649 0
919 947 1522 0
-1131 1191 -1480 0
-1404 1410 1430 0
1057 1336 1580 0
1148 1368 -1581 0
1499 1557 -1670 0
1090 -1352 -1692 0
-1435 1480 -1713 0
-1049 -1648 -1662 0
1445 1580 -1634 0
-1159 -1200 -1310 0
-1180 1437 -1530 0
1263 -1307 1470 0
998 1382 1403 0
1020 1193 1620 0
1279 -1458 1665 0
-1186 -1206 -1576 0
1012 1405 1549 0
-1003 1314 -1537 0
1025 1156 -1345 0
-1236 1260 1543 0
1212 -1218 -1355 0
1002 -1110 -1192 0
-1345 -1504 -1533 0
-922 1532 1672 0
1210 1556 -1678 0
-954 -1127 1268 0
-956 1062 -1299 0
992 -1212 -1433 0
1241 1374 1552 0
942 1014 -1042 0
-1179 1357 1510 0
1393 -1449 -1643 0
-1038 1226 -1290 0
-1348 -1490 1651 0
-1101 -1199 1317 0
-950 -1139 -1501 0
-978 -1447 -1514 0
-921 -1310 -1691 0
986 1512 -1639 0
1041 -1247 1256 0
-919 1217 1440 0
-1092 1314 -1436 0
1016 1034 1692 0
-982 1061 1338 0
-1432 -1471 1668 0
-1251 -1690 1692 0
-1142 -1403 -1574 0
1415 1486 -1703 0
-1101 1369 1462 0
-1045 1160 1403 0
-919 -1016 1183 0
933 1060 -1310 0
-1124 -1536 -1694 0
-1193 1212 1295 0
1055 -1262 1579 0
-1127 1225 -1531 0
-1171 -1547 1686 0
-966 1322 -1499 0
942 1256 1621 0
1138 -1305 1468 0
916 982 1620 0
-937 -951 1121 0
1091 1461 -1571 0
-1263 -1276 1678 0
-1123 1444 -1560 0
-1022 1114 1189 0
-991 -1254 -1492 0
1241 -1242 1652 0
1002 -1150 -1615 0
1360 -1517 1709 0
-1246 1652 -1712 0
-1151 1182 1570 0
-1309 1348 1388 0
964 1112 -1220 0
987 -1424 -1660 0
1004 -1267 -1449 0
-940 -967 1158 0
1214 -1470 -1658 0
1093 -1536 -1579 0
1259 -1377 1647 0
949 1267 -1422 0
-1086 -1230 -1241 0
-1251 -1609 1645 0
-1132 1302 -1625 0
970 1172 1305 0
1219 1245 -1458 0
928 -1303 -1461 0
941 -1116 1668 0
-1044 -1127 1487 0
1195 1367 1533 0
1378 -1482 -1662 0
1228 1352 1697 0
-1231 -1401 -1465 0
1203 -1328 1493 0
-965 1126 1591 0
-1024 1538 1694 0
-1040 1074 -1586 0
1543 -1665 -1696 0
1204 -1277 1476 0
-1246 1373 1624 0
963 1004 -1330 0
-1147 1274 -1584 0
1172 1648 1695 0
1268 -1402 1501 0
-983 1447 1639 0
1022 1307 -1366 0
-920 -1288 1311 0
-1051 -1151 1688 0
-1007 1085 -1210 0
1071 1091 -1407 0
1214 1468 -1615 0
952 993 1586 0
-988 -1152 1572 0
991 -1314 -1385 0
-1277 1308 1410 0
1165 -1335 1671 0
974 -1382 1578 0
1286 1365 -1584 0
1235 1346 -1538 0
-1141 -1299 -1652 0
1198 -1398 -1682 0
938 -969 -1607 0
-1122 1492 1571 0
1166 1213 1235 0
1202 -1610 -1665 0
-1000 1070 1637 0
984 1272 -1657 0
1186 -1201 1601 0
-995 -1518 1579 0
1236 1525 -1553 0
999 -1069 1179 0
-1228 -1358 1424 0
-1111 1254 1623 0
1137 -1246 1570 0
1182 -1188 -1598 0
-1204 1374 -1681 0
953 -1549 1668 0
1364 1535 1655 0
1014 -1068 -1359 0
-1026 -1296 -1347 0
-1077 1402 1580 0
1100 -1211 1515 0
1003 1025 -1267 0
948 -1042 1501 0
1137 1152 -1488 0
-1050 -1382 1431 0
-1177 -1363 -1580 0
1158 1223 -1484 0
1333 1349 1521 0
-1312 1422 1581 0
1100 1194 -1217 0
-1056 1191 -1561 0
1095 -1238 1283 0
-920 928 1200 0
-1172 1674 1690 0
1227 -1280 -1285 0
-1431 -1457 1693 0
-1406 -1419 1702 0
-1478 1530 -1642 0
-1150 1263 1591 0
1006 -1138 -1172 0
-1192 -1577 -1623 0
-938 1275 1642 0
968 -1091 -1613 0
-1278 -1488 1624 0
-1258 1366 1424 0
1078 1544 1669 0
1180 -1245 -1685 0
1307 1493 -1573 0
-1105 -1422 -1549 0
