c Phase 3 random 3-SAT negative control
c seed=51027
c ratio=4.26
c variant=uniform
c expected=TO_VALIDATE
p cnf 150 639
-92 -105 128 0
21 64 123 0
-68 -85 129 0
-4 -24 105 0
8 58 -104 0
-54 -96 104 0
-35 51 -114 0
-11 -77 -99 0
75 -86 -143 0
97 -123 141 0
40 -58 -94 0
83 -136 147 0
-64 -119 -126 0
63 69 -102 0
-4 -27 -65 0
81 -115 -140 0
-39 45 72 0
-8 66 -70 0
-72 -101 120 0
-1 -75 -88 0
39 -40 78 0
-16 71 -80 0
-8 87 118 0
-13 122 -124 0
3 -72 73 0
-6 -103 -131 0
4 -71 -89 0
-4 84 -108 0
-73 -101 -131 0
29 49 51 0
53 -64 -137 0
-121 -129 -144 0
57 -65 74 0
48 53 -67 0
-17 136 148 0
32 68 119 0
70 106 130 0
-66 -110 148 0
74 -133 135 0
-78 -98 -129 0
-3 -73 89 0
73 -79 -124 0
-5 26 74 0
13 70 -150 0
29 -40 57 0
9 -42 -98 0
-45 -88 91 0
-109 -123 -143 0
-42 52 -93 0
11 49 -79 0
-58 -60 -145 0
-51 72 93 0
84 120 -144 0
-13 -17 -49 0
6 -38 -82 0
-23 26 -71 0
54 -67 91 0
-8 -71 -136 0
4 -66 -147 0
-40 75 83 0
51 81 -94 0
-10 -50 -102 0
30 88 126 0
-62 72 150 0
-30 -82 94 0
20 72 73 0
94 102 123 0
-10 -90 -92 0
25 -116 141 0
-34 97 -124 0
-46 125 128 0
55 -85 88 0
-15 95 -111 0
-74 96 -107 0
25 36 -108 0
5 20 -91 0
50 79 -80 0
3 76 -127 0
-72 -131 -148 0
-36 47 -85 0
33 83 149 0
-17 -27 49 0
-74 139 -142 0
-40 -64 80 0
-23 -63 91 0
-8 -42 -69 0
20 -66 -131 0
-1 61 -131 0
27 105 113 0
-4 -76 -87 0
-83 84 147 0
45 94 120 0
-132 140 -145 0
44 -101 134 0
-51 -112 -150 0
-58 -73 103 0
-43 106 -140 0
91 -137 149 0
-1 -20 97 0
21 -43 -47 0
64 75 -121 0
-15 58 120 0
16 -25 -91 0
-20 -73 101 0
-66 74 141 0
-32 100 108 0
25 128 134 0
-36 -59 -108 0
13 -30 -148 0
43 -93 -139 0
3 5 77 0
8 61 -62 0
51 -88 -150 0
13 113 -127 0
-18 -40 -56 0
-28 -34 93 0
-55 -58 71 0
25 114 125 0
32 53 -63 0
-34 -46 -59 0
1 -31 131 0
-24 56 80 0
-75 110 -133 0
-19 -28 119 0
23 77 146 0
36 48 -136 0
4 38 -150 0
8 -53 -101 0
35 -97 -99 0
-8 -39 52 0
29 88 -105 0
9 -25 -87 0
-5 25 42 0
-3 37 -44 0
60 66 122 0
128 130 -141 0
-31 44 150 0
-40 122 -134 0
-31 120 130 0
-2 3 132 0
-11 58 -61 0
-21 -23 81 0
-36 -70 -127 0
94 102 128 0
-47 -76 83 0
11 20 -27 0
19 60 -81 0
-4 -92 145 0
17 -63 82 0
85 135 -140 0
-106 -133 140 0
56 131 -133 0
25 28 -101 0
-4 86 -94 0
-5 77 -132 0
35 77 -85 0
-11 27 73 0
93 113 -140 0
70 88 146 0
-76 -95 -111 0
-39 -141 145 0
31 59 129 0
101 102 129 0
-22 61 91 0
-92 113 124 0
-22 42 117 0
-20 -36 99 0
41 69 -91 0
-29 -103 120 0
-62 -96 -109 0
16 94 -99 0
-5 132 144 0
15 -29 -44 0
4 -88 -133 0
60 126 -139 0
10 19 47 0
47 71 103 0
-2 -8 -33 0
-12 115 -126 0
34 -55 -97 0
-117 -127 142 0
-115 -117 143 0
-81 -89 -118 0
75 -103 -136 0
-68 -69 78 0
-95 -103 -150 0
44 -49 -150 0
58 -80 -82 0
9 -31 135 0
3 -112 -116 0
-37 -118 124 0
20 34 44 0
-21 -65 -103 0
-81 121 125 0
-19 -26 98 0
-47 -86 95 0
-104 -120 127 0
20 -21 -127 0
-10 43 -137 0
-66 101 -133 0
29 -117 134 0
-40 71 120 0
9 -127 148 0
1 -64 142 0
3 85 -93 0
9 -115 131 0
3 -74 -103 0
18 101 -120 0
41 73 -87 0
-52 80 -96 0
21 80 127 0
-50 -71 -86 0
31 67 -69 0
-62 67 -94 0
-70 -112 -132 0
-15 115 -122 0
91 -98 133 0
15 -30 93 0
11 14 -92 0
94 118 -124 0
40 54 -84 0
32 -73 -97 0
-80 -96 106 0
24 74 146 0
85 108 -149 0
-21 -89 150 0
-71 -80 116 0
-37 124 132 0
37 52 -82 0
-54 -101 136 0
-40 -62 97 0
58 -64 -124 0
5 68 137 0
3 -11 89 0
-61 86 -94 0
-74 -104 -131 0
-38 65 108 0
68 -118 -138 0
17 131 134 0
-63 -91 98 0
26 -30 -119 0
55 108 -146 0
5 -98 106 0
19 -44 99 0
-24 -29 30 0
94 -108 -135 0
-76 115 150 0
-1 98 -123 0
64 85 -98 0
-50 105 137 0
-52 80 143 0
46 -117 -118 0
-69 -95 112 0
75 96 -119 0
-10 -12 -37 0
31 40 147 0
-18 -90 -114 0
-19 -129 142 0
-26 27 -60 0
36 -52 -70 0
-10 -31 36 0
-10 11 -149 0
5 40 -93 0
-11 35 70 0
42 -131 141 0
85 97 -115 0
-56 -97 149 0
-15 -24 63 0
35 -57 146 0
20 107 -130 0
93 -106 115 0
-31 -42 74 0
57 87 -132 0
-75 -78 89 0
-3 21 125 0
24 90 -130 0
14 -72 -102 0
-51 104 129 0
-56 69 88 0
42 -136 146 0
-38 -47 -99 0
100 108 -138 0
11 -49 -148 0
-9 69 146 0
15 29 31 0
21 -71 -142 0
-30 90 -107 0
-78 -131 144 0
36 -46 -111 0
-120 -132 135 0
-10 -89 135 0
20 -44 79 0
-96 -123 146 0
6 -27 -110 0
51 68 127 0
-10 -143 149 0
1 -27 -78 0
73 137 147 0
-68 -98 103 0
90 108 142 0
-56 -68 136 0
96 -131 134 0
-12 69 90 0
-30 -48 74 0
6 -64 -105 0
9 -35 -146 0
-77 -87 -124 0
-13 46 -130 0
-37 44 -109 0
-92 -103 106 0
51 56 75 0
29 -76 -105 0
30 -76 -149 0
-6 113 -124 0
-7 -70 126 0
29 -40 87 0
97 99 133 0
-13 -108 -136 0
-17 -35 60 0
64 107 -136 0
-58 72 -133 0
69 124 -150 0
6 87 -105 0
1 -92 117 0
20 37 94 0
-62 -117 -132 0
87 -112 -148 0
44 -56 125 0
10 46 138 0
-18 103 -122 0
-42 56 82 0
2 -41 144 0
62 -135 -140 0
34 50 58 0
-87 105 125 0
38 -45 67 0
-5 60 120 0
-28 -72 -148 0
-9 -26 -81 0
-8 35 124 0
45 -46 -89 0
26 -57 -119 0
30 -102 -132 0
30 -106 133 0
-64 80 100 0
-109 127 132 0
11 -129 132 0
-57 101 131 0
34 -77 105 0
71 128 132 0
48 -116 127 0
79 81 -111 0
-78 98 -124 0
-48 95 109 0
14 24 133 0
-19 -49 -115 0
-14 -40 131 0
-76 -113 146 0
-29 -46 78 0
-37 40 134 0
-3 -125 146 0
-9 13 39 0
21 23 -105 0
30 -34 -144 0
-39 77 98 0
42 43 75 0
43 -143 150 0
6 48 95 0
22 31 -99 0
-62 -121 -147 0
-85 -108 142 0
-26 -28 44 0
64 -133 -145 0
38 104 132 0
-21 57 82 0
-78 86 114 0
-37 44 94 0
21 -80 -130 0
17 95 -129 0
10 -31 -137 0
-84 114 147 0
56 -64 -77 0
2 53 137 0
-8 28 39 0
88 -102 139 0
-20 -22 -35 0
-1 -98 -116 0
37 39 70 0
3 12 -45 0
-89 106 123 0
-44 77 134 0
-21 53 -64 0
80 104 -150 0
-57 106 -128 0
28 -110 123 0
-17 27 67 0
25 -30 -142 0
-16 -56 -68 0
2 42 109 0
-9 -48 118 0
-5 28 119 0
69 144 150 0
-57 -120 -124 0
45 67 72 0
-24 63 -143 0
-50 -107 109 0
-36 131 142 0
-42 -91 -145 0
-24 -48 -112 0
76 99 105 0
-32 143 144 0
23 32 116 0
-16 96 107 0
-41 109 145 0
-44 54 116 0
-11 91 -92 0
53 114 -127 0
17 40 -140 0
-17 -38 55 0
-70 129 -134 0
41 -76 89 0
77 -85 100 0
-53 -59 -95 0
-30 96 -100 0
91 -130 -132 0
69 -115 -138 0
78 93 139 0
-25 -62 -63 0
72 -82 -100 0
51 123 -132 0
25 -49 -125 0
44 55 64 0
61 -92 100 0
-13 -57 -144 0
51 76 136 0
44 -135 147 0
-46 59 111 0
-43 -57 -132 0
-69 75 -97 0
-6 19 41 0
20 28 -104 0
19 76 140 0
-71 -87 -118 0
20 -38 89 0
61 84 100 0
35 46 59 0
-13 -111 127 0
74 -121 135 0
4 -68 -88 0
-62 -72 -99 0
7 10 -33 0
-11 -39 132 0
18 22 -116 0
17 95 -140 0
55 85 126 0
9 10 142 0
15 -53 -150 0
83 -146 149 0
-63 73 132 0
95 96 -108 0
24 -41 124 0
-111 120 123 0
55 -96 98 0
-9 34 -120 0
-27 111 -121 0
-21 106 -149 0
-24 -86 140 0
50 63 131 0
13 46 -130 0
102 103 143 0
14 -52 -144 0
-4 -78 -111 0
-3 -124 -149 0
-62 -107 -111 0
-81 -103 -138 0
34 53 91 0
7 -57 143 0
-44 86 -111 0
-21 -116 -125 0
-80 105 146 0
-32 45 -143 0
-5 -27 -60 0
-65 75 -129 0
65 69 -106 0
16 34 148 0
-35 51 115 0
-44 -45 107 0
40 71 83 0
-25 -73 127 0
10 79 136 0
13 99 124 0
24 -55 -91 0
-64 78 -130 0
-52 89 -97 0
49 119 142 0
-17 -116 -126 0
15 86 143 0
47 -82 -146 0
-63 138 -140 0
-45 -143 -144 0
-18 -79 -149 0
16 114 -139 0
81 -88 94 0
49 -63 108 0
-13 90 -132 0
12 45 131 0
21 109 113 0
24 76 -94 0
-88 109 115 0
8 67 128 0
-33 -117 132 0
-15 27 63 0
52 134 146 0
19 -107 110 0
-53 -61 -82 0
45 -83 97 0
80 -112 143 0
-28 118 -150 0
11 -29 -66 0
2 34 91 0
-27 -79 132 0
-13 -116 -140 0
16 -93 -123 0
74 113 -143 0
61 -95 -121 0
61 -89 -135 0
18 60 -98 0
-21 -26 117 0
-5 -87 130 0
22 -82 90 0
98 147 149 0
-70 136 139 0
-52 112 140 0
-58 -63 119 0
-70 103 125 0
43 89 129 0
-50 -63 -81 0
-29 -34 91 0
-17 44 101 0
58 -95 -144 0
42 44 -67 0
79 -86 -135 0
-22 27 101 0
33 61 -150 0
-83 -87 -150 0
-7 34 46 0
4 -52 89 0
25 -86 -141 0
9 -25 94 0
-11 -33 90 0
19 -63 -103 0
33 -57 97 0
-16 -110 -127 0
-7 29 -102 0
-71 -122 148 0
26 68 -141 0
-41 -97 110 0
-33 44 -75 0
-26 44 134 0
55 86 -95 0
60 94 95 0
1 -3 122 0
19 125 -147 0
3 -132 138 0
-49 -96 138 0
29 -111 130 0
-44 89 -148 0
-51 -53 102 0
39 112 -121 0
11 61 98 0
87 -90 -94 0
-63 -89 -125 0
18 58 101 0
3 -54 -126 0
4 55 128 0
6 80 136 0
-80 82 -121 0
-43 74 -75 0
77 112 139 0
-111 -115 -130 0
8 -85 -92 0
-30 58 -143 0
-24 86 -127 0
-23 35 -118 0
-122 124 -129 0
-23 -28 97 0
-23 52 105 0
-24 -64 126 0
8 -61 127 0
-53 57 107 0
30 -41 150 0
-67 112 127 0
129 -140 145 0
46 -105 125 0
-41 135 -144 0
52 104 105 0
-48 147 -150 0
-25 -52 -136 0
81 -115 143 0
-12 -38 142 0
-43 -50 86 0
82 92 -141 0
23 -98 100 0
-86 95 -124 0
29 -81 -113 0
98 106 117 0
39 106 -147 0
-13 124 132 0
126 133 143 0
-62 -83 101 0
68 113 -149 0
41 110 111 0
-79 102 117 0
14 -52 136 0
-56 147 -150 0
30 -39 -143 0
-36 43 103 0
21 59 -96 0
-8 59 110 0
-107 -145 147 0
9 -13 20 0
-26 -40 48 0
87 -89 137 0
3 -45 112 0
105 -110 -140 0
-26 -93 -116 0
-27 75 -124 0
-68 -129 -142 0
-16 78 145 0
27 39 58 0
64 -121 123 0
-10 54 88 0
-45 -53 -133 0
10 37 114 0
22 27 103 0
11 102 150 0
69 -138 148 0
59 95 -127 0
61 -107 -135 0
