c Phase 3 random 3-SAT negative control
c seed=51028
c ratio=4.26
c variant=uniform
c expected=TO_VALIDATE
p cnf 400 1704
-56 262 339 0
179 273 317 0
-137 148 378 0
214 246 -327 0
-166 -276 -398 0
37 169 -302 0
-164 -169 -397 0
199 -342 378 0
64 -125 358 0
-10 -48 -206 0
41 -65 183 0
-22 -167 -214 0
-180 -290 361 0
-113 -318 -396 0
89 -325 373 0
-44 -96 209 0
-232 333 -343 0
86 -169 276 0
-49 259 -362 0
87 314 394 0
-48 -103 -327 0
158 258 352 0
87 109 324 0
21 305 -309 0
171 267 -268 0
96 265 356 0
-122 -286 -339 0
-323 353 393 0
242 -250 -341 0
-116 -219 -234 0
240 319 -326 0
188 213 -341 0
32 -290 -351 0
-93 234 -282 0
-79 -120 350 0
-33 -55 -202 0
36 70 258 0
100 243 -272 0
-34 281 361 0
-42 117 260 0
-38 -67 120 0
-24 -181 232 0
59 62 -132 0
68 306 310 0
178 242 358 0
-30 205 228 0
-57 -132 246 0
-79 -278 320 0
43 327 356 0
85 265 321 0
155 -197 -321 0
76 211 -351 0
92 239 -334 0
233 -246 -303 0
-103 -246 -311 0
-124 -247 349 0
-6 -193 325 0
93 -126 341 0
-95 157 231 0
-34 -204 -318 0
-167 -247 386 0
-112 -227 -370 0
93 -128 166 0
-119 223 319 0
26 134 329 0
-69 -236 -330 0
-139 -247 -322 0
-211 362 -396 0
119 303 -400 0
-91 -261 315 0
8 176 328 0
-120 -208 -368 0
-76 153 348 0
1 192 -287 0
-187 191 229 0
202 240 362 0
140 -233 -280 0
62 -244 297 0
27 -43 247 0
-34 180 -181 0
33 -86 -141 0
108 -150 -321 0
-120 134 -233 0
61 274 368 0
-50 -202 -329 0
48 -66 184 0
-237 -369 372 0
20 -21 -183 0
219 -238 -340 0
-25 211 245 0
-236 245 -388 0
-159 226 396 0
44 -65 -329 0
-45 -217 309 0
82 -170 -184 0
-68 -231 232 0
-44 -158 -372 0
-102 290 377 0
-40 115 258 0
33 154 337 0
-68 -268 -281 0
132 -266 386 0
267 275 277 0
40 -52 -293 0
-55 -70 324 0
318 -333 -379 0
19 50 233 0
-245 -328 399 0
76 195 -398 0
-3 -31 38 0
-351 -375 -376 0
35 140 -323 0
-114 284 -299 0
144 166 -258 0
63 -114 -128 0
47 -123 -279 0
-232 -237 -327 0
-38 -150 -159 0
-37 122 378 0
-1 -342 -378 0
-70 107 334 0
21 122 190 0
-78 -250 273 0
170 286 329 0
230 -345 365 0
-55 343 400 0
-41 139 380 0
-141 233 340 0
205 305 -328 0
-1 17 21 0
299 309 314 0
86 100 -217 0
-109 227 381 0
63 392 -398 0
138 -252 277 0
-145 -296 -359 0
-67 -308 334 0
143 203 380 0
221 -266 383 0
-231 -233 -314 0
100 -237 270 0
124 -237 269 0
83 -193 225 0
-332 -341 362 0
-158 -184 279 0
-3 -49 216 0
-17 306 309 0
141 -142 -337 0
-22 46 -329 0
-15 -114 381 0
-157 -378 -396 0
-117 140 328 0
174 -255 323 0
9 101 -159 0
76 -180 276 0
-5 287 -296 0
-184 245 -399 0
129 -284 -378 0
-69 -246 -268 0
-91 -269 387 0
-26 264 352 0
8 -75 -288 0
84 311 -331 0
35 189 -289 0
293 -322 -394 0
153 191 -297 0
-57 109 -195 0
-1 -68 -157 0
61 183 -267 0
-266 353 394 0
-155 -359 390 0
63 -95 210 0
-191 307 -349 0
-178 215 384 0
157 182 264 0
-182 251 -383 0
-90 -278 327 0
-44 49 -303 0
-73 -166 -354 0
-38 -243 -372 0
-235 326 -393 0
-5 212 -327 0
49 58 76 0
-157 183 -267 0
87 -200 -266 0
244 281 -334 0
-87 191 -248 0
37 -167 -397 0
-22 -206 250 0
99 -162 -244 0
-130 198 -300 0
35 236 -282 0
-123 -128 302 0
-187 -334 -343 0
-177 -201 337 0
-30 -211 -358 0
121 158 -379 0
-69 233 -324 0
15 149 161 0
-83 322 342 0
-184 -291 384 0
-8 176 394 0
-40 78 347 0
-62 -72 172 0
-312 -380 385 0
-37 -265 -360 0
-79 294 -395 0
112 332 400 0
-173 -320 346 0
51 -269 -327 0
-157 -248 -328 0
142 -214 -254 0
38 -355 -356 0
31 218 -270 0
-32 192 266 0
154 -302 321 0
144 240 333 0
268 271 -362 0
-32 77 241 0
-48 77 -281 0
-176 -255 341 0
-36 79 173 0
-86 252 -270 0
-71 216 327 0
99 -113 -145 0
-60 116 242 0
250 291 389 0
-6 169 -355 0
-3 129 -186 0
11 -131 359 0
-56 115 -168 0
2 -129 -257 0
40 -170 270 0
75 -145 356 0
-146 289 351 0
47 -91 195 0
211 332 -366 0
18 79 394 0
188 -300 391 0
290 -378 -383 0
-40 158 -172 0
-138 -253 -315 0
177 197 212 0
-21 173 300 0
-1 -47 -368 0
-33 132 231 0
5 -313 -375 0
-6 -277 -358 0
-257 268 400 0
-90 -299 -322 0
-62 68 -247 0
57 -167 382 0
-128 -245 -328 0
36 79 273 0
-200 -346 -348 0
27 -236 322 0
-51 68 346 0
32 -201 -355 0
-161 -193 327 0
-102 -333 -369 0
21 -46 -98 0
65 -132 -309 0
53 -152 -248 0
-12 -27 -356 0
35 300 325 0
-78 -298 321 0
122 -147 -296 0
-48 -110 -313 0
-115 -262 -290 0
37 229 -252 0
88 248 296 0
99 209 -385 0
-105 113 217 0
19 -127 -353 0
-228 286 295 0
-76 -127 -389 0
-145 197 -339 0
-184 -301 -307 0
80 140 226 0
133 283 -331 0
-52 -83 -183 0
-43 230 312 0
-52 -322 -352 0
49 -68 -325 0
91 191 394 0
-112 266 359 0
47 63 -65 0
-32 223 -235 0
-212 -271 -335 0
-183 -187 328 0
24 143 -379 0
76 119 -259 0
-212 301 -305 0
172 191 -321 0
6 87 -293 0
-189 -280 -283 0
147 -294 -370 0
163 -229 399 0
224 -351 357 0
35 156 204 0
152 236 -253 0
69 -199 -200 0
-244 -312 392 0
-68 243 -378 0
-49 295 396 0
67 -203 304 0
-150 -258 349 0
-30 335 -392 0
100 -107 -394 0
140 197 -296 0
-7 -58 -369 0
116 -155 380 0
-151 176 -228 0
-94 325 -350 0
-98 105 -308 0
7 81 220 0
-88 193 -261 0
17 -60 96 0
160 223 326 0
68 -179 -266 0
-25 107 -370 0
173 176 -275 0
20 227 -354 0
-161 -183 368 0
42 105 246 0
24 -285 302 0
111 -165 247 0
-40 -249 272 0
-99 -121 241 0
-111 112 322 0
1 -35 -307 0
6 -185 377 0
-170 -300 -335 0
2 69 288 0
-19 270 307 0
39 224 360 0
80 -83 -196 0
-34 180 -209 0
-1 -62 -151 0
56 -294 -342 0
248 -271 318 0
-41 -354 -372 0
93 168 -292 0
98 -146 187 0
-77 129 368 0
166 266 326 0
99 150 -219 0
93 -330 361 0
124 242 380 0
-21 83 -335 0
88 166 178 0
-28 -125 -329 0
-190 -330 -376 0
180 -236 271 0
196 -314 -366 0
4 -178 -337 0
13 121 355 0
-121 -206 304 0
95 107 -192 0
133 212 -213 0
79 117 -384 0
-200 -224 -266 0
-35 307 318 0
-128 -204 -270 0
-298 365 -384 0
-28 61 -244 0
-138 185 196 0
-156 329 -337 0
-131 199 -330 0
36 -192 -249 0
-163 284 -331 0
-125 -171 -368 0
144 -191 -352 0
-34 233 265 0
-162 194 -295 0
-190 -223 -345 0
144 -258 -297 0
-260 -325 -345 0
-93 215 383 0
-123 -233 -332 0
56 338 -386 0
-79 -112 -299 0
-24 -119 140 0
-43 296 -319 0
57 65 -262 0
-96 148 -198 0
-240 299 308 0
-184 -223 225 0
178 -296 381 0
-61 -95 238 0
28 67 -303 0
-50 -279 347 0
237 269 326 0
-102 -184 265 0
-91 -301 382 0
-230 -299 336 0
59 98 103 0
-42 -272 -301 0
-18 -185 391 0
-72 79 275 0
20 301 348 0
106 -275 -373 0
-7 -101 -350 0
69 245 255 0
-61 -283 -333 0
-38 63 219 0
130 186 -247 0
25 127 -217 0
-52 -235 397 0
-43 -116 280 0
6 222 234 0
46 59 321 0
105 276 -323 0
-43 -57 177 0
10 -260 -268 0
-3 168 179 0
-30 -220 -264 0
3 271 277 0
17 -161 -235 0
-55 -75 -292 0
-31 201 259 0
106 257 344 0
-16 -140 -166 0
-172 -174 301 0
75 192 -237 0
-56 -288 349 0
52 -89 -216 0
-195 199 -320 0
148 198 -310 0
-32 -293 309 0
-53 294 382 0
135 -195 199 0
112 299 -387 0
-72 235 261 0
271 309 342 0
37 149 324 0
143 224 354 0
47 69 -374 0
94 -108 228 0
220 255 -272 0
248 304 -342 0
252 -286 308 0
-19 -242 262 0
-104 222 248 0
27 -76 -351 0
75 -255 -318 0
187 244 -299 0
-65 -311 -353 0
-147 -289 384 0
-132 316 375 0
26 -354 -370 0
30 286 386 0
130 -150 304 0
-36 60 235 0
-97 -267 400 0
-5 -293 365 0
-87 215 296 0
-69 186 280 0
-43 -300 -328 0
186 281 -349 0
54 -149 395 0
-107 248 -325 0
86 -110 243 0
-17 19 -29 0
-251 348 -355 0
161 188 -342 0
65 -101 -388 0
81 -85 235 0
-18 -179 399 0
96 -122 163 0
-186 -306 -367 0
-33 -53 77 0
-30 199 -216 0
-101 -220 238 0
-94 154 192 0
100 295 384 0
82 106 -141 0
16 -111 317 0
-189 -229 -385 0
-54 290 -368 0
-2 351 -352 0
-7 -194 -294 0
-118 -278 316 0
-121 134 180 0
69 222 -388 0
40 -202 -350 0
308 321 369 0
-20 -83 378 0
186 -222 356 0
37 -59 161 0
-12 78 -201 0
26 -124 182 0
80 -109 -386 0
250 -291 352 0
-94 126 -360 0
-43 104 329 0
-200 -311 342 0
-181 331 -396 0
35 -87 -186 0
-11 79 382 0
89 195 -256 0
35 79 259 0
-254 -300 -373 0
136 -162 -287 0
195 339 363 0
57 -79 -307 0
-87 -147 -182 0
-9 -51 -147 0
83 -89 -149 0
-29 166 -280 0
-175 197 -390 0
59 244 282 0
-39 89 -391 0
141 -246 -371 0
-16 252 -304 0
62 -64 -87 0
122 -280 335 0
-17 -180 -262 0
319 321 -397 0
109 157 168 0
-19 -169 -312 0
225 232 -281 0
-251 281 -294 0
-31 112 -208 0
-60 126 -294 0
-115 248 322 0
111 172 -285 0
34 203 390 0
180 207 -219 0
117 -176 239 0
84 -330 -385 0
-16 -161 237 0
81 -192 205 0
84 100 134 0
108 -151 271 0
229 -298 397 0
39 -116 -356 0
-150 307 350 0
12 286 303 0
-30 69 348 0
251 -288 -289 0
-50 300 -363 0
-185 318 385 0
21 -79 -232 0
-29 224 281 0
-183 -279 354 0
106 180 -380 0
12 -206 233 0
-179 186 222 0
38 85 -130 0
3 187 -324 0
-37 -128 -179 0
92 -124 379 0
116 190 390 0
-20 -138 -333 0
5 188 -303 0
-90 332 362 0
-15 -140 365 0
-41 76 -300 0
109 -159 374 0
95 -272 340 0
-110 -196 350 0
-87 -94 -335 0
17 226 293 0
94 211 248 0
-209 -286 336 0
182 -183 392 0
-175 -240 -272 0
149 -298 -356 0
-188 342 -363 0
-17 -200 247 0
214 301 -306 0
155 -165 -399 0
105 -335 -369 0
-29 -168 356 0
118 323 357 0
70 135 -345 0
-234 254 -257 0
-65 -107 -263 0
-21 -116 -167 0
-201 386 398 0
199 -201 259 0
-257 292 -341 0
93 -120 -177 0
232 250 356 0
93 94 -209 0
-84 -198 347 0
41 187 -325 0
-79 218 -331 0
65 -286 348 0
33 248 391 0
-98 -338 351 0
131 -186 198 0
-10 76 -273 0
-99 -269 284 0
82 208 304 0
187 -204 -272 0
-93 -284 370 0
-61 -281 -351 0
-190 231 340 0
-287 -305 -387 0
134 236 285 0
46 -134 285 0
-189 224 -354 0
191 214 228 0
303 -347 352 0
-40 198 274 0
-57 79 -266 0
-56 215 345 0
-88 178 375 0
4 -261 318 0
38 186 -327 0
-103 110 387 0
25 140 -367 0
8 36 -271 0
-131 -204 323 0
53 262 -289 0
197 -220 334 0
47 76 -351 0
76 -174 390 0
49 -198 323 0
72 -192 300 0
-80 -280 -400 0
-154 -173 -400 0
-28 -131 -352 0
27 -98 118 0
-341 -343 374 0
208 215 -371 0
-154 -264 299 0
-33 272 360 0
-206 -243 362 0
-196 291 333 0
12 -134 285 0
66 326 340 0
-268 282 377 0
18 199 241 0
18 194 304 0
277 311 -331 0
111 260 -277 0
-53 -103 190 0
-24 59 -113 0
-8 -148 -318 0
-164 309 -376 0
-161 168 -205 0
59 -189 222 0
24 161 -271 0
-164 333 -381 0
-8 115 -139 0
13 365 -375 0
-82 -137 -340 0
-95 277 -351 0
78 101 -200 0
-185 213 -295 0
216 -286 316 0
244 -261 271 0
-40 100 -358 0
-155 -215 262 0
73 258 355 0
-135 -193 354 0
-54 -200 -380 0
-102 104 255 0
-170 180 197 0
-157 -176 -212 0
31 -127 304 0
-6 18 278 0
-28 233 -263 0
69 -248 342 0
-58 -383 -385 0
-90 114 -400 0
76 209 259 0
-10 265 -397 0
-252 374 390 0
-97 -107 382 0
131 -146 -313 0
38 185 -348 0
125 -259 281 0
-9 -163 -325 0
-154 247 330 0
-179 -216 -219 0
-62 -164 -229 0
-205 -255 386 0
27 168 -259 0
9 243 -306 0
104 -141 -213 0
62 -187 329 0
48 239 -319 0
-53 -167 223 0
125 195 -303 0
-38 -63 -153 0
140 -297 -339 0
-13 265 -296 0
-71 -76 159 0
265 267 -341 0
-76 -136 -182 0
-13 157 180 0
-156 209 340 0
-117 183 221 0
-144 -239 274 0
14 -22 110 0
-81 237 -279 0
94 -263 -352 0
157 188 360 0
-57 96 -377 0
230 -308 -343 0
-174 321 371 0
-130 -134 -309 0
63 110 -142 0
-241 -306 -387 0
-55 -229 273 0
-107 116 -353 0
36 259 311 0
43 69 182 0
136 347 378 0
24 -32 172 0
17 157 164 0
91 277 350 0
185 -246 376 0
-184 -280 361 0
254 281 -381 0
-268 276 -306 0
-123 337 380 0
3 162 177 0
49 335 -350 0
140 208 -375 0
-49 180 -264 0
-213 254 -315 0
176 283 373 0
24 -132 329 0
-127 -164 297 0
18 -242 275 0
-203 204 -270 0
49 -144 -246 0
-32 -48 89 0
30 -110 321 0
-75 -147 257 0
250 -254 -396 0
45 204 -336 0
91 147 349 0
-38 -321 394 0
205 -216 -276 0
-243 296 -314 0
42 161 -395 0
-14 138 190 0
135 194 342 0
-58 -68 -206 0
-7 -29 -88 0
214 396 -397 0
-89 223 -398 0
-169 293 -345 0
-144 334 335 0
24 131 -200 0
-24 -344 365 0
-129 241 -393 0
179 181 -191 0
-252 -336 -370 0
-136 -195 243 0
-8 -42 -122 0
-38 90 -139 0
-49 127 137 0
292 344 -394 0
-196 -251 -348 0
-62 90 145 0
-82 98 289 0
-26 246 -357 0
-49 -118 -216 0
-9 -160 243 0
5 -140 -311 0
62 368 -378 0
-112 -219 -392 0
-99 104 -269 0
-11 -207 -221 0
120 -249 -323 0
73 -226 -253 0
-36 -84 -205 0
-76 -324 -337 0
-97 261 -372 0
8 -10 81 0
87 135 183 0
-240 -248 -369 0
-32 -137 364 0
180 -204 353 0
-67 136 270 0
-226 -227 354 0
42 77 -191 0
123 164 -335 0
6 -26 75 0
-232 -273 -341 0
155 -330 -353 0
24 -349 377 0
-38 -170 -209 0
-8 -108 251 0
105 133 -175 0
-40 -84 324 0
240 -249 352 0
302 -326 394 0
-40 -320 -361 0
-123 -147 253 0
-7 55 -234 0
-46 -154 297 0
-11 283 315 0
106 113 289 0
-68 -187 213 0
-72 -80 -117 0
13 -151 -334 0
298 -343 361 0
253 -278 -363 0
34 124 232 0
-22 -229 -250 0
-150 -236 -339 0
-228 -279 -339 0
23 -182 201 0
-179 379 -381 0
25 -71 220 0
-15 -55 244 0
-25 57 -76 0
-44 -72 192 0
94 -196 334 0
204 243 -331 0
-13 -241 -272 0
21 -80 392 0
89 -174 -212 0
89 -243 -359 0
126 -130 -309 0
62 126 196 0
-15 -73 -360 0
62 -259 -306 0
-25 -74 377 0
3 -74 367 0
213 -291 -349 0
-12 -378 383 0
89 -241 299 0
-106 -299 378 0
129 141 -160 0
22 86 -289 0
-175 194 393 0
259 364 371 0
43 -286 -398 0
-47 -175 -267 0
65 230 256 0
-129 -151 308 0
-40 207 366 0
149 -152 275 0
-41 -336 339 0
124 -259 340 0
18 -70 166 0
-178 297 -317 0
36 -278 -397 0
-52 306 396 0
-176 188 -268 0
-20 -75 -85 0
8 161 302 0
125 358 -382 0
10 -97 -152 0
-188 222 -317 0
21 344 361 0
155 -301 371 0
3 171 -352 0
-33 -174 -301 0
-62 -310 376 0
83 298 -319 0
73 -237 264 0
30 -286 -313 0
178 217 -298 0
10 260 -371 0
-75 -310 371 0
201 336 356 0
58 173 -179 0
-89 138 269 0
59 -101 261 0
-117 157 -357 0
8 184 -234 0
34 127 -396 0
-7 386 -399 0
-165 232 -281 0
-103 208 221 0
-105 -184 -354 0
176 203 -312 0
28 167 -177 0
-76 379 -390 0
-68 -316 400 0
161 -195 -269 0
-38 -189 240 0
-202 -208 -368 0
-148 265 336 0
-202 321 -369 0
-14 34 337 0
-61 -149 -375 0
-14 136 -154 0
-36 -173 334 0
-355 368 384 0
-24 -235 241 0
-74 298 333 0
156 328 329 0
60 70 82 0
247 -298 -382 0
9 69 292 0
16 91 -320 0
-220 -240 382 0
-14 264 333 0
70 -279 -300 0
34 -85 -232 0
-2 96 136 0
-12 296 314 0
91 -205 290 0
157 181 -302 0
10 185 -367 0
-78 -154 399 0
98 114 271 0
62 177 197 0
374 390 398 0
-292 299 381 0
230 -353 384 0
288 302 377 0
17 181 216 0
81 91 310 0
28 126 169 0
48 -227 269 0
43 -180 254 0
-56 -267 -315 0
-185 -246 378 0
35 240 -296 0
-201 -336 384 0
-113 287 -311 0
-186 -273 295 0
-21 -70 -375 0
-14 368 -371 0
170 -373 377 0
14 150 -266 0
33 -200 344 0
-256 319 357 0
287 -354 -374 0
12 -32 253 0
-39 -74 -387 0
10 -75 355 0
47 210 -366 0
25 328 -337 0
90 327 395 0
63 -211 -249 0
-236 -261 267 0
86 -157 -183 0
-257 342 370 0
59 -180 -209 0
-84 319 -321 0
267 362 -384 0
88 -167 -329 0
-254 -336 -396 0
293 -332 393 0
-64 -117 239 0
-132 206 -288 0
-3 -112 -141 0
-22 -364 392 0
-206 213 -291 0
-9 -202 -220 0
-104 -175 -342 0
-79 173 -264 0
17 69 -377 0
89 -193 291 0
74 75 296 0
117 141 370 0
50 -200 -397 0
-43 -76 309 0
42 -280 -374 0
-12 203 395 0
-39 -212 -270 0
-48 298 -302 0
-41 -232 276 0
211 -262 275 0
279 297 363 0
-47 -231 -399 0
5 54 -294 0
-22 210 213 0
73 118 -331 0
15 52 259 0
-120 179 -236 0
31 -168 -382 0
61 68 -335 0
-236 -289 -310 0
102 -203 -363 0
4 -117 -170 0
-147 -281 -325 0
-4 66 -259 0
-128 280 372 0
49 -157 365 0
184 186 -209 0
249 302 313 0
-42 -233 387 0
26 61 316 0
-15 -95 266 0
31 -145 316 0
-45 227 314 0
-88 -140 198 0
178 -298 350 0
-198 293 297 0
-98 -262 379 0
-20 113 -332 0
92 202 -350 0
94 -313 -398 0
-120 -157 -348 0
28 133 316 0
121 -192 -304 0
194 -198 271 0
211 -258 268 0
26 106 143 0
64 -185 328 0
-33 -121 -249 0
-42 140 -204 0
154 -184 -348 0
-190 -350 397 0
61 294 -310 0
-61 -198 330 0
54 107 -268 0
-43 79 106 0
-210 263 -364 0
-8 -108 -393 0
-47 159 263 0
-48 -162 357 0
18 -248 -262 0
7 -244 -360 0
-61 212 -274 0
30 164 -360 0
-122 237 -272 0
139 -270 394 0
-68 278 -398 0
-115 -138 -370 0
-150 179 257 0
-104 -269 363 0
-49 -81 -213 0
13 14 83 0
6 90 -326 0
-172 -267 -279 0
-149 182 224 0
116 318 339 0
100 -234 -243 0
-64 -109 222 0
-112 -129 -390 0
103 -138 353 0
34 -165 271 0
-63 153 299 0
-146 320 388 0
22 87 -144 0
99 -118 372 0
37 -104 265 0
13 249 396 0
-95 152 -284 0
-15 -107 -398 0
165 -271 347 0
-51 76 207 0
-83 108 336 0
-252 261 -272 0
-95 -206 283 0
-40 -82 154 0
269 299 306 0
-40 -278 -366 0
-37 193 233 0
104 -172 -373 0
22 -270 -309 0
-252 322 373 0
112 196 363 0
186 -244 -285 0
-4 -56 159 0
-55 -217 228 0
72 -173 -278 0
23 -64 -248 0
62 -112 117 0
130 -266 355 0
77 -299 314 0
-266 -379 -386 0
-94 -115 -256 0
-90 -191 -336 0
-29 294 -350 0
27 337 382 0
-157 -194 -329 0
-30 -139 151 0
134 367 -398 0
23 -109 387 0
154 218 295 0
-166 200 -347 0
-98 305 336 0
4 132 -261 0
52 90 -142 0
40 -53 360 0
-14 -153 353 0
-123 -210 349 0
237 -286 297 0
-212 269 -355 0
247 359 377 0
57 220 -337 0
18 96 -273 0
81 -248 362 0
-42 -231 -388 0
-121 -268 396 0
82 -271 332 0
33 -86 157 0
-28 -187 -343 0
35 82 391 0
-208 339 -375 0
-10 17 166 0
-114 -205 358 0
-75 84 -227 0
30 -188 322 0
255 277 389 0
-41 -59 -171 0
-81 -224 314 0
-38 71 191 0
-22 359 -397 0
-126 -195 397 0
29 -203 370 0
-100 -226 -358 0
-149 249 277 0
-21 -163 -341 0
108 -223 -303 0
2 -60 192 0
-23 153 390 0
-5 294 -328 0
-129 185 263 0
60 -120 -295 0
57 204 272 0
189 220 -234 0
145 -337 396 0
-208 264 381 0
-89 126 312 0
-8 -54 333 0
21 -209 -287 0
-54 95 -378 0
-48 -314 -398 0
219 248 -343 0
165 223 368 0
-1 37 -294 0
22 44 -289 0
4 229 -378 0
163 215 250 0
201 -221 269 0
-31 142 159 0
67 -202 -304 0
27 -155 165 0
181 -219 331 0
37 55 240 0
-128 -143 357 0
-100 -237 387 0
-141 -206 320 0
120 -256 304 0
237 323 364 0
42 -364 -390 0
33 -46 -385 0
10 212 342 0
-166 265 290 0
-21 -315 342 0
-264 -281 -353 0
-233 354 376 0
199 -230 -377 0
-174 -296 -301 0
-189 271 351 0
30 -170 322 0
15 -140 -284 0
7 73 -115 0
-149 -218 336 0
151 -163 361 0
-18 -79 -85 0
54 258 305 0
-177 -253 -345 0
180 -307 -398 0
-142 -167 -361 0
238 374 -391 0
50 155 -294 0
123 266 -268 0
8 97 321 0
13 -189 343 0
168 -243 -331 0
-197 -355 -367 0
-34 -251 356 0
130 -141 228 0
-42 202 345 0
-51 -367 400 0
-61 95 304 0
39 -257 293 0
29 47 242 0
-147 -236 -335 0
147 265 -333 0
163 351 375 0
-26 -298 -359 0
-147 -249 253 0
-66 79 -307 0
-93 -326 -394 0
25 -143 299 0
-118 -159 199 0
74 91 197 0
49 -242 369 0
-68 347 -364 0
-219 -261 282 0
-35 192 -229 0
124 159 388 0
-5 -13 -67 0
35 155 189 0
-207 -281 -340 0
62 270 369 0
-258 -304 -366 0
18 -22 -337 0
89 158 -358 0
36 -262 390 0
100 -144 374 0
98 188 240 0
67 -214 234 0
-93 -187 369 0
48 -273 -284 0
93 171 -267 0
-88 345 -368 0
-20 107 -313 0
84 342 -377 0
42 46 -253 0
240 -288 296 0
-33 75 172 0
214 328 344 0
-12 -279 -315 0
15 230 311 0
1 -17 291 0
54 188 311 0
138 -195 -235 0
-23 -99 -232 0
79 -306 388 0
-289 334 386 0
-124 -266 -376 0
-20 220 -306 0
-18 291 375 0
-56 -201 -359 0
113 172 -185 0
110 315 317 0
-129 184 316 0
-115 -366 -396 0
-126 364 396 0
-28 -343 -353 0
-5 126 208 0
1 -101 -242 0
-85 -267 352 0
17 -74 216 0
281 311 333 0
-190 -252 270 0
21 -175 363 0
30 161 -391 0
-115 238 -356 0
17 330 394 0
-130 -148 -378 0
3 141 157 0
-29 227 -357 0
-14 -124 -220 0
-205 -277 379 0
-170 194 205 0
-171 236 -265 0
-62 -63 356 0
4 293 344 0
118 -136 -293 0
87 144 -166 0
77 260 364 0
182 -247 384 0
-175 -200 -298 0
-16 -131 -307 0
-85 -154 215 0
87 -133 -239 0
43 -176 -197 0
-143 183 351 0
265 -289 323 0
-61 -348 387 0
-34 93 337 0
-45 -62 140 0
-74 163 -335 0
-134 237 -345 0
54 255 -312 0
-7 -39 322 0
153 -348 398 0
226 -261 349 0
-124 -186 200 0
-173 -293 -377 0
102 -347 375 0
-197 212 -387 0
85 -245 -261 0
-77 177 213 0
-26 -51 205 0
-86 149 -230 0
96 102 -154 0
-106 -238 254 0
-6 -87 -126 0
178 356 -362 0
112 155 170 0
132 257 -349 0
-202 -277 -376 0
-171 -187 -308 0
98 247 -292 0
-42 131 135 0
185 188 340 0
-93 -128 -322 0
65 -128 -331 0
-101 107 319 0
-74 -140 -389 0
-121 228 -363 0
22 -180 368 0
-13 28 -161 0
10 -87 -399 0
16 -24 49 0
-175 -212 -298 0
67 275 -291 0
72 -117 -127 0
-190 -280 394 0
-104 -235 -311 0
60 283 -352 0
-153 -190 253 0
249 -254 -360 0
104 -245 293 0
-107 240 290 0
-20 -241 -395 0
-55 104 -218 0
226 -372 -385 0
-17 -173 -296 0
-92 -154 -261 0
22 75 -246 0
-116 117 -218 0
28 -134 176 0
34 147 178 0
76 -318 381 0
-4 68 -371 0
54 -75 245 0
-30 347 -356 0
-87 171 381 0
-3 -192 -302 0
-26 165 -196 0
216 -274 -300 0
-169 265 -286 0
-99 -325 -374 0
6 -148 -156 0
291 -297 377 0
-23 -34 -399 0
139 142 241 0
-189 -352 365 0
242 -326 391 0
141 260 -357 0
-37 310 -369 0
-189 219 352 0
-71 206 -282 0
-57 -233 -244 0
154 -203 -295 0
2 -203 -227 0
64 75 -130 0
-39 51 269 0
-141 -163 -337 0
-155 -177 316 0
-11 59 -60 0
120 -363 -380 0
-255 301 316 0
-21 272 386 0
97 120 -146 0
116 -187 -363 0
103 -106 -170 0
31 130 297 0
172 296 382 0
-214 225 301 0
36 200 -326 0
37 86 -192 0
-157 -176 -375 0
-217 -249 353 0
-212 -380 -395 0
-121 -161 188 0
152 283 320 0
28 276 -394 0
-69 -157 337 0
79 -146 -148 0
5 -43 -98 0
-15 -62 -252 0
26 -175 -218 0
-307 327 332 0
28 -109 302 0
161 236 282 0
-95 -153 307 0
42 -127 -260 0
10 -334 379 0
166 382 398 0
-137 303 375 0
85 -303 357 0
-127 -301 359 0
86 91 320 0
-50 -162 -188 0
213 -235 365 0
-144 182 -204 0
132 145 367 0
24 80 362 0
-65 -110 385 0
-84 -172 324 0
-26 -40 -128 0
234 340 -384 0
279 -301 -323 0
-42 -131 -372 0
191 -205 321 0
-195 -215 -367 0
-209 -217 300 0
-91 -242 -313 0
-30 -95 -101 0
159 -179 -223 0
-45 144 -281 0
-7 -302 380 0
264 365 -400 0
-148 187 -327 0
113 174 204 0
-168 -191 -279 0
-65 112 334 0
39 -81 175 0
-155 258 380 0
-128 -171 307 0
120 -211 255 0
40 -211 -232 0
-235 253 328 0
-42 -368 399 0
103 -229 347 0
62 204 -343 0
211 351 398 0
-108 306 -351 0
-77 -92 395 0
-164 249 -301 0
-68 -82 -150 0
-33 -69 -269 0
30 356 -370 0
316 -343 -378 0
213 239 338 0
200 -287 323 0
88 175 393 0
-95 162 -178 0
-182 -351 362 0
-204 240 267 0
-312 -317 -400 0
-155 157 -350 0
93 230 -399 0
142 143 -348 0
-104 226 264 0
152 -237 -282 0
-146 251 -343 0
135 257 -384 0
140 157 -316 0
168 353 -396 0
-7 -258 340 0
-78 -107 -115 0
151 -177 -180 0
8 -165 -255 0
-214 -343 -352 0
79 177 270 0
123 216 387 0
182 -192 -212 0
-162 -255 -398 0
-89 171 -363 0
89 -239 361 0
126 -219 -346 0
213 -347 359 0
-23 68 -303 0
95 -310 -355 0
41 -90 -272 0
-46 -147 149 0
-40 224 -340 0
-95 -123 372 0
141 -289 -374 0
-19 32 246 0
154 -281 -320 0
7 339 342 0
40 -97 -110 0
100 291 293 0
113 -289 -322 0
192 -251 382 0
186 -220 245 0
-225 -232 -328 0
265 -315 -332 0
-317 -337 -354 0
55 78 -359 0
-133 243 -281 0
73 -294 -339 0
23 -243 -280 0
-6 -203 333 0
-42 286 -314 0
16 29 -338 0
-112 218 -309 0
29 -221 -284 0
21 -32 63 0
40 -44 -271 0
80 -104 171 0
-13 232 315 0
-118 143 -264 0
33 225 -363 0
-1 65 229 0
118 -176 -263 0
96 115 253 0
-332 -348 -388 0
30 -139 -356 0
23 111 -178 0
-208 260 276 0
-105 -338 -348 0
257 315 -320 0
204 -234 -287 0
-23 -163 -266 0
-187 189 -279 0
-124 -230 365 0
-54 -171 272 0
197 -212 -267 0
37 -205 327 0
17 91 337 0
52 105 -279 0
-200 265 -274 0
-44 -213 235 0
172 -324 -385 0
-110 -163 347 0
135 281 390 0
-272 357 358 0
-108 240 330 0
-82 155 370 0
-62 -194 -313 0
-288 363 371 0
261 304 -390 0
-14 -149 -246 0
-102 194 286 0
-45 -130 234 0
95 201 238 0
-110 229 -277 0
-43 164 -185 0
-109 -131 231 0
24 51 122 0
254 282 326 0
76 159 -168 0
-127 -150 330 0
-96 127 135 0
208 333 362 0
14 -16 244 0
-14 -30 -39 0
28 -41 -317 0
23 185 388 0
-227 -239 -325 0
-7 -116 -269 0
109 -113 -357 0
-87 88 153 0
108 -121 -231 0
-131 -310 -371 0
72 -115 370 0
150 206 361 0
-32 -188 -390 0
41 155 -366 0
3 -128 365 0
55 125 201 0
-1 -23 205 0
93 222 336 0
257 278 340 0
250 -284 312 0
-2 83 -182 0
133 228 315 0
-45 -324 -352 0
-26 -132 -240 0
86 -252 260 0
17 49 197 0
100 209 -218 0
-80 324 350 0
-117 -120 -283 0
45 142 222 0
-52 -277 287 0
138 172 -373 0
-350 -366 378 0
-56 -384 -391 0
57 -119 280 0
-182 -350 -360 0
190 241 -323 0
203 -288 -321 0
-124 141 370 0
85 306 397 0
-27 -247 -317 0
212 -340 -372 0
-29 -81 -344 0
-48 83 181 0
79 -162 -192 0
2 131 -283 0
-43 230 241 0
-120 -233 396 0
122 -137 -157 0
-83 223 -279 0
220 299 -377 0
-4 140 -254 0
242 329 -387 0
-287 -297 -343 0
-35 119 295 0
141 160 202 0
49 138 300 0
-100 229 243 0
88 -273 -334 0
-219 -258 390 0
50 -92 -308 0
61 174 238 0
11 20 249 0
-33 62 383 0
24 -168 248 0
15 -100 337 0
86 168 173 0
184 238 243 0
-142 -245 265 0
23 194 358 0
-24 162 -352 0
109 291 341 0
-20 -106 162 0
-162 -351 397 0
-236 -321 394 0
-72 -99 392 0
-3 181 -389 0
-165 222 -362 0
91 141 -152 0
31 -150 -354 0
-92 -119 324 0
-153 -185 -319 0
-238 253 385 0
-32 133 237 0
45 63 125 0
119 166 345 0
-55 -284 -344 0
11 -165 -335 0
13 -206 351 0
-118 -183 338 0
-27 132 229 0
81 231 300 0
-46 261 284 0
128 -210 321 0
188 258 -399 0
-84 -306 -384 0
-170 -238 -397 0
-1 109 114 0
-86 -283 -289 0
-229 -236 -386 0
64 143 150 0
-8 -39 220 0
-71 296 -389 0
129 177 -250 0
-78 379 -394 0
135 -301 384 0
-199 254 -390 0
141 -252 -328 0
-30 -144 390 0
185 -300 -318 0
35 -112 -351 0
90 -158 182 0
2 63 -336 0
-57 -76 303 0
-12 140 295 0
-76 -338 387 0
-39 215 -283 0
57 -164 396 0
165 -204 -307 0
-24 -224 -276 0
130 -223 -291 0
54 304 -341 0
34 75 -220 0
199 -221 -342 0
187 267 298 0
194 -261 345 0
-145 -228 381 0
70 103 244 0
183 255 280 0
-166 200 -256 0
13 33 118 0
-157 266 -371 0
72 301 -305 0
121 -164 346 0
42 243 -389 0
-113 -120 -376 0
245 292 336 0
57 -196 -361 0
-171 -308 -327 0
171 -243 -354 0
120 317 -368 0
-135 -165 305 0
165 -279 -315 0
5 -44 185 0
-95 303 -388 0
-92 163 -364 0
45 83 -140 0
7 -108 311 0
-27 96 177 0
-178 -220 241 0
14 307 344 0
-80 214 -274 0
2 -56 96 0
99 -263 394 0
-157 242 306 0
-131 184 -337 0
-133 -239 306 0
278 293 -316 0
-19 332 346 0
-70 267 395 0
151 -328 358 0
123 182 -342 0
-99 177 -373 0
194 256 400 0
59 104 -155 0
-70 165 391 0
230 253 379 0
-238 -320 356 0
-321 365 -391 0
54 -76 343 0
186 221 -299 0
-16 -194 374 0
-112 -300 -350 0
44 180 -366 0
176 209 -221 0
-64 -121 246 0
-64 153 -400 0
104 -193 390 0
-167 187 240 0
112 128 239 0
26 -255 365 0
172 -288 -308 0
