c Phase 3 random 3-SAT negative control
c seed=51029
c ratio=4.26
c variant=uniform
c expected=TO_VALIDATE
p cnf 800 3408
274 -457 -701 0
279 -427 -696 0
318 -438 -536 0
421 -657 764 0
452 -695 -754 0
-19 545 -563 0
112 146 -166 0
-7 -412 528 0
-49 -61 -719 0
262 375 639 0
250 -252 -616 0
22 179 -503 0
283 525 540 0
-166 -599 -752 0
125 -239 597 0
339 491 -723 0
278 -463 613 0
114 200 343 0
-243 -508 796 0
189 -419 -785 0
72 440 -617 0
-654 -657 674 0
237 -318 511 0
341 -354 -564 0
-132 -234 709 0
427 -543 -748 0
206 397 412 0
162 189 245 0
24 188 352 0
-365 491 787 0
-446 -523 596 0
-364 681 -726 0
24 349 636 0
-18 410 600 0
255 312 -350 0
20 119 796 0
-91 94 610 0
-442 -456 500 0
-410 -432 522 0
-48 -158 209 0
-169 -258 -614 0
-132 -214 -689 0
195 481 -786 0
-171 -540 -779 0
-28 446 732 0
102 -619 -698 0
335 358 770 0
-406 447 -709 0
-60 -260 -602 0
-326 -687 -731 0
-251 -470 528 0
-277 295 -425 0
-83 -487 772 0
10 546 -737 0
281 464 677 0
173 695 751 0
70 283 -383 0
-17 -262 -594 0
211 597 -632 0
-1 -109 -375 0
-190 -520 590 0
102 -202 357 0
-80 -392 734 0
504 -666 684 0
-43 -164 316 0
-421 548 -620 0
7 192 673 0
-21 38 -97 0
-548 -751 -759 0
143 -542 605 0
203 300 364 0
143 427 -663 0
-52 242 433 0
437 -596 661 0
1 171 -785 0
34 -518 605 0
237 -691 767 0
-39 -156 -549 0
604 -610 783 0
-97 -206 -760 0
-21 -128 -194 0
387 532 -731 0
-49 -326 -338 0
195 475 -562 0
110 -114 682 0
-188 -240 449 0
-16 -411 783 0
746 -763 786 0
-67 135 -718 0
-366 -565 -726 0
203 252 -612 0
-268 -299 -682 0
-300 614 -706 0
-48 -139 262 0
-330 346 -577 0
-499 -513 -757 0
263 346 573 0
-33 236 -677 0
39 -164 -231 0
-202 422 -781 0
157 -394 567 0
169 -329 -773 0
-368 -461 537 0
-40 -195 762 0
20 162 788 0
-255 -296 331 0
-154 -705 786 0
55 -141 421 0
640 -686 762 0
-265 -275 294 0
155 584 725 0
186 294 -392 0
-56 500 -642 0
-412 573 -586 0
35 108 347 0
124 386 728 0
123 678 -703 0
303 -406 -485 0
-59 -232 493 0
236 539 -550 0
-318 506 -572 0
-232 -268 514 0
-42 -132 685 0
155 327 -464 0
-14 -63 552 0
-327 450 522 0
49 -671 -743 0
127 -189 754 0
180 -262 626 0
-50 -386 -617 0
-301 592 605 0
113 -317 799 0
99 -152 266 0
634 635 -688 0
-21 -88 -210 0
-225 -383 -549 0
-3 231 500 0
214 -379 387 0
-116 334 -697 0
371 -387 739 0
373 422 748 0
-340 -489 687 0
19 -491 697 0
-19 -106 -563 0
75 -430 -687 0
247 370 786 0
119 176 -362 0
-212 507 -649 0
-523 -561 708 0
-237 -315 494 0
22 239 -455 0
54 690 793 0
273 298 767 0
-267 487 -488 0
402 -440 -758 0
-297 -509 704 0
107 618 -673 0
142 -604 -755 0
-321 700 -776 0
-51 -319 -581 0
386 -491 -514 0
-300 348 -646 0
-72 277 -753 0
-411 548 -789 0
194 283 -305 0
496 620 742 0
-97 242 586 0
68 352 654 0
-147 -273 389 0
-313 -496 786 0
56 -117 283 0
47 -153 -200 0
7 -320 354 0
-135 224 -601 0
-168 -228 620 0
-155 -396 -763 0
-358 647 -792 0
60 413 668 0
-196 227 -420 0
-20 616 661 0
78 -121 460 0
513 -642 -761 0
-131 -473 503 0
-83 314 -327 0
-114 120 -274 0
-540 715 -782 0
-21 442 654 0
28 -69 472 0
557 -698 -738 0
328 410 -685 0
-79 -184 645 0
-102 119 -299 0
-503 593 728 0
226 503 -545 0
-392 609 -635 0
-577 -611 -765 0
296 -362 -771 0
-40 -178 -204 0
215 470 495 0
213 -551 591 0
25 226 -717 0
-275 -324 -457 0
-298 -304 407 0
16 762 -783 0
429 -477 735 0
209 426 -488 0
-201 -222 616 0
-130 157 -273 0
76 -419 542 0
249 -479 -489 0
203 -576 791 0
23 -223 -740 0
126 -731 771 0
-162 773 792 0
-381 538 769 0
-87 -117 298 0
43 376 451 0
474 575 -599 0
-60 -168 -737 0
475 -681 787 0
-29 98 -526 0
-92 496 789 0
-314 424 792 0
398 -514 715 0
544 629 -683 0
-34 232 672 0
-27 458 -775 0
360 -491 578 0
211 -673 687 0
180 272 388 0
29 219 515 0
-118 -478 721 0
-130 653 -768 0
129 -497 -736 0
-282 -587 643 0
-7 -758 -795 0
421 -587 -670 0
-209 315 -548 0
48 -81 -160 0
-162 -503 518 0
526 591 715 0
69 533 599 0
-337 588 -589 0
-145 228 -379 0
-151 -218 -718 0
-298 -501 571 0
-201 245 -666 0
105 130 -266 0
462 -510 -616 0
-127 -454 652 0
-18 -76 631 0
456 -626 -782 0
126 241 -700 0
-39 471 -591 0
319 482 -516 0
-78 208 -257 0
93 194 592 0
173 178 -556 0
202 -265 350 0
27 244 575 0
55 -398 604 0
9 40 317 0
-386 492 -592 0
54 605 -681 0
-137 -279 319 0
310 -407 728 0
223 441 -688 0
212 471 481 0
32 -691 -753 0
130 218 550 0
-305 442 484 0
10 13 -238 0
251 -441 595 0
244 -419 -791 0
10 124 263 0
-144 -306 327 0
90 -208 -490 0
393 535 -538 0
101 -700 -780 0
9 -268 658 0
-24 -590 -682 0
98 -420 778 0
163 -244 359 0
83 -450 664 0
-390 708 757 0
-356 500 538 0
-611 742 778 0
-456 -710 794 0
34 -625 652 0
-273 -501 588 0
384 -431 -566 0
-165 253 604 0
54 -532 -753 0
236 -510 -713 0
-20 -465 612 0
-207 414 527 0
47 320 690 0
472 -649 -683 0
-310 -338 -760 0
455 657 747 0
-102 317 462 0
493 739 786 0
-110 451 -700 0
-47 684 726 0
70 -580 760 0
-74 698 -741 0
67 -211 -434 0
-253 -300 305 0
48 415 -705 0
-324 -572 -621 0
-108 517 -645 0
32 126 302 0
-36 72 -103 0
-331 -380 -596 0
107 187 420 0
115 226 255 0
-247 -573 -665 0
118 324 -504 0
-296 -652 -765 0
-246 675 -696 0
28 -378 -706 0
-248 -456 665 0
-293 355 -607 0
143 -222 567 0
556 577 751 0
370 449 764 0
-195 -665 704 0
-26 375 439 0
25 245 788 0
-64 -88 395 0
-296 -624 -682 0
325 514 578 0
432 -492 686 0
382 501 751 0
70 453 662 0
11 399 424 0
106 -355 650 0
-270 406 -755 0
-68 -104 279 0
-15 365 717 0
136 -416 438 0
302 -498 -721 0
133 523 -531 0
58 -473 763 0
-42 -70 -564 0
214 262 609 0
-165 -177 -519 0
-9 -50 418 0
31 -550 751 0
-50 297 -392 0
-240 724 -739 0
-379 486 -755 0
243 -409 782 0
105 110 -517 0
-357 596 696 0
35 -625 -791 0
76 735 758 0
243 484 755 0
294 516 -794 0
89 -230 -492 0
-160 234 -544 0
31 -177 -478 0
512 -637 705 0
-46 -245 -734 0
207 269 396 0
143 450 -536 0
106 484 661 0
247 466 518 0
-153 -168 380 0
-364 -503 638 0
-205 -501 689 0
46 268 484 0
-50 -235 771 0
-96 181 -304 0
383 -525 543 0
-114 216 587 0
124 376 -468 0
382 440 541 0
2 124 731 0
-617 -684 -714 0
-58 229 -778 0
-514 -652 697 0
-442 496 732 0
-13 -151 -524 0
251 551 701 0
-123 430 615 0
-73 272 383 0
385 -678 744 0
-14 244 590 0
-193 -485 743 0
-49 -446 591 0
-513 561 -784 0
-252 -259 -600 0
87 -611 -800 0
343 480 729 0
434 468 760 0
3 406 784 0
144 161 333 0
-233 550 671 0
-2 192 282 0
201 422 -458 0
270 480 -721 0
-75 -649 719 0
-12 -286 -361 0
-157 236 -747 0
175 -343 -576 0
92 338 -760 0
109 -294 -369 0
-70 -267 -558 0
-120 413 604 0
-165 -403 406 0
74 -83 -706 0
-242 560 614 0
166 201 -484 0
-288 -659 -780 0
191 432 610 0
-36 551 -740 0
-443 -538 -661 0
-196 529 557 0
-112 554 -721 0
536 -701 739 0
-206 -358 -572 0
95 -154 -183 0
-280 -529 -582 0
-36 -216 470 0
340 -350 -443 0
-483 -501 747 0
50 -294 498 0
-2 254 -706 0
-401 -571 -618 0
-6 287 -499 0
-246 -488 573 0
-70 -215 -292 0
426 -541 -608 0
-346 -584 -761 0
257 -474 520 0
217 281 606 0
89 292 498 0
-73 347 381 0
100 675 781 0
-1 -425 621 0
361 493 603 0
-467 554 666 0
233 -275 367 0
-490 -501 -644 0
94 344 382 0
-507 -540 -671 0
206 -230 -513 0
208 344 712 0
-76 -357 -678 0
176 581 705 0
-690 -725 772 0
269 -498 663 0
194 306 717 0
-81 -143 -673 0
234 310 -464 0
-60 295 -569 0
-315 325 -745 0
-308 -492 496 0
332 -445 560 0
-35 -347 723 0
69 395 642 0
200 232 493 0
69 -490 -521 0
327 596 718 0
241 -659 -663 0
-18 597 -673 0
-56 -92 -468 0
192 -294 -460 0
-88 414 538 0
243 271 451 0
113 -567 -668 0
-33 -334 413 0
-167 239 -746 0
176 210 -778 0
131 -431 740 0
17 287 454 0
-275 -483 -745 0
491 -665 -764 0
-41 -135 402 0
302 304 699 0
-401 508 -509 0
26 551 732 0
510 -667 -749 0
1 390 -584 0
-458 603 760 0
-171 237 494 0
117 163 -577 0
-5 -206 676 0
203 -359 570 0
-171 -368 -733 0
-14 -95 134 0
437 451 -590 0
-312 -341 754 0
-59 82 -322 0
-260 489 -644 0
159 -617 722 0
126 587 -690 0
-377 -532 625 0
-7 -261 -291 0
-452 558 -579 0
-490 505 -799 0
472 579 618 0
158 373 571 0
102 190 -352 0
171 -472 -499 0
-41 183 -539 0
-322 682 782 0
116 -257 676 0
-35 -65 751 0
-157 -633 -744 0
-113 -624 657 0
199 -352 450 0
563 -575 661 0
-341 -343 686 0
246 -425 -788 0
-4 191 545 0
-74 -193 -658 0
-158 -558 -570 0
26 74 560 0
-340 -431 -557 0
189 686 -787 0
-29 364 494 0
234 -270 695 0
41 580 -664 0
-61 -190 -367 0
519 -725 740 0
537 679 -753 0
-159 -704 789 0
556 566 599 0
212 -264 -570 0
100 206 -682 0
68 -384 -581 0
-292 -578 618 0
134 194 690 0
126 -335 729 0
192 -229 434 0
-170 224 -633 0
-385 609 705 0
-109 -386 748 0
-32 -109 715 0
-10 192 425 0
133 728 -753 0
-553 -673 698 0
200 472 746 0
65 -219 535 0
-286 -399 -458 0
142 -150 709 0
-39 374 -465 0
547 -584 -754 0
161 -637 -746 0
482 550 -650 0
-139 -154 -378 0
-330 -374 547 0
-486 526 660 0
-12 -218 -293 0
-298 503 597 0
25 183 795 0
-89 242 -464 0
36 587 -694 0
-116 389 -537 0
275 474 518 0
76 -83 290 0
49 -535 -638 0
-336 587 -780 0
-159 524 -616 0
-596 -702 -762 0
-327 419 661 0
-299 -721 -744 0
363 364 -670 0
-190 -599 636 0
88 98 510 0
-365 -667 -701 0
-275 -739 -788 0
32 50 100 0
-305 419 453 0
400 -618 -701 0
-333 447 -779 0
110 -329 -745 0
-257 -500 758 0
269 -587 -782 0
563 -576 714 0
91 184 487 0
337 -468 493 0
-362 512 -666 0
-189 -663 -721 0
-63 -451 633 0
247 -539 -722 0
-248 -518 732 0
97 758 -766 0
-79 150 -242 0
-41 -54 -533 0
-279 -287 -555 0
562 592 597 0
117 -196 -563 0
103 -163 -485 0
209 220 -371 0
290 397 441 0
-196 507 785 0
-615 -667 -668 0
-325 -551 780 0
1 -419 629 0
92 320 -368 0
213 389 -469 0
-107 -173 -291 0
39 745 -759 0
-198 421 706 0
-619 637 686 0
208 395 -644 0
-150 -255 -506 0
261 509 -751 0
-72 -368 -374 0
-287 -686 -703 0
216 533 -625 0
-341 -609 762 0
184 -201 556 0
106 -165 -478 0
1 -143 510 0
-13 -526 -643 0
-278 -463 -747 0
-78 180 -212 0
156 -337 594 0
84 99 -798 0
-296 344 -588 0
102 260 288 0
170 661 783 0
390 -479 -540 0
446 502 583 0
46 -467 621 0
129 -329 604 0
166 -564 723 0
172 -325 -696 0
291 -319 773 0
255 -363 780 0
24 629 767 0
7 123 301 0
120 254 764 0
-53 241 705 0
204 -288 -759 0
-140 323 -758 0
80 -365 717 0
115 426 -663 0
145 -693 736 0
33 167 -548 0
-5 -80 -505 0
214 -238 467 0
-190 -229 499 0
-240 702 800 0
15 -71 -619 0
1 715 757 0
-82 -403 692 0
99 -370 -738 0
41 -476 568 0
-61 481 -736 0
116 120 -408 0
-468 609 -662 0
-77 256 655 0
139 266 528 0
-419 -729 -746 0
-394 -412 733 0
-322 -648 690 0
-446 472 622 0
-285 319 -712 0
96 419 -535 0
10 -402 409 0
-408 617 663 0
17 -135 -317 0
17 369 773 0
22 69 214 0
-179 218 -758 0
73 -147 -474 0
-53 261 737 0
-207 697 720 0
-127 182 654 0
-38 -563 -764 0
702 -725 -751 0
178 -655 -728 0
-269 289 -533 0
-522 -546 -574 0
209 -236 287 0
-58 -500 638 0
-39 462 -638 0
281 296 -577 0
-445 -490 694 0
-425 -719 -783 0
-356 -398 -688 0
75 -93 293 0
128 399 800 0
-121 -346 597 0
171 -463 735 0
-31 -356 465 0
-137 -331 -730 0
115 -632 792 0
197 -309 563 0
406 -542 -587 0
264 559 -759 0
-98 -461 -795 0
-503 567 -599 0
-411 -756 787 0
23 -433 -464 0
468 727 -733 0
89 -617 -714 0
-548 567 -583 0
216 670 707 0
-170 183 680 0
-399 590 -727 0
181 -749 773 0
-88 253 -766 0
-39 539 543 0
-27 145 261 0
312 536 -754 0
369 562 -649 0
40 393 471 0
70 -514 -678 0
-13 141 316 0
-205 225 510 0
245 251 -767 0
-58 -414 -480 0
-83 -393 646 0
567 739 796 0
59 -185 -386 0
172 -491 -651 0
-5 70 -338 0
30 511 -607 0
10 160 445 0
376 -582 753 0
-161 308 474 0
-43 230 647 0
584 591 702 0
59 171 685 0
-311 -351 -412 0
-198 -606 -672 0
489 545 -760 0
-136 260 -472 0
-369 -410 -540 0
204 -698 772 0
174 292 556 0
-185 -583 -614 0
-392 545 625 0
88 -359 422 0
-189 -231 -257 0
431 563 688 0
-68 317 -533 0
-38 -229 247 0
-207 400 -718 0
-313 578 -594 0
-149 -243 -564 0
122 273 -579 0
-214 473 636 0
4 292 642 0
43 -299 -496 0
16 -142 758 0
79 403 -441 0
66 -321 593 0
39 -107 214 0
189 229 369 0
10 -224 272 0
-148 166 269 0
-233 -678 696 0
-119 591 -596 0
278 407 431 0
-48 -147 447 0
654 684 -769 0
115 -356 741 0
168 390 752 0
292 -453 -786 0
308 351 -728 0
135 -238 -639 0
-338 341 478 0
-32 -174 -317 0
471 -484 -793 0
-284 568 702 0
208 224 550 0
141 -364 559 0
-342 -388 646 0
280 -283 416 0
271 451 -720 0
-212 -470 792 0
133 -311 -722 0
94 452 652 0
165 665 -671 0
276 -317 392 0
-124 403 721 0
125 -351 -462 0
60 575 614 0
414 -448 -508 0
142 -274 646 0
-484 -578 -679 0
-271 -357 505 0
-540 548 713 0
65 198 323 0
71 -372 -423 0
451 578 632 0
5 706 730 0
-27 -436 -610 0
-356 488 -561 0
121 580 -599 0
-324 374 699 0
83 95 642 0
-261 459 498 0
608 -737 786 0
51 -209 640 0
45 -220 272 0
289 -592 776 0
-208 -589 -606 0
-40 -243 -592 0
363 -390 755 0
-419 629 674 0
-604 -608 -639 0
-228 -253 -352 0
140 389 -598 0
269 575 648 0
68 130 -566 0
-121 316 -561 0
-234 -435 -500 0
-50 -74 438 0
20 -220 -565 0
99 -338 590 0
51 -225 578 0
36 138 708 0
100 -707 -732 0
22 -146 779 0
-242 453 -670 0
-87 260 -373 0
-439 487 681 0
-134 -158 369 0
268 -429 -661 0
-195 476 -689 0
-248 278 483 0
92 -133 343 0
54 -386 -710 0
249 -510 -756 0
-195 -483 -661 0
448 -574 655 0
46 -332 631 0
191 393 -783 0
330 -418 -799 0
-269 304 574 0
103 -236 750 0
224 501 -792 0
-341 527 -737 0
-406 714 -740 0
-215 -311 571 0
-160 -538 -664 0
-122 -230 291 0
366 477 481 0
413 -520 798 0
-62 439 497 0
173 -470 786 0
-360 -401 -612 0
-78 -89 473 0
-106 404 -633 0
-112 -180 -411 0
-354 495 -701 0
112 438 734 0
-174 -641 -648 0
-42 644 700 0
242 523 555 0
121 -129 -495 0
-244 -394 715 0
25 -331 -430 0
-61 -306 677 0
114 289 -664 0
-60 -75 354 0
-142 -419 -733 0
357 432 -588 0
-56 -106 -153 0
-155 605 790 0
-627 738 -796 0
56 93 654 0
-32 -114 250 0
-142 -389 -510 0
229 470 509 0
-223 -357 790 0
-205 -400 671 0
-101 221 467 0
50 112 203 0
-30 121 -783 0
333 -492 -576 0
-21 110 614 0
129 -235 -730 0
130 141 -726 0
-184 -365 700 0
-264 -586 -676 0
51 494 739 0
-158 380 -561 0
-205 490 -681 0
138 176 -734 0
-406 -693 705 0
118 -240 588 0
-95 -184 431 0
10 340 -677 0
-246 526 -731 0
-150 606 -638 0
297 331 -775 0
13 252 -264 0
415 -530 738 0
-69 -370 -558 0
81 435 -596 0
-71 -256 776 0
19 -383 -567 0
151 457 -538 0
-136 -250 419 0
-48 211 248 0
34 -285 357 0
-41 168 -551 0
194 468 567 0
126 133 -380 0
-100 300 797 0
3 -403 -790 0
89 -267 -745 0
272 349 -585 0
266 569 607 0
-351 617 753 0
77 -560 -696 0
-121 -473 511 0
-61 255 -521 0
-41 44 -108 0
-19 -472 -701 0
-106 -190 -309 0
-11 -651 -793 0
-308 705 -717 0
-210 -517 718 0
138 -469 592 0
-134 -317 696 0
353 -408 -555 0
-365 -573 746 0
185 -608 -770 0
231 -370 -601 0
177 -334 -504 0
35 72 -172 0
-46 -478 -696 0
367 402 549 0
-190 -507 -617 0
-193 -338 -678 0
-88 -532 -710 0
269 -270 -580 0
150 -509 -528 0
-111 -721 774 0
-44 369 572 0
-467 -504 658 0
220 -277 705 0
-197 -205 -344 0
-66 266 437 0
-208 -305 486 0
196 537 -680 0
36 -52 -478 0
194 466 -635 0
-130 -540 -753 0
-109 247 252 0
516 517 584 0
461 479 671 0
123 -547 597 0
-434 568 -746 0
-20 -353 574 0
-347 -545 617 0
-80 -96 -134 0
151 158 482 0
-81 -473 -610 0
-525 593 596 0
-99 -459 663 0
-346 -505 -674 0
-348 -357 -457 0
-243 519 -779 0
-297 -635 -638 0
448 531 -661 0
-54 -549 -613 0
-65 369 535 0
-245 347 -624 0
218 -505 -535 0
-66 -640 772 0
-68 231 498 0
-62 310 -617 0
21 492 -771 0
133 281 537 0
271 272 -336 0
82 95 -342 0
-30 535 621 0
240 304 -444 0
-125 -274 292 0
125 320 372 0
-80 211 249 0
40 -183 -641 0
306 536 -702 0
-230 318 469 0
-167 -285 430 0
209 -234 -419 0
-186 -444 688 0
-55 -86 -464 0
-122 616 -664 0
-4 120 708 0
56 185 208 0
95 -223 730 0
-86 109 -353 0
83 -178 -276 0
-72 -330 -552 0
-76 -461 592 0
-774 781 785 0
-177 242 657 0
-18 -248 -249 0
3 -11 625 0
146 -249 -624 0
303 -410 -581 0
120 -404 587 0
-354 505 565 0
-271 -699 785 0
535 624 -784 0
175 -311 -443 0
-332 -449 515 0
78 286 -609 0
631 -700 -704 0
-365 404 578 0
130 -417 -494 0
-269 -353 -565 0
-381 -415 -444 0
-365 630 749 0
-141 466 -649 0
-147 -617 631 0
-208 385 -611 0
-215 -309 607 0
-47 199 298 0
-62 129 -756 0
519 613 -674 0
45 -371 -623 0
-14 26 -103 0
-11 217 395 0
209 476 -638 0
11 -55 756 0
-651 746 -797 0
364 -505 652 0
85 -113 579 0
-149 355 509 0
402 456 652 0
-451 -455 661 0
-256 674 -713 0
-17 99 558 0
87 -511 -640 0
2 -145 -345 0
-16 -182 -316 0
-17 453 -460 0
-159 -465 -505 0
321 -720 -762 0
265 -390 -546 0
-46 -412 506 0
-28 -336 -365 0
-335 -353 375 0
400 592 -653 0
-107 405 -446 0
17 -387 589 0
165 -239 416 0
110 154 609 0
45 -416 734 0
230 -596 -799 0
-147 -288 789 0
19 529 611 0
87 251 -611 0
-4 -204 376 0
274 -326 355 0
227 334 595 0
53 249 -282 0
-440 -619 -659 0
-196 503 755 0
249 287 -722 0
227 355 559 0
-51 -623 657 0
-115 220 -578 0
601 -608 -658 0
-677 727 744 0
-411 506 643 0
-231 -269 -679 0
-89 -110 -500 0
286 449 -459 0
-340 775 786 0
-127 429 502 0
-117 -449 -548 0
83 237 307 0
-40 195 695 0
-65 -155 485 0
-204 225 -404 0
68 -307 -322 0
-217 -426 -468 0
14 -30 105 0
57 -593 605 0
98 -143 -317 0
-335 -428 532 0
-338 514 -638 0
-311 429 721 0
-294 -684 733 0
-70 141 561 0
434 583 669 0
217 452 546 0
-158 -512 539 0
-385 569 594 0
251 -365 536 0
36 -596 -641 0
-175 -290 -554 0
-171 -525 -621 0
-64 -79 666 0
148 270 427 0
288 387 631 0
-394 713 -796 0
207 423 663 0
-121 129 290 0
-148 -217 -561 0
-155 -617 -776 0
116 352 -714 0
-26 -165 -423 0
75 369 -482 0
-68 -275 425 0
-246 328 -559 0
124 -334 -548 0
219 -586 -644 0
37 191 670 0
-96 398 646 0
592 -631 734 0
-163 -212 -638 0
133 -200 210 0
-337 -542 704 0
102 -241 -793 0
-414 -451 -737 0
-15 -654 -742 0
100 486 -572 0
-255 672 -673 0
197 -251 -737 0
136 -231 730 0
-31 -719 -755 0
671 703 778 0
-256 655 741 0
277 328 701 0
-194 542 -644 0
102 -730 772 0
-245 -579 776 0
1 -218 236 0
-422 491 676 0
276 -621 -688 0
58 84 -342 0
-535 -553 -564 0
242 318 688 0
171 317 738 0
458 -507 -616 0
424 544 677 0
186 -386 586 0
43 506 624 0
-112 -242 -343 0
-71 129 -660 0
-283 -652 716 0
-39 55 208 0
-409 476 628 0
-437 -490 -711 0
-375 -451 -657 0
493 -604 667 0
143 -332 -353 0
-15 -591 -731 0
326 -557 -736 0
-127 324 -776 0
-371 -461 779 0
382 -613 705 0
-277 -354 434 0
-102 331 -727 0
-6 -256 564 0
190 -750 795 0
-12 -601 -678 0
318 439 758 0
-103 573 -628 0
-145 249 786 0
-63 442 -480 0
-241 421 -534 0
-535 -663 791 0
-209 279 354 0
-134 360 -699 0
-124 -138 -331 0
-342 -416 731 0
-589 -750 755 0
-36 -274 366 0
-269 494 -663 0
655 -685 727 0
110 521 -530 0
60 416 424 0
30 -197 -676 0
430 497 -713 0
-91 312 -402 0
-92 306 -643 0
-36 343 -405 0
-76 -365 510 0
167 -426 -504 0
-76 202 -470 0
-254 -369 563 0
-186 -674 686 0
-155 182 452 0
-93 -255 -683 0
292 -361 767 0
329 -549 709 0
123 321 750 0
-100 641 686 0
588 -719 -783 0
-129 -428 -753 0
121 -358 -752 0
-321 620 677 0
501 518 628 0
15 -610 702 0
-512 604 -626 0
-124 -419 682 0
166 -346 473 0
-51 -280 445 0
-177 -291 -294 0
-22 185 -247 0
21 500 798 0
510 662 -713 0
64 -717 -760 0
-264 342 419 0
225 -489 -744 0
-181 -289 -777 0
-406 413 793 0
69 283 722 0
-723 -741 -766 0
268 662 727 0
346 -661 -670 0
-256 490 -713 0
-47 660 774 0
92 -253 -337 0
165 -313 -565 0
-517 -633 693 0
-272 340 -422 0
-79 237 -587 0
39 160 452 0
-303 -631 -796 0
-139 -236 -314 0
-258 -301 -786 0
7 -8 317 0
177 188 508 0
-193 237 -425 0
323 -365 611 0
26 -280 -473 0
-524 681 711 0
-220 -286 687 0
-171 -314 680 0
96 461 -670 0
401 -637 783 0
44 133 712 0
-38 -317 572 0
-30 129 670 0
-2 526 618 0
-68 -190 750 0
-50 -228 -575 0
58 -80 -414 0
541 673 721 0
-118 545 -750 0
144 330 603 0
-229 -459 -557 0
305 307 -638 0
84 -206 369 0
438 679 -745 0
-150 -297 354 0
-119 248 684 0
185 270 -342 0
242 622 -645 0
16 -657 762 0
8 -96 -349 0
513 627 784 0
-129 -304 -653 0
-406 518 -765 0
156 -741 765 0
295 357 445 0
323 586 -774 0
35 92 484 0
47 54 -332 0
280 -281 -296 0
289 -521 704 0
-323 -518 -599 0
385 -387 -419 0
422 -531 -586 0
141 -191 250 0
-179 384 -725 0
-144 -334 -622 0
97 -100 295 0
-351 573 765 0
-380 562 732 0
-411 469 -730 0
189 -576 724 0
39 -290 -452 0
-87 243 -749 0
119 -454 -745 0
181 340 -477 0
57 -347 462 0
470 648 661 0
-248 381 -561 0
-112 548 708 0
-311 -612 646 0
33 -226 -532 0
452 -672 -687 0
425 646 746 0
345 -399 -778 0
-163 632 -689 0
374 427 586 0
190 -372 -648 0
-11 -203 495 0
19 267 331 0
19 -283 -330 0
89 -108 270 0
130 -234 -628 0
267 360 -450 0
-257 -438 727 0
-402 -481 -494 0
-56 274 621 0
221 -348 -428 0
375 404 734 0
244 317 685 0
300 634 -704 0
363 -455 796 0
-248 681 -687 0
-45 403 607 0
-3 642 679 0
11 217 -322 0
-451 -733 -770 0
99 -174 659 0
330 479 -499 0
193 -497 743 0
-116 -292 -472 0
72 -469 491 0
-119 403 727 0
-285 -370 760 0
261 -389 -530 0
109 -312 768 0
263 -414 -523 0
52 -527 756 0
-489 -588 -671 0
294 -553 -683 0
513 600 720 0
449 -539 -584 0
-115 -583 -689 0
92 105 597 0
-467 -535 585 0
-99 -702 777 0
178 273 646 0
55 151 -631 0
325 -599 666 0
-179 -705 -732 0
-401 -516 596 0
-103 -262 430 0
211 -301 -726 0
-90 -130 -166 0
-281 700 767 0
260 336 -418 0
102 161 678 0
218 -291 784 0
-147 161 492 0
-495 520 -697 0
265 -510 628 0
-657 -701 761 0
219 323 734 0
-117 -482 768 0
-132 -417 479 0
118 -384 661 0
-222 -326 685 0
317 328 607 0
177 558 -597 0
-439 442 497 0
96 423 458 0
112 720 732 0
42 334 602 0
205 -430 438 0
12 28 762 0
-258 -441 -718 0
-320 -424 -603 0
-421 647 774 0
-128 -227 767 0
364 402 549 0
212 -665 -676 0
-26 -745 785 0
-107 387 -660 0
-403 -451 452 0
55 -436 -507 0
-109 -268 -315 0
29 147 -306 0
484 511 -526 0
129 -330 -697 0
-13 -35 -318 0
22 173 -244 0
-306 -478 -670 0
-310 721 -749 0
401 594 -647 0
-161 326 645 0
389 574 659 0
270 -279 337 0
132 -721 756 0
77 93 132 0
-93 717 -793 0
398 480 576 0
332 -341 345 0
-229 -365 -655 0
327 329 -629 0
23 -647 780 0
-555 593 728 0
-224 -495 -759 0
104 471 -763 0
-1 -110 -202 0
-195 384 757 0
245 462 709 0
384 -460 700 0
-36 60 -239 0
40 -262 -329 0
130 -163 -625 0
19 -323 655 0
120 425 781 0
-11 -128 -358 0
294 403 523 0
140 -171 767 0
-184 -505 -793 0
-153 186 -747 0
-235 -299 675 0
-42 -592 -721 0
70 -371 -500 0
135 -297 350 0
301 -410 665 0
-563 620 -662 0
-217 282 -610 0
55 -174 -324 0
257 -571 -705 0
-484 633 -678 0
-48 -595 -657 0
471 -532 747 0
266 358 -618 0
-176 251 717 0
-73 163 174 0
372 402 530 0
-223 -329 -469 0
347 -788 -790 0
-67 270 -660 0
-260 -359 790 0
-528 744 746 0
156 470 693 0
110 400 733 0
189 -331 334 0
187 -445 -672 0
-363 -563 -772 0
-36 -373 -710 0
208 408 -654 0
187 407 -507 0
55 201 234 0
179 -337 -379 0
240 289 784 0
298 437 738 0
-140 715 781 0
-145 385 588 0
228 -292 -476 0
-192 626 -686 0
-80 630 775 0
376 -623 -669 0
335 722 778 0
-118 -369 -460 0
-104 144 266 0
-85 371 -563 0
99 -188 -792 0
-26 -308 -539 0
-93 -286 553 0
25 89 -237 0
-46 -185 587 0
303 -323 -612 0
-513 -587 773 0
293 -369 662 0
560 -715 -752 0
-129 -169 295 0
298 -318 -607 0
-40 -246 745 0
-200 239 -387 0
-19 -54 -293 0
-24 -688 -743 0
-190 259 264 0
-87 277 -326 0
196 -564 744 0
-115 590 655 0
-251 433 -791 0
223 570 800 0
-158 172 358 0
-82 -88 489 0
-424 -618 -696 0
82 126 -749 0
-99 612 -710 0
-121 -219 318 0
-85 -447 534 0
-121 -511 684 0
265 294 682 0
157 -354 -796 0
139 478 574 0
-445 -701 743 0
38 -120 757 0
156 -432 727 0
-80 307 -758 0
87 -633 695 0
-274 -355 -761 0
-327 398 595 0
-115 295 -701 0
284 -319 371 0
59 123 -420 0
-120 285 -413 0
-233 700 -777 0
-199 -232 357 0
125 -158 679 0
-441 -450 -593 0
98 173 -398 0
-35 -225 -739 0
-83 -120 241 0
288 493 -775 0
21 215 -336 0
39 278 611 0
147 -305 467 0
-549 -599 -700 0
287 -399 568 0
-257 263 768 0
349 -548 -586 0
-159 -603 -670 0
-104 228 620 0
-141 -327 -429 0
533 -558 713 0
675 -681 -760 0
245 -672 688 0
-15 531 799 0
-57 315 -640 0
3 112 224 0
-217 688 -740 0
671 676 -700 0
-156 313 -734 0
-216 529 -738 0
-5 -196 -379 0
-185 227 -292 0
-21 626 -744 0
-94 -279 -303 0
581 -618 -786 0
204 298 -797 0
-409 427 -754 0
213 -275 -404 0
-17 279 690 0
-94 -95 394 0
-419 -577 -662 0
33 344 -374 0
301 408 -564 0
-476 -504 -544 0
151 236 -697 0
374 429 611 0
111 -297 551 0
189 665 -745 0
102 138 439 0
-57 -95 -749 0
-517 643 -650 0
306 566 611 0
-9 -54 450 0
-583 585 -714 0
81 -383 384 0
-53 -152 -417 0
-11 -546 612 0
20 97 419 0
321 333 -420 0
508 -610 -634 0
85 140 378 0
-369 -667 -753 0
-305 383 -680 0
-314 654 -685 0
-342 -363 -627 0
-470 -620 655 0
-298 -381 659 0
-113 -192 -272 0
64 389 476 0
-186 554 -708 0
-97 303 631 0
233 -742 752 0
-108 -221 -390 0
103 195 -373 0
182 -736 -741 0
135 -243 419 0
243 -643 -714 0
-59 -702 747 0
-12 -162 697 0
49 266 -769 0
61 249 331 0
194 630 706 0
-70 -321 -443 0
135 -158 -473 0
-95 -372 730 0
-29 -340 -533 0
211 329 -649 0
90 258 765 0
-21 333 770 0
-133 386 -683 0
-267 -488 -590 0
-65 329 -585 0
50 -523 592 0
-98 -177 669 0
156 258 -437 0
271 -595 -610 0
361 605 795 0
-31 455 789 0
-5 75 374 0
-33 309 -763 0
-312 -648 -687 0
-292 370 626 0
-194 -455 611 0
-192 -209 331 0
-97 488 -784 0
-85 206 -739 0
-177 -290 512 0
-241 -336 -424 0
-484 503 517 0
-353 -440 468 0
-133 -580 785 0
-477 635 640 0
225 458 -703 0
-432 -563 711 0
40 -748 761 0
-25 504 -744 0
64 77 -615 0
-363 -550 -782 0
113 -286 666 0
-284 513 722 0
82 -261 552 0
305 -519 -646 0
-380 -535 -550 0
-126 -176 273 0
-153 234 483 0
160 211 -766 0
86 409 -568 0
-280 -642 -797 0
75 442 -762 0
334 514 -584 0
-375 479 727 0
-190 237 -333 0
356 -398 -604 0
-28 205 444 0
171 -505 -648 0
120 -252 704 0
-416 -561 -654 0
240 -274 -390 0
-332 -391 -605 0
57 -350 -425 0
-33 -567 -701 0
-79 448 779 0
63 168 257 0
80 437 -722 0
-21 302 -335 0
-9 -636 -670 0
99 -216 741 0
283 -471 619 0
-258 -553 -706 0
190 289 791 0
-215 539 782 0
80 -321 -564 0
101 438 -526 0
238 477 -765 0
426 -496 -688 0
-93 363 -367 0
-178 -200 275 0
226 319 -371 0
-361 -529 -531 0
-203 367 401 0
657 -736 -748 0
29 -361 -590 0
9 -145 771 0
145 -155 308 0
5 144 -396 0
306 -484 705 0
272 441 653 0
90 -614 -713 0
-104 -509 -786 0
-419 -540 658 0
280 404 -648 0
6 103 -767 0
465 532 -765 0
-132 -467 762 0
100 567 649 0
-162 318 -612 0
71 -85 -607 0
89 114 -316 0
76 234 -392 0
395 568 581 0
-33 159 -791 0
114 -529 616 0
-185 -243 -637 0
-478 512 714 0
-39 648 762 0
-280 -295 -718 0
222 -321 -742 0
-208 454 -598 0
54 177 178 0
444 557 743 0
59 -285 -330 0
354 626 736 0
27 480 -614 0
413 589 -768 0
108 410 -463 0
223 -248 374 0
113 -714 -744 0
-235 -378 502 0
36 408 -557 0
426 510 778 0
220 -473 -505 0
-201 -308 -381 0
434 621 634 0
-534 586 -745 0
-245 545 789 0
85 117 596 0
-27 487 688 0
-82 -141 615 0
-241 -378 583 0
-426 -444 716 0
-70 256 795 0
365 441 741 0
-294 -676 -726 0
-78 -293 -612 0
-140 187 731 0
-76 -697 -770 0
-264 -637 -770 0
-179 -333 503 0
-238 -687 707 0
-171 669 709 0
-117 537 -598 0
101 459 778 0
737 792 -799 0
87 309 -672 0
-497 -671 718 0
321 441 -784 0
292 -506 -639 0
457 -544 -743 0
2 384 -464 0
109 185 -483 0
332 -335 -745 0
480 628 -735 0
255 409 487 0
435 633 -746 0
227 -289 542 0
-359 -414 -668 0
178 671 681 0
-9 709 -724 0
-46 72 -114 0
124 -604 -755 0
-516 -533 581 0
-330 627 762 0
21 385 -780 0
-102 -785 -789 0
-238 456 529 0
-524 587 669 0
-203 -387 -641 0
461 511 672 0
-147 -657 757 0
428 -489 -501 0
104 -593 -754 0
390 556 -575 0
358 395 -609 0
-214 -239 327 0
34 50 -63 0
174 681 -785 0
-198 -388 -789 0
-12 357 465 0
-52 397 -687 0
-168 -190 -222 0
564 630 -728 0
-289 348 -625 0
-52 100 450 0
-95 154 534 0
302 748 797 0
-391 -550 594 0
122 325 696 0
104 -438 751 0
-70 300 -390 0
-138 -548 -619 0
-220 -415 787 0
-451 -499 -783 0
-428 -512 769 0
334 365 -714 0
-110 151 512 0
328 -382 -602 0
-103 304 468 0
-123 361 698 0
-224 -477 -513 0
47 582 -741 0
-360 469 515 0
-228 416 547 0
351 466 -477 0
129 -295 671 0
-51 559 -795 0
296 365 419 0
-104 -365 565 0
38 -515 -698 0
-245 -319 563 0
-82 246 -496 0
211 -637 769 0
-184 324 692 0
-369 734 779 0
90 -259 535 0
219 237 -603 0
-89 107 -225 0
31 281 367 0
-33 -427 664 0
-4 345 441 0
-339 369 461 0
147 297 715 0
385 492 -719 0
565 -668 -676 0
-21 233 -766 0
4 216 295 0
-135 -410 -512 0
-4 -126 -241 0
-35 -351 -607 0
-157 159 -299 0
413 507 576 0
29 -329 -479 0
167 -478 -578 0
223 351 -581 0
114 610 772 0
-375 430 -632 0
-525 585 -711 0
-203 664 -766 0
-3 394 461 0
121 538 -758 0
165 177 425 0
-9 232 766 0
-325 -769 -771 0
-66 -147 580 0
-90 99 -705 0
-139 473 -548 0
27 -419 771 0
315 -511 -554 0
-72 -93 -693 0
311 314 553 0
144 -332 -531 0
-215 -285 -330 0
211 -445 -597 0
-450 653 -689 0
406 -689 -758 0
-309 -667 -712 0
-80 -720 748 0
598 661 800 0
-560 -581 -765 0
102 -124 548 0
1 -4 -451 0
186 -295 456 0
154 -225 428 0
120 353 -487 0
177 -190 730 0
380 499 543 0
-322 442 773 0
32 -435 -634 0
-132 -383 585 0
-303 -365 414 0
-19 -113 -340 0
-288 481 -484 0
-221 285 458 0
76 269 697 0
308 -541 698 0
-8 385 739 0
-14 501 786 0
-94 -547 -703 0
224 308 618 0
95 624 -711 0
41 444 -699 0
65 -357 -794 0
32 86 -311 0
68 237 418 0
526 686 716 0
347 -504 648 0
-40 143 -445 0
58 75 507 0
-87 608 -616 0
-204 651 653 0
-53 -377 -664 0
-128 412 -413 0
240 680 773 0
199 -367 -551 0
138 -163 473 0
-263 420 769 0
-205 309 663 0
40 580 -745 0
59 -333 658 0
-311 341 -420 0
-28 -642 -660 0
229 -576 624 0
-368 712 -760 0
-163 531 -755 0
-241 471 -583 0
203 459 508 0
-183 -447 517 0
-87 125 350 0
-525 778 -791 0
-193 435 -775 0
-388 391 -770 0
314 -562 -735 0
278 -507 793 0
-61 -373 -682 0
101 -144 486 0
150 391 -732 0
255 -512 716 0
-456 -470 -652 0
149 -429 591 0
-194 -516 550 0
-43 -113 -514 0
-156 -555 561 0
41 282 -680 0
-56 -457 -531 0
-213 421 -747 0
-221 -341 640 0
-222 427 762 0
387 -410 -753 0
32 179 -527 0
-366 449 -668 0
363 -684 -752 0
-155 333 -526 0
-138 -162 -485 0
-32 -568 756 0
292 -359 592 0
-258 -330 732 0
-174 -386 -460 0
-103 -457 -731 0
-168 -301 685 0
-16 355 608 0
-67 -115 458 0
-152 -297 713 0
291 326 -671 0
41 148 149 0
233 -254 648 0
-22 51 65 0
-78 -415 -777 0
-135 254 319 0
-377 588 624 0
26 -354 665 0
82 -322 413 0
54 -271 -333 0
202 -545 -722 0
25 -30 624 0
720 -751 757 0
-30 310 -337 0
-251 -564 742 0
323 325 -699 0
-15 165 755 0
-3 141 331 0
462 -527 530 0
-322 368 -476 0
-124 -233 507 0
-32 514 761 0
127 362 445 0
-13 417 -584 0
257 -655 -792 0
-69 319 -778 0
-68 96 579 0
123 -328 447 0
18 223 -426 0
-487 638 -751 0
-409 -477 698 0
-294 344 670 0
255 654 800 0
-292 517 -745 0
75 274 -637 0
-119 -311 -387 0
-206 471 -564 0
28 718 730 0
-346 380 460 0
-341 -488 668 0
-62 556 -682 0
263 -544 -648 0
-304 -418 -634 0
327 587 -743 0
-208 -698 -752 0
-164 -633 739 0
-31 -64 80 0
91 191 528 0
241 -377 553 0
15 646 795 0
177 258 751 0
-431 -712 -754 0
-457 -579 613 0
-150 -239 -594 0
225 459 -640 0
-53 -120 429 0
-123 552 -721 0
-94 -107 784 0
-213 272 -372 0
193 617 618 0
136 -677 783 0
425 -519 602 0
-307 -475 -565 0
-82 432 709 0
-471 -476 511 0
-36 -225 716 0
-105 -302 351 0
364 521 -691 0
-40 517 732 0
-87 474 -763 0
163 450 693 0
72 -84 336 0
112 503 718 0
337 605 -741 0
245 377 -446 0
105 154 623 0
339 361 -656 0
-204 -391 -501 0
313 -361 774 0
233 577 723 0
-75 485 767 0
131 423 687 0
-113 -595 648 0
-139 -203 -614 0
-437 734 -739 0
29 -58 -194 0
-224 629 -686 0
-199 -513 709 0
69 565 693 0
-50 269 708 0
-388 410 597 0
356 -398 -738 0
-385 394 -481 0
-100 -234 511 0
-34 -285 -453 0
341 -461 632 0
-305 -573 -758 0
-173 234 -647 0
-286 287 754 0
-198 312 341 0
463 -539 786 0
154 641 743 0
219 361 452 0
303 372 -792 0
116 -316 -783 0
41 -268 -373 0
-175 -538 -735 0
-190 351 -359 0
-124 126 -421 0
263 488 -548 0
14 -511 546 0
66 -261 546 0
284 -473 -697 0
226 -241 470 0
-55 -287 430 0
-67 -260 665 0
248 -390 -738 0
137 -502 -568 0
-181 -220 673 0
63 252 -518 0
83 -687 738 0
-48 263 536 0
-155 369 403 0
-438 525 -765 0
337 -415 -465 0
-17 -307 -371 0
-64 -143 491 0
-522 -590 633 0
252 -662 -767 0
80 160 447 0
-153 -257 -473 0
-46 -53 163 0
300 -384 688 0
-347 606 777 0
119 207 223 0
-153 380 -430 0
131 237 -711 0
13 600 -659 0
219 -350 -623 0
128 -266 622 0
521 532 638 0
403 408 673 0
111 -342 467 0
-72 152 -482 0
183 -550 -693 0
55 321 -644 0
-226 -418 -508 0
166 -484 672 0
205 342 -442 0
94 187 752 0
-63 527 -691 0
106 -259 -315 0
213 573 642 0
18 282 -695 0
-341 502 604 0
326 334 461 0
8 445 -522 0
-261 -584 725 0
-279 -499 690 0
-109 -160 -408 0
106 -156 -534 0
338 709 -785 0
123 -477 799 0
-445 511 757 0
217 626 -664 0
110 -297 500 0
40 -476 -798 0
433 620 -785 0
-53 310 -526 0
387 639 653 0
96 340 436 0
-347 -486 683 0
-230 -406 451 0
11 -20 -379 0
-69 -443 769 0
-333 -549 650 0
435 456 650 0
-520 -672 751 0
80 564 734 0
-297 -425 605 0
-540 -574 796 0
-69 548 -578 0
-275 -352 -492 0
121 324 452 0
-256 344 -530 0
18 -150 -662 0
218 294 -559 0
-352 460 -736 0
-268 455 -490 0
-94 -617 776 0
476 -508 571 0
125 342 494 0
163 -672 756 0
-255 -428 -774 0
511 528 542 0
42 -80 443 0
-417 -434 -496 0
308 372 -682 0
-55 289 -377 0
-151 361 685 0
241 386 -762 0
254 -413 658 0
-463 -527 706 0
263 -341 780 0
122 347 -750 0
-268 570 -588 0
80 285 577 0
-108 472 -633 0
151 497 -610 0
36 133 669 0
11 -233 797 0
-50 619 -652 0
-46 -297 -320 0
452 461 570 0
-64 222 -549 0
-89 -310 616 0
121 138 -796 0
423 508 -713 0
-284 -656 -790 0
-290 350 -398 0
168 565 -792 0
225 382 -592 0
42 109 465 0
374 -380 -531 0
117 240 374 0
63 224 734 0
520 -646 772 0
-49 597 744 0
292 726 784 0
-33 82 690 0
-431 -493 671 0
246 -432 -532 0
-542 -709 -783 0
613 660 -704 0
-263 -334 495 0
-50 256 443 0
261 530 -569 0
341 495 750 0
-633 711 748 0
181 564 -729 0
-147 -237 -635 0
147 413 564 0
26 -128 281 0
217 -256 564 0
12 574 722 0
633 -647 769 0
-96 767 782 0
177 554 -780 0
-12 -158 -501 0
-614 -664 -677 0
231 -481 646 0
-141 -647 -716 0
-301 -417 628 0
-30 -292 -761 0
407 -538 567 0
-18 126 -129 0
-609 -759 796 0
-496 -504 -562 0
445 480 -716 0
-554 -606 761 0
372 -587 749 0
291 -306 748 0
-359 -670 686 0
-11 101 275 0
14 334 483 0
-363 -700 716 0
-178 260 799 0
188 -222 759 0
-449 634 -773 0
492 508 741 0
-50 -232 -641 0
589 -681 709 0
-114 220 -666 0
-176 -230 771 0
153 -323 -415 0
-121 -158 -166 0
-47 -371 387 0
200 514 680 0
317 -496 -648 0
-390 393 473 0
-251 -498 -793 0
195 -339 -700 0
272 -442 -768 0
-274 343 785 0
-18 333 706 0
282 298 -640 0
122 -354 -516 0
24 160 -242 0
-489 -494 700 0
-286 398 656 0
157 362 615 0
-168 455 637 0
186 -452 -608 0
151 232 -589 0
409 -527 -747 0
-234 237 -288 0
75 163 -596 0
224 -746 -755 0
-37 -328 -635 0
-294 -309 -379 0
26 37 -446 0
226 363 -692 0
-142 472 -604 0
124 -399 -406 0
21 -251 -503 0
107 -511 706 0
45 270 -490 0
-140 429 617 0
-201 378 -516 0
-65 592 -620 0
-102 -457 531 0
44 64 -794 0
235 532 587 0
-191 436 723 0
47 154 631 0
163 359 584 0
317 -691 -721 0
-127 611 -752 0
-6 -592 -647 0
-103 488 738 0
30 56 116 0
424 -475 777 0
510 627 -733 0
-147 258 -667 0
-384 412 -548 0
126 -433 -563 0
317 -323 -397 0
-39 -124 515 0
-155 406 765 0
-4 -123 -598 0
203 -547 772 0
-29 104 -136 0
293 -383 -405 0
-277 -428 478 0
181 -452 -630 0
112 134 136 0
-81 -197 207 0
29 127 711 0
-119 742 -773 0
280 413 627 0
8 -314 -601 0
-283 -353 -789 0
33 -275 -662 0
152 -309 535 0
-254 -535 606 0
247 369 -637 0
-160 -237 -748 0
-306 -552 573 0
218 -618 688 0
-465 -561 760 0
96 156 187 0
621 747 -776 0
108 -532 -591 0
-192 340 745 0
101 -492 -501 0
25 -593 760 0
150 363 -697 0
563 676 685 0
448 -581 621 0
133 182 -318 0
163 260 372 0
-27 567 723 0
-45 287 -687 0
-411 -442 482 0
21 -254 586 0
-74 533 642 0
-119 154 554 0
-161 -659 754 0
-552 570 -663 0
745 767 794 0
274 530 796 0
379 -631 -771 0
-109 -580 764 0
-68 586 696 0
72 -361 -620 0
-333 449 -746 0
-42 -342 548 0
-106 318 726 0
568 -689 768 0
-201 542 -736 0
-298 -543 -610 0
12 -601 608 0
64 -582 717 0
266 493 555 0
129 -320 402 0
-14 -428 743 0
-104 382 -521 0
11 327 349 0
-390 -554 768 0
495 -627 -684 0
-153 190 236 0
424 468 -708 0
-244 398 -401 0
-175 296 418 0
144 269 433 0
-72 -494 780 0
-207 -343 -560 0
-180 -252 711 0
-266 487 614 0
365 -659 -680 0
-9 692 700 0
-130 -240 -621 0
-119 199 -226 0
373 412 468 0
88 472 495 0
-175 -650 752 0
-3 -729 -778 0
-31 -651 776 0
256 519 -657 0
-517 600 -732 0
-148 242 246 0
40 -567 745 0
-166 -258 716 0
-75 -456 698 0
149 -413 627 0
-17 -56 -239 0
391 -661 -738 0
-612 -715 777 0
-266 -385 -629 0
-171 523 553 0
69 -209 277 0
-675 745 -746 0
217 -296 -379 0
82 -251 -692 0
-183 245 -623 0
121 333 -518 0
32 500 -769 0
354 -637 -732 0
52 -647 771 0
267 323 401 0
212 243 -408 0
179 683 -724 0
-267 504 -747 0
-301 324 786 0
106 293 513 0
84 -651 689 0
57 -503 -646 0
-56 151 210 0
-89 -412 -682 0
293 383 511 0
51 259 -532 0
-296 -435 640 0
11 194 648 0
-284 -302 -637 0
-83 -161 293 0
-194 -211 -727 0
103 210 -578 0
-91 -209 -332 0
235 446 621 0
266 439 756 0
64 -98 799 0
43 -237 -422 0
465 -641 -719 0
-302 -526 614 0
-57 147 710 0
467 -612 781 0
106 -653 -763 0
-247 -475 -701 0
-307 337 -347 0
-117 238 -536 0
-452 666 686 0
-50 -387 563 0
-92 -126 -792 0
-148 -447 620 0
-307 705 -762 0
-128 137 -605 0
427 -494 731 0
-462 -514 786 0
-11 73 -571 0
361 -418 -546 0
16 519 -584 0
8 -143 597 0
-180 -313 -439 0
23 -623 635 0
-91 -384 653 0
165 354 -635 0
475 -726 -756 0
-477 658 675 0
409 -518 -750 0
8 43 236 0
37 -576 -678 0
-365 -641 -747 0
-302 336 -344 0
368 386 -525 0
305 555 -745 0
121 -283 -746 0
-115 590 775 0
-49 89 416 0
-453 -554 626 0
147 500 536 0
-408 -523 755 0
-366 502 663 0
-276 -574 -622 0
240 -504 534 0
-440 477 -759 0
-3 179 569 0
200 -410 -571 0
173 -388 -630 0
-15 -312 369 0
-411 438 -693 0
260 535 656 0
-467 703 737 0
-233 -534 614 0
-418 675 762 0
109 -330 -362 0
365 -412 -486 0
-173 -235 -671 0
-170 -240 613 0
-316 489 569 0
-149 -188 387 0
440 -585 -744 0
-433 -468 644 0
-25 -568 724 0
54 594 600 0
200 643 683 0
-504 -530 613 0
-163 -479 -618 0
-202 -770 -776 0
154 255 -702 0
-223 242 455 0
233 -679 -697 0
-24 -378 728 0
-224 -286 -375 0
-286 -351 -493 0
-187 684 753 0
-130 295 548 0
122 -307 491 0
-490 584 693 0
-12 174 705 0
-246 476 -575 0
-275 -461 778 0
-604 672 780 0
102 -537 -647 0
94 -392 -692 0
76 247 690 0
235 -450 767 0
117 -194 -770 0
-44 -305 713 0
49 110 -754 0
285 529 -600 0
-175 568 794 0
14 -105 -607 0
1 -337 -695 0
528 -550 -600 0
-466 -541 -609 0
-453 569 -781 0
-78 -411 -754 0
-254 398 432 0
-503 -663 717 0
-134 144 -345 0
149 -226 400 0
-16 347 -579 0
285 466 -609 0
-347 606 725 0
-32 557 -653 0
457 -527 -656 0
257 -531 712 0
-142 -259 -342 0
532 -642 775 0
204 -255 -603 0
-184 191 225 0
211 -275 -307 0
-553 627 -672 0
-220 -529 -531 0
280 440 -711 0
330 -522 617 0
240 -374 412 0
432 736 796 0
49 -312 -466 0
230 -551 689 0
398 -707 -732 0
219 -529 762 0
-345 -456 -489 0
507 696 -774 0
-263 -624 742 0
-535 -556 -666 0
47 737 757 0
-272 465 764 0
277 368 530 0
-53 99 345 0
469 -602 716 0
176 192 -553 0
-201 -492 643 0
300 -604 -627 0
-94 361 -570 0
-17 -189 -559 0
-1 -118 520 0
-267 275 450 0
74 -375 391 0
294 610 669 0
-237 356 -434 0
101 136 -571 0
-51 -146 342 0
-113 353 370 0
-54 -122 290 0
-594 -623 733 0
-83 256 -653 0
21 53 391 0
141 -511 -591 0
294 588 624 0
-271 -376 -707 0
-140 -274 -799 0
43 149 -620 0
168 203 290 0
11 -351 -689 0
22 348 -548 0
41 291 -445 0
29 -186 -681 0
-560 -619 -706 0
-290 410 778 0
412 -610 -651 0
100 -146 -477 0
28 35 159 0
-409 -470 -771 0
-570 588 713 0
-504 521 -557 0
263 301 -320 0
74 389 477 0
692 -736 -788 0
-47 -169 -338 0
60 -418 -705 0
9 -249 623 0
68 329 596 0
-124 422 -470 0
-74 -205 -297 0
34 120 -708 0
-208 248 386 0
-16 -364 786 0
-54 152 -611 0
142 -222 -422 0
41 435 600 0
-111 115 -116 0
217 690 694 0
-305 322 793 0
12 104 332 0
-74 -556 -654 0
440 -444 624 0
7 45 430 0
-269 -471 -579 0
272 -552 -800 0
-40 -108 135 0
76 606 -778 0
-153 -652 731 0
-11 -166 -334 0
69 -202 -524 0
3 -605 693 0
300 -342 493 0
-311 402 -752 0
-122 152 -765 0
-357 -365 -510 0
269 508 546 0
221 264 -307 0
-88 -645 758 0
-609 -686 794 0
-107 -298 639 0
168 -171 -597 0
189 -222 -345 0
148 418 658 0
391 -517 -603 0
-50 -425 642 0
11 591 670 0
559 -594 -700 0
-29 366 744 0
248 389 636 0
-138 -175 -181 0
171 -559 -754 0
-202 -493 -749 0
-134 -336 594 0
263 372 -625 0
372 397 -677 0
-420 -468 -603 0
292 -503 708 0
-88 -351 -719 0
-330 354 521 0
-155 -266 334 0
-242 624 720 0
255 609 715 0
163 199 395 0
261 -319 -532 0
-7 470 495 0
103 -528 694 0
-531 555 -733 0
-118 -591 -746 0
-427 645 704 0
116 -701 -797 0
-153 458 -470 0
482 529 628 0
-127 -189 235 0
599 634 724 0
-331 -421 -724 0
449 -657 684 0
218 -262 596 0
-302 540 -726 0
166 174 -626 0
558 -675 721 0
504 -726 -782 0
359 662 -787 0
27 85 598 0
-550 -679 689 0
-360 397 518 0
578 634 727 0
-292 616 768 0
113 642 -708 0
-269 -556 756 0
473 -755 764 0
623 -725 -749 0
-121 -573 -777 0
-128 -305 -489 0
-642 721 778 0
-15 -282 740 0
123 124 448 0
335 448 -648 0
175 445 551 0
-130 -440 564 0
-446 -629 -754 0
-393 418 -526 0
327 345 403 0
8 153 745 0
-147 434 -589 0
-18 -288 -441 0
193 -298 -353 0
-226 246 -669 0
-250 -265 407 0
-195 657 -698 0
-24 129 -785 0
-6 -208 -541 0
183 426 630 0
114 336 620 0
-404 -510 -601 0
197 556 -736 0
326 -453 618 0
-308 -518 665 0
91 -616 762 0
-364 -688 761 0
-228 -337 -438 0
-85 156 694 0
-279 422 562 0
-143 459 783 0
154 -396 -440 0
-335 -410 526 0
-420 445 741 0
-10 -103 208 0
90 -296 440 0
361 691 -796 0
-75 662 765 0
-101 394 -753 0
490 696 716 0
217 -339 762 0
4 -104 463 0
-21 107 -381 0
-23 -267 445 0
-439 -492 -503 0
14 -145 -248 0
81 -252 -374 0
-93 -178 789 0
-183 466 581 0
-56 -308 395 0
-13 411 -455 0
16 -303 -481 0
151 -269 -633 0
-619 653 -655 0
262 -412 -552 0
295 -393 -678 0
119 -555 -597 0
172 -493 586 0
-63 242 -305 0
277 -597 -692 0
-106 -118 -559 0
-27 480 754 0
-173 -613 655 0
-525 739 -780 0
151 535 -745 0
-71 -552 -582 0
-93 -316 -421 0
-360 -398 -769 0
305 -504 -525 0
-349 419 -719 0
-229 240 -657 0
247 -350 617 0
496 -630 703 0
136 181 190 0
-91 -582 -778 0
-233 -518 -727 0
426 575 -717 0
51 271 -457 0
-507 538 690 0
241 -389 -413 0
-96 207 -504 0
336 -373 532 0
32 369 -610 0
43 -336 391 0
18 84 609 0
144 248 -674 0
-142 172 760 0
-185 251 -334 0
41 121 225 0
-81 -391 -568 0
171 -442 -723 0
464 478 -664 0
-235 375 680 0
3 179 -394 0
73 399 510 0
175 -386 -736 0
322 -543 -771 0
105 -124 125 0
90 659 798 0
-179 -702 726 0
375 -666 -762 0
-139 -230 -675 0
-384 629 641 0
345 349 -693 0
-248 -272 650 0
-417 -532 -786 0
63 178 547 0
238 527 692 0
651 663 -709 0
-103 156 -198 0
-190 264 682 0
117 527 -633 0
-80 -215 496 0
275 -567 -672 0
-172 -424 -466 0
561 -596 -788 0
-105 -202 307 0
134 -695 -773 0
5 -389 -742 0
5 -89 412 0
-105 -498 537 0
146 -154 326 0
-24 478 -722 0
84 -279 745 0
64 -364 -791 0
302 -361 -651 0
142 365 -420 0
39 361 611 0
-558 -671 797 0
15 -309 -443 0
-257 -298 -609 0
-172 643 732 0
126 -292 -348 0
-32 -393 -791 0
-224 465 -637 0
-53 -123 502 0
82 -97 -502 0
-260 -287 -568 0
-86 -428 684 0
327 332 -690 0
411 499 -723 0
196 -599 678 0
488 -594 601 0
-402 -504 580 0
176 215 294 0
146 175 -752 0
231 -581 754 0
151 -378 639 0
-426 -443 637 0
-138 -723 730 0
122 -577 -754 0
18 -395 529 0
-201 -448 -624 0
-181 290 -691 0
12 -405 -773 0
-25 691 -795 0
-20 439 556 0
103 239 294 0
-143 -170 -655 0
493 -639 -723 0
-135 458 -631 0
-40 -71 286 0
-163 240 -738 0
3 82 -169 0
198 215 621 0
274 381 736 0
303 -504 610 0
231 398 -528 0
-83 420 780 0
455 -712 -766 0
17 175 312 0
-252 -280 461 0
-23 -278 494 0
-21 576 -662 0
-113 -224 -591 0
131 -168 256 0
85 -179 -464 0
81 -296 405 0
434 -475 -658 0
286 -704 710 0
440 705 726 0
-107 -363 747 0
14 -717 -800 0
-264 -306 565 0
154 -436 -661 0
12 -450 -701 0
212 -348 565 0
189 531 -722 0
-96 -187 511 0
-149 198 348 0
365 -466 704 0
-342 439 -515 0
-124 -304 -358 0
-92 -389 -470 0
-218 520 -705 0
-374 -653 716 0
369 -431 -742 0
10 -18 -530 0
-226 428 -789 0
-498 -585 624 0
103 -146 419 0
146 -443 753 0
272 370 668 0
-254 -263 -547 0
-188 218 -268 0
-534 -655 758 0
-86 -747 -774 0
60 -352 421 0
-173 -230 -698 0
217 229 -476 0
246 273 -721 0
-371 -766 -787 0
432 529 640 0
-104 -355 619 0
122 242 -321 0
497 600 -757 0
-362 564 640 0
18 -179 564 0
17 126 641 0
178 -289 -523 0
17 -680 701 0
-403 -446 568 0
254 -575 -715 0
-153 -343 -610 0
324 -582 704 0
222 754 -786 0
-4 -539 616 0
223 317 -761 0
71 -756 -800 0
-215 -276 -779 0
-57 -134 -362 0
600 -657 685 0
244 -539 -570 0
-100 -301 -531 0
89 -589 -666 0
-673 746 -798 0
8 484 -797 0
89 -666 797 0
-644 -655 777 0
399 -439 -678 0
103 148 557 0
-205 228 -327 0
-66 427 -640 0
-32 347 761 0
-159 301 329 0
-38 169 -747 0
258 368 416 0
10 33 494 0
268 591 599 0
213 625 724 0
-265 341 769 0
-89 457 782 0
14 -262 296 0
-203 -685 788 0
430 478 622 0
-7 67 -235 0
405 486 706 0
-13 -616 -723 0
95 -269 -450 0
-12 427 721 0
626 654 -680 0
-37 -214 222 0
-558 651 746 0
-156 297 -427 0
-110 238 -371 0
298 418 -633 0
-321 -361 -438 0
601 -633 -774 0
209 -363 669 0
104 240 368 0
-160 468 503 0
-132 596 -767 0
459 -503 753 0
-389 -696 722 0
-80 -539 583 0
-387 -444 658 0
-261 616 631 0
239 367 -668 0
12 -215 -493 0
332 484 -743 0
-192 -218 -299 0
-72 -188 397 0
418 -551 -763 0
249 -297 518 0
-75 421 670 0
139 235 678 0
80 191 -483 0
292 461 648 0
-75 143 665 0
211 359 -439 0
-346 610 752 0
-72 469 -736 0
-368 407 -583 0
104 -505 778 0
-160 446 711 0
-175 -423 -669 0
-52 -145 -478 0
102 441 524 0
335 521 -647 0
-115 -285 483 0
-82 404 460 0
277 672 769 0
-332 -409 734 0
-399 467 -650 0
78 766 768 0
13 -443 709 0
168 314 460 0
-34 344 697 0
653 -673 -693 0
-175 -213 468 0
70 -409 635 0
16 463 710 0
-59 -451 795 0
-3 376 607 0
-91 -493 -684 0
82 744 -793 0
234 -304 -582 0
-2 -494 -542 0
148 276 570 0
-204 -494 595 0
-299 557 599 0
431 459 -578 0
69 95 -621 0
366 603 769 0
81 391 -713 0
117 122 681 0
77 -330 -636 0
190 627 751 0
224 -465 -660 0
273 341 -393 0
282 -421 -663 0
-178 -392 789 0
297 -553 643 0
-151 180 -784 0
-235 557 616 0
-40 -572 694 0
167 -193 -196 0
-18 234 -309 0
-259 -415 697 0
255 -277 -301 0
124 -188 739 0
-113 127 -752 0
-244 336 -476 0
-341 -518 -609 0
29 -424 -457 0
286 415 612 0
-18 81 733 0
-47 -712 747 0
-202 -272 626 0
121 413 -525 0
-21 419 -705 0
-295 -766 -782 0
356 466 674 0
-84 -618 -790 0
394 -486 519 0
77 -150 -294 0
201 279 -321 0
-7 220 -556 0
-574 624 678 0
-113 -435 -477 0
-97 316 -715 0
20 156 728 0
-151 -298 553 0
191 479 670 0
-86 -483 -714 0
-93 -417 721 0
174 -483 -488 0
-109 335 -575 0
-120 -433 -707 0
142 248 481 0
34 -69 -230 0
9 146 271 0
306 -567 750 0
539 606 -611 0
-213 -218 373 0
-42 54 -637 0
-78 -319 -754 0
341 -530 -736 0
-356 -471 659 0
217 525 653 0
681 758 -764 0
242 -597 602 0
215 -449 763 0
-61 214 -682 0
146 507 523 0
-82 424 -789 0
39 -254 511 0
-209 -463 -472 0
-259 316 -711 0
-26 57 -90 0
93 165 394 0
39 -393 -455 0
-48 -338 705 0
-139 167 -616 0
16 -427 622 0
-11 -216 436 0
97 304 731 0
166 592 -749 0
-44 237 337 0
-102 405 -461 0
245 377 -594 0
-629 -758 769 0
110 -116 -774 0
-468 -570 667 0
47 98 -645 0
-56 660 749 0
464 -546 -603 0
10 -16 333 0
-326 696 -789 0
588 -668 742 0
318 -380 466 0
-8 64 732 0
27 350 -491 0
399 -599 771 0
184 204 -789 0
469 480 562 0
418 465 654 0
43 -206 -300 0
53 -119 -225 0
-346 -574 709 0
-417 535 794 0
-348 -383 -490 0
-238 420 -658 0
148 -635 -653 0
415 507 767 0
-203 409 752 0
156 273 -584 0
-107 -291 -618 0
-3 -553 779 0
-252 643 740 0
36 -574 -736 0
108 273 -391 0
-43 -266 760 0
604 738 -757 0
-4 -50 622 0
-113 278 -448 0
-98 358 -670 0
147 -648 720 0
520 -546 -698 0
-33 267 -313 0
471 674 720 0
-179 528 -572 0
110 640 641 0
-248 451 520 0
99 -222 346 0
-354 418 -547 0
-93 267 -634 0
55 -317 759 0
121 -345 567 0
-148 -189 784 0
-341 -749 -775 0
231 -359 627 0
606 635 -732 0
-115 187 257 0
157 -364 568 0
-235 -344 675 0
-147 -229 534 0
155 586 658 0
254 -272 -691 0
-171 -601 731 0
191 575 595 0
-553 585 716 0
25 -263 679 0
-90 189 -655 0
-270 -351 610 0
-243 -654 -782 0
-483 -587 -622 0
-27 -575 -748 0
-98 498 -718 0
-139 -317 768 0
-459 569 -602 0
317 -363 -653 0
34 218 -661 0
-6 173 -282 0
-17 -567 -772 0
147 522 758 0
-525 -542 745 0
154 -194 695 0
-67 -114 598 0
-37 177 413 0
53 -188 -475 0
97 329 620 0
-78 -284 -782 0
-182 -207 521 0
-35 411 625 0
-125 -177 285 0
62 -187 -270 0
-54 132 -391 0
409 -609 -653 0
-35 149 -735 0
-151 210 686 0
16 -113 397 0
73 -548 -716 0
-85 -428 760 0
135 361 413 0
-133 363 -470 0
155 315 -344 0
-504 -573 590 0
249 -699 710 0
412 -471 -686 0
321 -468 -571 0
107 -245 -261 0
15 -103 -669 0
107 339 683 0
165 -566 -596 0
-189 293 350 0
46 -302 -679 0
-224 416 535 0
-163 -198 245 0
143 419 -478 0
-11 -126 -364 0
173 -228 269 0
286 -341 -401 0
-2 -16 599 0
72 -101 -378 0
-162 352 -469 0
74 -350 478 0
488 682 -773 0
-257 -427 -602 0
-57 212 -411 0
-167 -179 705 0
90 428 495 0
-30 -514 668 0
147 -159 -570 0
159 212 451 0
481 -520 763 0
-50 396 650 0
-220 -410 -430 0
169 394 796 0
-306 -433 -583 0
84 229 613 0
-152 -376 616 0
118 -135 -759 0
84 -135 -451 0
-93 -674 696 0
446 577 797 0
344 612 -769 0
-141 -362 663 0
259 -506 -757 0
66 399 439 0
22 368 -643 0
-86 532 -596 0
211 380 694 0
-126 227 -667 0
-121 551 -599 0
-425 -491 580 0
-51 -241 -535 0
562 566 664 0
-32 -130 240 0
71 -322 700 0
-321 477 583 0
-104 435 -549 0
-183 -215 -754 0
-204 455 519 0
160 -322 763 0
-203 485 -773 0
-27 528 -545 0
-65 -338 -567 0
116 -362 553 0
159 473 738 0
131 -160 514 0
-99 487 547 0
413 -514 614 0
-152 189 442 0
-31 -318 -729 0
264 324 -334 0
-469 -500 512 0
-14 -496 -707 0
213 241 632 0
-157 320 512 0
-88 -288 485 0
35 -60 149 0
101 399 -760 0
413 499 615 0
-133 -417 -672 0
-645 673 717 0
376 465 661 0
-518 -608 685 0
-429 -684 753 0
434 -505 718 0
-170 -236 -738 0
-219 -345 606 0
-380 632 -774 0
-14 174 192 0
22 -288 -606 0
33 99 -778 0
-19 -172 267 0
-8 -215 254 0
-211 -574 -639 0
564 675 -685 0
-52 -489 -556 0
-167 296 483 0
262 326 -369 0
142 493 725 0
-165 254 572 0
225 531 -615 0
-319 554 658 0
-7 8 327 0
110 144 390 0
37 74 633 0
-176 -431 501 0
-169 520 555 0
-1 -470 -611 0
-158 448 -752 0
-90 184 -275 0
-37 -104 192 0
-84 287 -765 0
-295 471 -695 0
14 125 -539 0
103 -577 580 0
-72 107 426 0
212 -288 -701 0
164 -180 -193 0
-235 370 -793 0
-429 468 648 0
430 -516 -794 0
-229 -512 679 0
-568 596 -602 0
-266 -527 544 0
317 -376 677 0
-296 532 -608 0
195 484 789 0
-299 -710 -786 0
179 636 717 0
436 548 729 0
453 656 765 0
7 -27 -211 0
-116 345 774 0
70 -166 -652 0
-39 61 349 0
-124 -189 -342 0
33 208 754 0
-167 374 501 0
-17 -344 735 0
-165 205 411 0
231 356 -485 0
148 -656 -687 0
-98 -185 -679 0
-145 -394 618 0
250 -708 715 0
53 56 -310 0
162 235 -635 0
451 -570 695 0
212 -336 -481 0
242 -379 -388 0
-75 -445 531 0
-64 -66 -675 0
-595 -659 743 0
102 -281 -441 0
-44 150 -399 0
-91 -704 -771 0
-168 696 -740 0
40 -529 565 0
-294 -315 453 0
126 205 785 0
319 505 -589 0
-297 741 -745 0
67 -76 -617 0
-31 303 483 0
-51 -342 663 0
514 -634 690 0
159 387 417 0
-279 339 -600 0
306 586 744 0
-231 348 -728 0
676 679 731 0
-442 521 -734 0
205 -752 -793 0
219 -362 792 0
324 -547 -753 0
59 364 -551 0
-56 -404 -779 0
111 -294 -542 0
147 267 497 0
-42 462 672 0
-184 537 760 0
-124 -428 584 0
176 -576 778 0
57 -155 -713 0
47 -93 -701 0
-207 290 -659 0
306 312 515 0
73 -403 586 0
-120 -581 710 0
92 -319 750 0
-70 -151 527 0
-225 -299 486 0
31 -377 656 0
-277 537 -689 0
58 -371 -663 0
631 671 783 0
263 -319 555 0
11 367 -532 0
-4 444 794 0
180 206 -351 0
-547 -590 715 0
420 584 -664 0
-581 -644 -735 0
-76 439 -631 0
421 630 767 0
-394 702 -772 0
-172 358 -445 0
286 374 484 0
442 -595 737 0
213 -310 608 0
373 -696 -704 0
-250 302 531 0
-81 179 216 0
10 171 -588 0
-49 194 -199 0
-34 76 110 0
146 364 690 0
16 289 -316 0
177 -315 709 0
-12 -581 -712 0
-326 421 -726 0
202 -407 -679 0
-304 -408 -438 0
-18 188 -489 0
74 -624 -763 0
439 541 -602 0
-172 250 -516 0
107 -292 673 0
271 -399 621 0
-445 483 -536 0
57 669 -670 0
-77 -352 467 0
-54 -160 -401 0
-169 282 -412 0
-348 350 -366 0
464 517 -731 0
592 -678 786 0
-33 368 -646 0
2 -609 -712 0
-62 -690 -750 0
122 528 -575 0
-92 142 -737 0
-162 373 471 0
207 395 -489 0
112 -398 -713 0
-168 618 672 0
-196 -669 679 0
-363 468 714 0
23 129 -328 0
-708 789 -796 0
285 312 462 0
105 272 -644 0
61 -453 -462 0
126 376 731 0
-39 -294 662 0
-109 -247 -577 0
256 387 524 0
-475 -589 -629 0
400 507 723 0
253 -348 -659 0
105 -198 -291 0
-127 -491 740 0
-60 -366 -413 0
-531 738 -757 0
-429 462 -554 0
-668 669 -690 0
211 -551 664 0
-84 533 -606 0
136 -623 -756 0
494 610 -763 0
347 608 -635 0
232 352 415 0
66 -269 -668 0
287 577 -762 0
89 351 650 0
-61 199 725 0
97 -346 -784 0
-655 690 -780 0
-60 -131 163 0
-31 333 709 0
-238 243 316 0
433 -685 -744 0
175 -635 -731 0
149 345 448 0
257 393 608 0
-140 -240 759 0
244 -268 -740 0
-319 547 695 0
-596 624 -658 0
74 -519 -668 0
55 561 -654 0
21 71 707 0
