c Phase 3 random 3-SAT negative control
c seed=51030
c ratio=4.26
c variant=planted_sat
c expected=SATISFIABLE
p cnf 150 639
-91 113 150 0
-52 76 -79 0
-82 -84 90 0
108 -119 -144 0
-2 -21 73 0
31 -56 -88 0
-67 76 -147 0
95 -99 122 0
-50 -70 77 0
18 75 139 0
-36 95 149 0
31 -127 -138 0
5 43 134 0
-20 33 -116 0
-122 -125 -139 0
-66 -113 120 0
-51 -73 -107 0
-67 -81 -100 0
73 -127 130 0
-7 70 125 0
-4 -98 121 0
-14 60 -144 0
31 75 100 0
75 -102 -124 0
-121 128 146 0
-40 -75 139 0
68 -77 109 0
-77 -80 -91 0
-41 -89 143 0
78 -82 135 0
3 45 98 0
68 -138 142 0
-123 -125 -130 0
-35 -96 133 0
9 26 -149 0
21 121 -150 0
59 73 91 0
70 79 97 0
-59 -74 -114 0
42 -97 146 0
56 -127 -137 0
19 -112 -122 0
-9 65 108 0
-15 -113 140 0
10 -15 -62 0
-9 34 -142 0
20 51 -80 0
7 -87 -111 0
83 -93 -134 0
-49 88 127 0
1 21 140 0
32 93 119 0
59 -60 131 0
-63 115 -127 0
-99 -121 -131 0
13 97 115 0
-18 31 122 0
-11 32 147 0
24 32 -112 0
59 -64 -115 0
57 -93 -122 0
91 -123 148 0
-64 76 -125 0
-10 86 -146 0
22 75 120 0
75 79 -133 0
-20 -57 -133 0
-5 -43 -46 0
17 -23 27 0
87 89 -110 0
17 -44 69 0
76 -78 89 0
-13 57 144 0
56 -79 -85 0
-7 -27 147 0
30 43 114 0
-18 48 100 0
70 -102 146 0
-11 -70 119 0
85 -136 145 0
32 48 65 0
19 79 82 0
-10 -86 -91 0
84 120 121 0
102 -118 122 0
-55 -94 -112 0
9 40 82 0
86 98 -144 0
-21 43 -146 0
-49 -125 141 0
17 23 35 0
19 81 -109 0
-42 -98 99 0
24 91 113 0
-3 28 -61 0
43 57 -66 0
63 -87 141 0
74 -122 -131 0
-6 -35 -141 0
-91 -100 120 0
-87 -96 118 0
-7 81 -128 0
-38 -45 -69 0
55 -103 -124 0
18 94 -136 0
14 38 76 0
-30 -71 95 0
-53 -86 -90 0
-20 70 -75 0
-36 -54 -85 0
92 -97 102 0
-77 -130 145 0
59 -62 -86 0
16 34 110 0
1 -29 114 0
-52 61 67 0
7 18 68 0
85 -101 141 0
-62 -111 -122 0
80 -85 -133 0
-53 -82 143 0
-5 -70 -79 0
50 71 -103 0
14 -48 69 0
-94 -109 118 0
-14 -57 -137 0
-29 69 124 0
56 100 144 0
-31 45 70 0
-61 -86 -94 0
-37 -104 -130 0
13 63 64 0
-60 -71 145 0
32 38 -44 0
-11 33 -108 0
17 -73 145 0
-35 -37 -49 0
-43 66 -131 0
51 -93 132 0
-11 90 -97 0
62 -109 -125 0
31 109 -141 0
-68 82 -150 0
-21 -64 102 0
12 130 133 0
42 148 -149 0
29 49 88 0
-9 66 122 0
11 51 54 0
48 131 -143 0
38 76 85 0
-6 110 149 0
5 25 -149 0
31 32 -136 0
-20 -24 84 0
-32 -88 130 0
-17 -68 89 0
-89 -99 128 0
-79 -108 127 0
-6 11 71 0
19 114 129 0
76 95 119 0
87 124 139 0
4 67 105 0
-4 -30 37 0
89 -92 128 0
-10 79 147 0
-35 -92 99 0
-76 -114 140 0
30 111 -149 0
-34 39 -54 0
-7 -79 92 0
-32 43 -59 0
1 97 -99 0
33 -48 128 0
-30 -116 117 0
64 -97 147 0
-63 -72 149 0
-4 -15 -58 0
-34 -45 -60 0
-5 -18 -132 0
-69 138 -142 0
80 104 -137 0
-11 -27 119 0
12 27 32 0
-27 100 128 0
28 75 -122 0
10 -37 -71 0
9 13 -111 0
-4 -31 94 0
-18 48 -116 0
46 -75 108 0
-62 90 -92 0
51 93 -95 0
-73 102 112 0
46 127 -146 0
9 -37 88 0
32 -83 -84 0
-3 -20 112 0
-94 95 100 0
5 -108 -139 0
35 71 -139 0
49 102 -113 0
-33 -62 67 0
30 70 105 0
28 -107 -126 0
-21 34 -112 0
-9 -101 102 0
-70 -78 98 0
19 -23 98 0
8 -45 -64 0
-6 -19 112 0
-87 -106 109 0
57 84 -97 0
18 -21 -47 0
6 83 -95 0
46 -122 142 0
70 -71 122 0
31 -41 -83 0
14 -125 131 0
23 -73 140 0
-48 -50 -64 0
-17 -105 -122 0
35 -93 125 0
12 79 88 0
-14 96 100 0
-37 -76 116 0
-76 -111 -114 0
-28 -101 141 0
8 12 -99 0
-70 -99 -150 0
26 71 -113 0
27 -68 -74 0
-31 62 68 0
-46 -130 133 0
24 88 118 0
11 -83 115 0
54 -115 150 0
-106 -121 140 0
-15 92 138 0
33 48 -149 0
-3 61 -115 0
-14 65 76 0
-58 78 102 0
32 -84 147 0
-16 55 59 0
66 -89 -123 0
25 62 -84 0
-76 110 -113 0
-45 49 -124 0
-6 -27 48 0
42 45 141 0
-18 -38 -64 0
41 -65 -149 0
2 122 147 0
-7 -11 126 0
6 41 119 0
63 69 72 0
-23 54 93 0
-79 -81 129 0
34 -70 137 0
-16 25 90 0
-4 83 125 0
3 88 137 0
-67 129 -145 0
-6 38 46 0
8 30 -138 0
-91 -102 -148 0
21 -91 142 0
40 122 126 0
-12 89 -105 0
79 -106 129 0
26 81 87 0
18 -42 -145 0
-34 92 116 0
42 60 101 0
-53 75 90 0
-5 17 89 0
-70 -76 -111 0
11 79 116 0
-24 51 63 0
-33 43 -122 0
-85 89 -145 0
-48 -77 -97 0
1 -34 -63 0
26 46 -86 0
29 -90 132 0
76 110 136 0
-50 -124 -139 0
-65 94 -111 0
-70 80 -94 0
64 80 113 0
-70 109 123 0
28 -108 145 0
23 -39 117 0
-9 -56 145 0
-36 86 -100 0
18 -58 82 0
-11 -72 131 0
39 86 -90 0
2 -98 133 0
-24 -54 -77 0
-29 70 -86 0
20 -105 -139 0
-50 -106 149 0
-27 91 128 0
26 48 81 0
-11 -28 -35 0
-10 73 95 0
-122 125 -132 0
11 -43 95 0
-85 100 108 0
-88 98 -111 0
17 18 117 0
47 86 -134 0
-24 -101 -117 0
-26 -27 -118 0
20 -40 83 0
-19 58 92 0
-6 23 -40 0
-52 111 125 0
-2 7 138 0
24 46 -91 0
7 -35 70 0
55 -114 131 0
10 -56 -95 0
-42 -110 149 0
1 -80 -106 0
-52 78 -139 0
-7 81 127 0
28 39 43 0
63 -90 138 0
29 69 -91 0
14 -24 108 0
-53 72 -132 0
-22 -65 150 0
48 -73 89 0
-17 44 -130 0
-83 -98 -115 0
-60 -113 140 0
-71 -73 84 0
23 -29 -40 0
44 48 124 0
-20 39 96 0
78 -86 -117 0
-14 -117 128 0
7 -139 142 0
-42 68 95 0
32 -58 -101 0
31 66 98 0
26 -107 142 0
2 89 116 0
-20 -44 -45 0
54 -70 -99 0
68 106 -117 0
-68 119 -132 0
6 11 95 0
-2 -29 -49 0
-57 143 149 0
56 -115 148 0
-19 -96 -137 0
-108 120 -122 0
-7 53 67 0
-55 71 145 0
-50 -65 -90 0
25 -69 73 0
-23 -49 -102 0
-4 14 113 0
7 -25 -38 0
47 -91 124 0
-20 71 92 0
-3 52 -143 0
19 -77 128 0
-18 30 124 0
35 102 138 0
6 9 -97 0
-10 -86 142 0
-145 147 149 0
9 22 130 0
18 -83 87 0
33 124 134 0
-10 49 -58 0
21 -36 51 0
-88 118 125 0
-79 130 -150 0
-15 -90 140 0
30 66 101 0
-32 99 135 0
-81 95 140 0
41 -99 147 0
51 -79 -105 0
-20 -73 -80 0
-72 -105 123 0
-8 140 -143 0
-55 102 -132 0
49 68 147 0
-47 74 77 0
-34 51 -130 0
-28 -89 110 0
18 -79 -106 0
22 26 96 0
-42 -48 -108 0
55 90 131 0
-83 100 -101 0
-30 -69 -133 0
-2 -21 -122 0
-4 -107 -140 0
-4 -111 130 0
56 113 132 0
27 38 100 0
44 -122 135 0
-38 -92 105 0
-50 -71 125 0
63 -67 139 0
12 42 133 0
11 -37 -107 0
-18 -45 115 0
54 98 142 0
-43 -49 -104 0
-35 80 -114 0
-44 -46 133 0
-21 118 138 0
-9 -33 44 0
23 -43 -93 0
82 -112 -143 0
-84 136 147 0
53 67 -96 0
-20 133 -135 0
-12 58 -103 0
-68 -74 -138 0
19 65 -150 0
-27 50 -57 0
-24 41 -96 0
-12 19 -33 0
-26 -78 -80 0
-59 73 84 0
-21 45 -67 0
87 -98 109 0
40 87 -95 0
9 10 136 0
-21 32 80 0
-97 -110 132 0
-43 74 148 0
5 28 -75 0
-15 106 127 0
23 -103 -128 0
-84 102 -131 0
14 -30 35 0
15 -31 -140 0
33 -64 -94 0
-77 -100 -120 0
-11 -18 -107 0
-28 -76 -97 0
-99 129 -134 0
-30 94 137 0
-2 -6 -143 0
7 53 134 0
-45 -66 -112 0
-64 69 117 0
-55 -86 -90 0
47 -73 -138 0
61 66 -85 0
74 101 149 0
44 58 -89 0
29 127 -146 0
46 -82 140 0
58 143 144 0
-88 98 -102 0
23 32 -121 0
24 -41 -87 0
-4 -26 54 0
33 72 -124 0
-2 20 -150 0
-10 30 132 0
-6 -59 -61 0
-20 -40 55 0
-34 56 111 0
-84 110 -114 0
-12 61 137 0
-19 -64 -94 0
65 72 -115 0
64 -108 109 0
-11 -103 -107 0
-32 115 -123 0
27 -90 -109 0
29 -30 -71 0
-83 -89 108 0
47 58 -133 0
-4 -30 127 0
-13 37 -111 0
-51 -73 -105 0
-11 48 -74 0
-22 78 149 0
-40 -101 -125 0
35 -57 -60 0
-90 -141 147 0
47 -105 -122 0
5 63 -109 0
22 -70 111 0
36 38 110 0
60 82 -142 0
-4 18 -84 0
-52 -94 -127 0
-47 55 77 0
-30 56 -150 0
-28 -95 138 0
-40 -107 -126 0
6 -49 127 0
28 41 -108 0
-35 76 -126 0
77 108 140 0
64 73 147 0
85 -105 -106 0
-5 -46 -53 0
-83 98 -100 0
-38 82 147 0
23 -89 149 0
8 -30 -77 0
12 -37 119 0
-39 -103 -110 0
10 34 -131 0
-6 -23 26 0
91 -129 148 0
-58 96 104 0
-48 91 -103 0
25 -88 116 0
34 -82 -123 0
23 56 -149 0
64 100 110 0
-26 124 -148 0
51 -101 118 0
103 106 -113 0
-10 -101 -116 0
-67 -75 -125 0
16 36 46 0
38 -52 118 0
36 -37 43 0
-48 -91 143 0
-106 -141 148 0
4 23 -78 0
-10 47 -120 0
6 48 -62 0
60 -67 -92 0
8 -52 110 0
-87 -110 111 0
79 107 -115 0
57 71 117 0
-22 -88 122 0
-71 79 -129 0
-14 -69 -103 0
-2 9 -60 0
-133 -137 143 0
52 124 -132 0
-64 -113 120 0
5 68 86 0
-29 -91 95 0
-37 77 -126 0
-19 -60 137 0
48 52 89 0
45 46 121 0
14 52 -105 0
-17 48 143 0
-45 -108 137 0
63 -79 95 0
43 49 105 0
-12 107 127 0
18 -34 86 0
13 130 137 0
10 13 -97 0
-5 -115 -137 0
18 -101 134 0
13 30 60 0
16 39 -109 0
-39 -62 -79 0
-50 -54 87 0
-103 121 149 0
-16 79 96 0
17 -105 -123 0
34 59 -72 0
12 24 -108 0
69 78 108 0
25 27 -36 0
40 101 134 0
64 -72 -78 0
-23 -47 84 0
-7 75 104 0
-40 -59 91 0
19 -59 111 0
-1 -26 42 0
29 -98 130 0
-54 95 146 0
73 -129 146 0
33 -96 -104 0
4 -58 -93 0
-2 -76 -143 0
16 -71 -136 0
-90 -131 137 0
-34 -90 120 0
-57 -92 -95 0
10 -25 109 0
59 78 124 0
26 55 -113 0
43 -55 105 0
-31 -41 -85 0
32 -97 -114 0
-43 -71 -98 0
-44 -128 136 0
34 -42 -76 0
43 88 -135 0
56 97 -145 0
22 37 133 0
-25 27 88 0
76 -91 -149 0
-9 56 125 0
-22 -56 -123 0
123 128 -149 0
21 31 -53 0
-69 -103 -113 0
3 -8 -55 0
-60 -103 136 0
-29 134 -147 0
5 8 -109 0
-36 81 139 0
18 40 -97 0
-52 78 131 0
-53 -63 100 0
-39 -52 143 0
-18 70 -133 0
-1 -9 24 0
-31 60 -77 0
73 -122 137 0
-17 -57 108 0
-30 -127 -150 0
-118 -131 137 0
-14 17 -90 0
18 -93 -126 0
4 -62 82 0
4 -96 117 0
19 -124 135 0
