c Phase 3 random 3-SAT negative control
c seed=51031
c ratio=4.26
c variant=planted_sat
c expected=SATISFIABLE
p cnf 400 1704
-124 271 370 0
167 295 387 0
-24 118 -278 0
-151 -190 354 0
49 255 -357 0
314 -338 362 0
64 -84 240 0
15 254 -330 0
310 335 388 0
-18 -180 354 0
-8 106 169 0
5 -218 -265 0
-149 299 -335 0
43 154 273 0
302 -341 -346 0
-200 276 -294 0
-14 -119 232 0
-11 112 -248 0
-34 79 170 0
-7 160 -389 0
-17 266 400 0
-184 210 -226 0
-19 -197 -301 0
-22 38 354 0
-64 152 -309 0
-135 -250 -315 0
-58 349 -361 0
-57 -68 78 0
60 -244 293 0
-142 167 -240 0
-205 -291 -349 0
-12 228 -298 0
47 91 145 0
-128 390 -392 0
-138 -178 213 0
116 182 -233 0
109 134 -304 0
-47 70 140 0
-69 -361 -382 0
7 -95 245 0
-35 196 -289 0
-65 -163 -257 0
-85 338 -379 0
-173 226 -294 0
-170 228 -246 0
31 -35 200 0
236 247 391 0
-18 150 -381 0
-47 77 268 0
103 172 -353 0
-60 -102 332 0
-1 -74 122 0
-71 116 135 0
84 196 -333 0
-166 -255 -332 0
-7 26 -269 0
-90 248 368 0
79 258 -288 0
239 -312 -374 0
-42 -331 367 0
-139 263 -373 0
47 -201 223 0
-115 122 374 0
-357 358 -386 0
3 -115 -335 0
-42 -328 -356 0
36 114 -341 0
-125 129 286 0
69 -132 336 0
19 -388 398 0
-23 -287 -310 0
220 332 -385 0
-74 118 -216 0
112 -205 -364 0
-22 261 343 0
-216 244 -348 0
45 202 307 0
120 -157 -349 0
117 266 310 0
142 351 -355 0
53 68 -213 0
96 -253 -395 0
-213 235 304 0
18 243 -364 0
94 -260 -295 0
-42 215 -313 0
17 -23 -361 0
196 235 -306 0
-88 271 333 0
156 283 -350 0
-11 -354 -356 0
-67 160 271 0
-213 223 -247 0
-28 352 -399 0
-158 -362 -386 0
-7 -23 144 0
-173 193 -247 0
-33 -116 -218 0
-232 307 351 0
-17 -80 97 0
11 -266 -315 0
-112 114 283 0
35 -115 145 0
-3 -233 278 0
96 118 239 0
89 -182 277 0
-67 -187 189 0
-68 169 -200 0
59 83 185 0
354 361 397 0
-104 135 319 0
-26 -115 -260 0
70 -221 -304 0
-95 297 -307 0
230 265 303 0
-20 -51 -198 0
114 -222 348 0
25 146 -305 0
35 73 374 0
-15 -237 -251 0
41 -149 362 0
50 163 -388 0
50 -306 338 0
201 354 364 0
-178 -185 259 0
-171 271 330 0
39 -194 327 0
-193 245 327 0
-79 301 303 0
-36 184 254 0
-30 106 275 0
-237 304 370 0
185 -348 -385 0
-256 -327 375 0
-204 -241 398 0
202 262 356 0
-132 208 326 0
-237 242 398 0
107 -195 283 0
142 -221 343 0
389 397 398 0
-199 319 370 0
267 281 -314 0
170 -338 370 0
-169 -182 275 0
67 -138 385 0
68 72 -324 0
-24 57 -399 0
65 170 -362 0
112 140 185 0
9 -296 -304 0
-101 -197 248 0
31 306 350 0
259 342 399 0
88 277 -384 0
-38 276 -352 0
-75 -176 -290 0
-245 -252 318 0
-19 -111 -235 0
201 276 -366 0
-10 250 -398 0
14 35 -121 0
-36 255 -371 0
5 287 -347 0
-24 -66 394 0
-85 135 349 0
-165 281 -359 0
25 140 -230 0
-92 -143 294 0
-45 144 259 0
13 72 314 0
213 -263 -355 0
-156 165 -211 0
-47 195 275 0
201 325 -328 0
79 -91 198 0
-155 238 -378 0
-233 241 389 0
74 141 -156 0
24 -29 -318 0
15 229 287 0
-113 -284 -300 0
-42 124 264 0
-77 -238 361 0
33 -84 363 0
60 260 395 0
-27 -203 218 0
85 -249 317 0
6 92 169 0
-287 306 330 0
5 145 -274 0
86 -126 215 0
-86 -378 -384 0
-104 -121 143 0
28 -273 -381 0
-78 118 -126 0
-103 -291 -397 0
-51 215 -267 0
179 -302 -367 0
88 268 390 0
-109 110 310 0
-34 123 203 0
-101 -238 -290 0
97 201 -368 0
10 -159 392 0
-81 242 -266 0
-26 -290 314 0
55 -170 -278 0
51 -74 105 0
12 -113 295 0
262 -343 -356 0
-229 256 -380 0
-68 97 376 0
-280 289 338 0
30 -212 -323 0
-177 -318 335 0
-93 -198 343 0
-50 54 -67 0
-94 -293 365 0
-8 -104 -275 0
165 253 -373 0
139 -204 -210 0
-30 135 296 0
-60 276 -345 0
-113 -223 -332 0
25 -319 379 0
-7 -128 -171 0
17 -209 -221 0
178 -294 339 0
-16 175 319 0
126 -320 341 0
67 -98 281 0
-20 98 134 0
-83 104 -213 0
32 -140 -211 0
73 81 307 0
113 -233 388 0
-37 -72 -242 0
-166 329 351 0
-34 -241 297 0
-233 242 -320 0
-163 -358 359 0
-1 -65 74 0
-85 163 -377 0
-269 -327 -398 0
39 193 267 0
142 -150 189 0
59 -204 250 0
-70 298 -314 0
-81 189 321 0
36 -338 345 0
-22 74 148 0
181 -263 -371 0
-228 -332 -346 0
32 -79 207 0
45 -176 278 0
218 -219 256 0
21 -228 319 0
-203 -263 364 0
204 -225 235 0
31 205 267 0
-73 205 274 0
-1 -222 -366 0
47 195 -249 0
176 -198 -223 0
-58 -239 -317 0
-13 -260 -343 0
-66 -245 368 0
-131 294 330 0
-268 -312 321 0
-242 262 -295 0
46 148 372 0
23 -252 310 0
-126 319 356 0
-10 72 -108 0
82 -251 349 0
86 225 -235 0
88 -107 141 0
-95 121 -244 0
59 -104 -367 0
-63 105 337 0
97 175 -310 0
-69 -208 307 0
-14 -319 -350 0
219 -292 -345 0
-201 268 345 0
-52 232 310 0
-51 176 215 0
-14 186 191 0
-156 182 230 0
175 279 -357 0
185 198 -207 0
-140 -328 -329 0
92 -98 -386 0
180 336 -382 0
203 -210 319 0
-84 194 -195 0
11 -16 -140 0
192 376 -396 0
102 -209 -396 0
60 -346 377 0
80 89 -302 0
-128 -132 -246 0
29 -53 147 0
51 -212 -244 0
19 -31 316 0
-342 -383 396 0
-13 -54 -252 0
-197 -217 -368 0
65 -96 227 0
110 320 322 0
-35 -111 162 0
43 148 -267 0
-99 -176 -237 0
-159 -166 -186 0
171 -278 -363 0
-160 184 -227 0
-152 -296 377 0
236 266 -359 0
-27 179 -225 0
-225 293 -350 0
-80 163 197 0
30 -84 -353 0
-41 -273 312 0
86 232 308 0
38 -300 393 0
-43 210 292 0
33 -65 322 0
241 290 326 0
43 -278 -303 0
92 -226 -306 0
-40 193 -269 0
227 -332 342 0
171 -283 371 0
158 305 -332 0
-19 -24 -208 0
36 61 153 0
25 71 -199 0
51 212 -359 0
-59 61 400 0
-14 -44 323 0
5 29 -105 0
30 -371 379 0
-72 -322 349 0
-199 -200 207 0
-49 -148 311 0
-84 -194 -349 0
-5 -62 -174 0
89 -210 -328 0
-29 -208 277 0
54 76 -202 0
-178 182 -191 0
-36 -175 235 0
109 -246 332 0
124 -133 -171 0
86 -205 -290 0
-164 233 -297 0
116 187 -192 0
57 -196 289 0
-271 -282 348 0
179 199 -258 0
-81 171 -307 0
-19 -114 124 0
62 -224 -394 0
64 143 268 0
118 176 -190 0
183 -219 378 0
148 -283 369 0
-103 115 335 0
93 121 -384 0
-117 -199 352 0
-60 -66 -108 0
208 -249 366 0
245 260 -285 0
-22 -292 390 0
121 -139 206 0
-267 -297 -331 0
-3 -102 -109 0
114 -164 -167 0
-2 -250 -328 0
155 -229 367 0
177 253 303 0
208 237 -255 0
25 -56 -370 0
181 -330 -379 0
32 -233 396 0
-111 220 -339 0
58 -245 273 0
7 245 -334 0
143 168 230 0
83 212 -353 0
-165 -238 319 0
92 -106 198 0
-29 -112 233 0
25 -116 -164 0
-46 -64 -113 0
-126 230 -399 0
-89 99 279 0
74 -85 340 0
4 -102 -345 0
88 -110 -197 0
231 251 275 0
-20 -243 -322 0
45 -97 111 0
-65 97 160 0
-159 251 -335 0
-25 181 -350 0
-102 216 -298 0
-85 121 -270 0
-7 263 -264 0
-25 -39 157 0
77 203 313 0
152 -229 385 0
-34 46 242 0
64 152 -390 0
54 283 291 0
102 173 -225 0
120 336 371 0
24 -331 364 0
93 -259 384 0
92 310 -337 0
-84 -329 341 0
61 -284 334 0
-153 205 257 0
-137 276 299 0
-19 164 -353 0
-60 -265 341 0
6 13 -82 0
-181 -188 -377 0
-13 120 382 0
188 -313 -335 0
-60 68 -82 0
-58 -147 -269 0
-126 222 -286 0
-112 345 -349 0
-5 387 390 0
118 322 330 0
126 134 346 0
85 101 -152 0
-33 44 -70 0
91 -166 389 0
-53 -187 -400 0
-242 -266 336 0
-329 -363 379 0
-8 -246 -261 0
203 289 291 0
-144 278 390 0
-150 256 267 0
-107 169 193 0
-78 112 310 0
65 126 -300 0
-133 -372 -384 0
1 -42 -398 0
21 -195 237 0
29 55 -278 0
-13 292 337 0
-40 -113 286 0
12 366 -382 0
151 244 -363 0
228 -332 377 0
-88 111 124 0
-21 -118 -134 0
-106 -229 385 0
68 235 -272 0
238 259 353 0
-166 -206 317 0
88 364 -376 0
232 348 399 0
-300 -310 339 0
59 123 -338 0
-90 -264 319 0
-135 180 206 0
-114 -205 334 0
-40 -239 310 0
-42 -359 388 0
36 -244 338 0
-124 181 190 0
10 -84 -388 0
-50 -196 -273 0
101 -194 -230 0
-7 303 -383 0
69 -194 -201 0
120 280 391 0
-191 -339 -380 0
50 -115 -243 0
-68 -127 -398 0
-206 -246 316 0
49 -101 371 0
120 123 -191 0
108 -220 -240 0
52 -158 291 0
231 -293 313 0
-133 -148 349 0
-132 -153 -294 0
112 204 347 0
-77 -119 123 0
75 -143 -191 0
-13 -87 -124 0
-76 191 -306 0
111 -289 -308 0
131 -134 -139 0
65 246 289 0
-121 -134 -229 0
27 174 -351 0
-145 360 -391 0
7 -26 78 0
-38 50 265 0
173 320 363 0
80 87 -391 0
-81 234 -306 0
143 -215 -261 0
-11 -379 387 0
-87 -158 -266 0
103 -111 254 0
68 70 -103 0
48 -70 161 0
67 218 -377 0
87 93 -296 0
47 -227 399 0
23 -24 47 0
91 230 -377 0
55 173 -367 0
234 -237 264 0
-178 275 -278 0
-177 -354 -378 0
-42 64 383 0
-192 227 319 0
82 271 -330 0
6 128 -147 0
-143 -182 324 0
155 214 303 0
-86 -313 394 0
8 -135 -351 0
-117 232 -343 0
-62 83 250 0
99 124 -391 0
153 -236 -322 0
-133 351 -368 0
-61 -76 -80 0
-202 -227 -374 0
39 189 -389 0
43 -199 298 0
188 -242 -354 0
100 299 396 0
81 329 360 0
-49 -93 115 0
-16 -181 277 0
-41 -188 -312 0
23 -132 316 0
224 333 366 0
-249 262 -342 0
49 -87 304 0
159 210 293 0
228 311 340 0
51 144 -152 0
-63 183 -193 0
119 -325 -354 0
48 282 -283 0
19 -88 316 0
-14 -71 280 0
-80 -132 -222 0
-82 -133 -200 0
-130 -260 -292 0
-38 -233 398 0
-49 224 386 0
131 201 232 0
-108 194 -324 0
-65 -145 -338 0
-183 311 -345 0
121 -362 395 0
2 -234 -381 0
-51 -83 172 0
-139 -259 351 0
-50 184 -333 0
37 91 308 0
-153 364 396 0
28 52 384 0
129 -299 343 0
6 212 354 0
-191 -239 -304 0
-2 -102 -303 0
-47 122 -361 0
175 -271 364 0
133 -164 -170 0
186 211 -398 0
116 -153 160 0
-46 -112 -380 0
-142 256 372 0
-73 311 346 0
27 -73 -100 0
42 -82 311 0
-25 73 350 0
-12 261 370 0
96 -158 -312 0
55 -269 -387 0
-57 -142 -360 0
233 -264 -313 0
2 16 55 0
-151 -315 333 0
-46 -61 398 0
19 328 338 0
-60 315 320 0
127 247 312 0
-72 -114 180 0
-43 286 -347 0
58 -283 -337 0
-48 -72 -216 0
-75 214 -299 0
151 -293 351 0
-42 312 393 0
-26 -256 -373 0
-75 96 -272 0
124 -217 354 0
-16 292 365 0
100 102 390 0
-60 181 -184 0
10 254 -272 0
-85 184 -358 0
-85 -86 -90 0
-39 278 321 0
-24 -194 254 0
-99 -283 -324 0
-63 -119 -378 0
-3 -114 231 0
22 -127 344 0
-172 180 -365 0
139 183 -358 0
110 121 203 0
73 -138 -271 0
180 -185 -399 0
-54 204 -302 0
-25 -111 -143 0
-163 217 353 0
-145 170 -190 0
-160 -182 268 0
-218 343 -352 0
-107 168 190 0
117 -200 326 0
-149 191 225 0
-91 285 361 0
-41 -178 198 0
-198 329 347 0
-88 320 321 0
70 -129 243 0
79 220 237 0
180 -208 -383 0
-9 -18 -195 0
60 176 364 0
-6 -98 160 0
-156 343 -370 0
73 -130 -377 0
46 48 217 0
75 110 -143 0
7 160 -212 0
-15 345 -394 0
-141 -236 -273 0
53 75 257 0
21 -83 -244 0
23 -312 -325 0
-30 -256 382 0
99 342 -365 0
-283 327 -328 0
14 213 -295 0
162 -264 -373 0
246 345 349 0
-214 221 393 0
-166 170 240 0
38 -206 -285 0
206 -255 -293 0
77 -285 391 0
27 -289 -337 0
-51 134 -267 0
220 251 384 0
153 383 -397 0
158 338 343 0
127 281 399 0
313 317 -367 0
-36 178 -294 0
-145 -217 247 0
-78 166 288 0
271 -313 386 0
196 202 -379 0
-14 31 380 0
361 391 -392 0
113 -210 288 0
88 -200 -313 0
70 279 -395 0
-58 -253 349 0
322 -347 376 0
-9 94 -124 0
-26 101 -278 0
121 254 -305 0
-31 -246 -324 0
-26 43 308 0
254 -328 386 0
22 -262 376 0
-116 236 -338 0
299 -327 -334 0
-118 182 -277 0
-22 -304 -348 0
-45 216 317 0
-5 118 -129 0
-2 -52 320 0
158 -259 -385 0
-67 295 -378 0
30 -113 -366 0
-24 124 222 0
131 306 380 0
37 -324 -371 0
-114 182 316 0
106 121 239 0
139 -271 310 0
-13 -66 -266 0
-116 -247 -364 0
-249 372 373 0
278 -329 -361 0
154 -188 -377 0
59 137 324 0
261 -314 399 0
161 -178 289 0
229 -285 380 0
-5 20 -142 0
321 -324 334 0
-43 -302 384 0
-135 282 389 0
-10 161 165 0
160 222 -370 0
123 139 -366 0
-198 353 395 0
-64 -117 -184 0
67 -72 -163 0
142 -153 -302 0
-28 -74 235 0
-53 -57 -313 0
269 284 312 0
-16 36 164 0
-112 -196 -342 0
-151 212 -332 0
-111 -193 -195 0
-42 -105 304 0
-196 225 282 0
-6 -10 -100 0
-216 291 359 0
-135 249 298 0
-45 231 -342 0
47 -65 204 0
187 -300 360 0
55 -206 337 0
80 90 347 0
21 -200 -368 0
13 83 -211 0
-105 203 342 0
102 -349 -358 0
-135 -179 362 0
16 211 -244 0
-44 57 209 0
109 -225 268 0
70 202 397 0
7 132 235 0
176 184 -396 0
108 -318 -339 0
150 169 184 0
43 260 273 0
51 206 -340 0
-8 50 -355 0
71 297 356 0
-117 266 293 0
-228 -321 -383 0
-104 -217 228 0
266 -307 -333 0
146 -243 -259 0
-261 -291 378 0
-22 197 -266 0
181 189 -320 0
114 -193 -360 0
52 -61 -172 0
119 -274 397 0
-31 -101 -337 0
-201 272 276 0
99 129 -147 0
126 -329 375 0
32 -237 -257 0
-7 319 390 0
41 63 -290 0
193 -240 388 0
-81 -299 -300 0
178 289 -324 0
-256 275 -361 0
-8 153 -284 0
34 71 -396 0
255 -333 -346 0
-3 241 -356 0
87 -151 385 0
101 -158 294 0
39 -124 -251 0
-77 -220 289 0
-85 288 -394 0
-153 240 317 0
180 234 299 0
49 -95 -174 0
205 -218 344 0
-70 -146 165 0
39 91 288 0
-43 114 -269 0
174 -204 348 0
-108 261 -330 0
-139 -360 366 0
337 341 370 0
55 140 -187 0
-46 -245 397 0
114 -237 317 0
42 -92 166 0
-29 75 269 0
32 80 89 0
117 168 -399 0
129 220 -386 0
173 220 340 0
-32 -232 -283 0
46 50 -127 0
30 187 -322 0
96 189 -256 0
98 -229 -398 0
147 204 -240 0
157 344 -390 0
-83 202 -240 0
16 289 308 0
64 -232 290 0
109 -329 -382 0
44 -336 378 0
17 51 -197 0
-161 -168 365 0
-9 -66 -227 0
-78 198 367 0
-195 -272 -361 0
-179 258 388 0
287 300 -322 0
38 54 -328 0
-42 -139 318 0
98 -205 -292 0
28 -214 336 0
68 106 175 0
-20 -156 307 0
-156 217 -219 0
-22 -144 -237 0
-29 44 -224 0
-46 63 377 0
67 -162 -169 0
38 244 283 0
-307 356 391 0
-46 -162 -356 0
-88 151 -246 0
-18 -76 -299 0
108 193 -360 0
106 -195 -305 0
-14 -72 -164 0
-103 -302 -395 0
37 47 -354 0
57 152 353 0
-36 -42 -187 0
36 75 -121 0
-54 273 330 0
2 -29 -39 0
-209 344 353 0
-147 -176 392 0
150 250 377 0
282 -338 391 0
9 -202 -372 0
-78 308 -390 0
-126 154 379 0
-13 29 209 0
21 -147 -290 0
-237 257 314 0
-96 -336 -392 0
13 -239 326 0
-162 -248 304 0
14 60 -92 0
53 237 -269 0
90 204 308 0
-145 -319 -338 0
-24 -57 229 0
-89 -103 324 0
-97 254 383 0
9 -181 273 0
-104 -302 -358 0
91 -162 -207 0
88 229 -340 0
253 258 -307 0
101 151 -374 0
-7 -28 328 0
-121 -262 -353 0
-6 -40 -115 0
105 190 -344 0
-238 387 -399 0
-164 -297 -317 0
-139 -207 -264 0
150 -174 -347 0
97 -145 274 0
44 -77 151 0
-55 -112 -325 0
49 -160 -351 0
92 145 -186 0
156 176 -239 0
125 331 -343 0
-72 -196 -210 0
-71 -338 -342 0
51 75 243 0
-188 303 -383 0
242 -243 -312 0
175 -262 -302 0
72 221 337 0
154 281 344 0
180 -245 -260 0
132 -206 304 0
-130 -194 -347 0
109 -390 -395 0
253 -304 349 0
10 -327 -330 0
17 85 307 0
-72 274 283 0
53 -180 263 0
-120 135 -352 0
163 -357 -365 0
120 -190 353 0
-43 -248 -287 0
-194 202 -298 0
206 -327 -346 0
-311 366 381 0
193 -228 322 0
84 107 -198 0
-205 -273 -335 0
185 204 243 0
-184 -280 340 0
192 -194 312 0
-8 56 -128 0
-30 -173 362 0
-184 -185 334 0
-48 145 243 0
124 189 383 0
138 332 391 0
94 -217 253 0
-61 -270 306 0
122 306 393 0
66 -267 -323 0
52 -95 179 0
116 -357 397 0
132 -143 -289 0
8 243 -246 0
-36 139 349 0
-59 -163 246 0
81 -151 334 0
126 199 -207 0
-46 56 -219 0
-36 76 354 0
22 84 215 0
225 -313 338 0
15 77 -349 0
-157 -259 321 0
-51 152 380 0
40 48 64 0
10 -30 198 0
80 -210 -358 0
65 83 121 0
134 -271 358 0
-13 -142 326 0
215 293 382 0
32 -115 -300 0
-60 -254 318 0
-34 -157 -163 0
183 240 328 0
-146 296 -301 0
3 45 278 0
-3 53 -235 0
-31 103 180 0
132 202 384 0
-7 -75 158 0
-36 -221 -364 0
89 -290 -393 0
105 -337 -348 0
-91 -166 -381 0
-108 148 278 0
18 163 248 0
65 -267 399 0
-147 191 277 0
-7 -262 306 0
-76 139 -329 0
26 217 352 0
-54 139 182 0
-68 -109 -170 0
-40 145 317 0
9 186 369 0
-102 -281 392 0
-10 220 -341 0
-220 238 -380 0
135 -219 348 0
-158 241 -298 0
30 273 344 0
41 145 -240 0
-59 -69 -345 0
-10 -184 -348 0
-102 -154 215 0
205 -257 -332 0
-256 323 -326 0
-75 -111 -354 0
-209 -277 -354 0
-166 271 -329 0
-151 206 307 0
-42 138 211 0
-28 75 161 0
62 120 -191 0
-5 -122 293 0
20 107 275 0
107 218 358 0
196 -308 -371 0
47 300 -341 0
134 173 -209 0
-38 220 389 0
247 272 -373 0
-7 -64 228 0
-184 -205 395 0
-215 -237 384 0
-23 -331 352 0
81 114 239 0
188 363 375 0
45 -81 102 0
-80 89 -158 0
-130 279 374 0
-52 -209 385 0
154 -212 -258 0
153 -183 -352 0
57 -167 373 0
-15 220 303 0
-13 16 -48 0
-14 189 245 0
-30 73 -221 0
-173 239 265 0
1 92 -373 0
254 272 367 0
88 -231 -354 0
-17 48 362 0
-125 -141 259 0
-136 317 -383 0
-176 -246 -344 0
125 165 -379 0
162 167 239 0
-51 -75 112 0
-71 81 84 0
57 152 -305 0
-25 -101 282 0
-60 338 383 0
-189 -285 345 0
-27 62 -261 0
149 237 289 0
-47 -75 -365 0
61 -70 -290 0
105 -201 -390 0
10 -132 -209 0
7 103 376 0
-59 -220 -227 0
-60 -130 360 0
72 199 310 0
-92 -259 -374 0
-87 -226 -293 0
-94 -317 359 0
-150 -191 -288 0
91 159 -170 0
122 -143 154 0
-141 321 -358 0
-91 351 -392 0
19 -210 -377 0
112 -150 -244 0
-97 -193 287 0
-33 -49 -118 0
370 375 -392 0
23 -63 -380 0
-37 266 -380 0
-88 -193 208 0
54 220 -336 0
-79 283 -340 0
-116 -175 375 0
207 -310 381 0
205 -323 351 0
-32 82 -331 0
114 -175 -183 0
-74 146 -334 0
-120 162 363 0
-240 -300 368 0
-135 -313 -362 0
-54 62 -282 0
47 -150 -152 0
-31 -179 -271 0
130 184 -353 0
109 288 -290 0
-44 169 320 0
292 315 359 0
-84 274 336 0
-263 314 366 0
234 375 392 0
-62 -177 288 0
-266 304 -316 0
143 206 -237 0
-73 82 -192 0
-195 196 -292 0
215 254 296 0
22 51 145 0
-48 -84 -375 0
135 -224 -358 0
15 100 -175 0
-295 -321 376 0
2 -183 -278 0
52 -191 -342 0
-63 -123 354 0
-26 193 281 0
64 -326 -385 0
73 276 -296 0
-86 -185 311 0
130 -382 -391 0
23 46 381 0
-2 28 370 0
-141 -174 394 0
265 -330 352 0
-54 107 -139 0
82 -272 331 0
-90 254 -314 0
23 69 -275 0
45 259 286 0
-141 -222 385 0
-62 -261 -387 0
123 -165 -388 0
-49 -232 338 0
196 294 -388 0
-66 158 207 0
14 -149 272 0
-34 -113 -201 0
-158 -221 243 0
169 -357 390 0
-65 -270 -274 0
-6 344 -380 0
178 227 -375 0
51 270 373 0
-194 307 360 0
-294 319 -336 0
-76 104 146 0
24 211 -383 0
-92 -188 282 0
94 -178 -215 0
-118 -196 370 0
169 -201 -225 0
22 -61 -138 0
5 33 -40 0
-51 92 -154 0
142 -260 279 0
65 -76 292 0
162 220 221 0
242 253 326 0
-44 92 -362 0
125 284 293 0
-103 -106 204 0
292 317 345 0
91 227 341 0
139 225 306 0
22 140 -218 0
-58 65 -223 0
129 237 -260 0
46 -50 -61 0
-112 303 -326 0
-39 -111 348 0
136 -147 -315 0
52 204 -399 0
42 118 -163 0
109 -145 274 0
222 -253 -365 0
-2 -143 264 0
11 -170 -400 0
-35 187 297 0
194 -252 -357 0
70 267 340 0
-195 -213 -367 0
138 -268 -380 0
-193 -238 292 0
56 -67 160 0
129 -324 -355 0
56 118 229 0
-188 384 391 0
-7 -45 244 0
-195 361 -396 0
19 -113 327 0
237 291 -318 0
184 200 -299 0
-236 -255 263 0
-282 296 -344 0
-9 278 -377 0
88 166 191 0
109 -146 350 0
88 256 -296 0
61 -188 -348 0
-219 222 361 0
9 -272 319 0
91 -184 357 0
14 25 -331 0
119 210 318 0
68 200 -232 0
-22 101 240 0
237 296 315 0
-42 69 222 0
44 187 362 0
-104 166 -171 0
-182 299 343 0
54 112 -237 0
-121 133 -283 0
41 54 -57 0
-3 -188 268 0
102 -201 314 0
-58 -165 328 0
-20 62 345 0
31 -107 269 0
206 231 -257 0
56 -120 -160 0
-57 182 308 0
-24 59 -65 0
17 -97 -115 0
69 -200 356 0
135 186 -223 0
114 -350 -367 0
-342 352 -369 0
31 64 353 0
-81 130 -144 0
36 -60 64 0
56 -96 372 0
-250 -296 -343 0
-49 241 246 0
-142 -232 301 0
-291 -358 363 0
-46 85 353 0
-32 40 -328 0
119 -168 -209 0
-114 -132 185 0
-17 -213 -301 0
-33 -118 -211 0
66 -121 -189 0
208 -274 303 0
-53 -230 -347 0
110 131 243 0
3 -10 226 0
-72 -111 -230 0
290 -294 -307 0
-162 226 323 0
-13 -68 -189 0
-155 216 252 0
12 37 -162 0
341 356 -384 0
59 114 192 0
-99 139 358 0
-131 -192 359 0
-14 90 -175 0
-19 67 -312 0
-130 -151 -175 0
30 273 331 0
-124 -208 -255 0
-48 61 154 0
-21 54 158 0
-74 143 -156 0
-34 -104 -376 0
-44 153 -288 0
153 -365 374 0
36 158 380 0
-60 -257 353 0
-48 192 286 0
40 -276 384 0
28 353 385 0
-137 256 348 0
3 120 -157 0
-163 -272 -288 0
113 -316 -344 0
-18 -42 -196 0
73 -306 336 0
-100 -149 -264 0
-16 -103 -322 0
132 153 373 0
245 267 355 0
158 -179 -303 0
112 159 -397 0
-79 -107 -396 0
-177 289 -331 0
-2 76 -213 0
-3 64 -287 0
-104 -158 288 0
31 178 394 0
-143 321 -376 0
-107 -287 -295 0
-44 66 -351 0
67 141 -240 0
55 -72 228 0
-12 162 -211 0
325 387 -400 0
-31 159 -306 0
-19 -166 283 0
185 225 280 0
-244 267 379 0
24 -42 -305 0
-3 -121 -282 0
189 -218 -338 0
-7 48 69 0
-66 209 -386 0
-165 371 389 0
-8 -244 -389 0
-22 -56 222 0
-247 286 310 0
-84 -251 342 0
-217 309 -357 0
17 251 327 0
101 -318 -367 0
36 77 381 0
-143 181 -320 0
-29 -140 305 0
-43 -301 392 0
-20 -252 325 0
228 285 358 0
167 170 -186 0
-6 -19 288 0
81 281 -329 0
-6 68 -190 0
34 -268 282 0
-140 202 -306 0
121 -159 254 0
59 175 194 0
-37 67 91 0
171 327 376 0
267 368 372 0
136 211 314 0
-47 53 221 0
-67 115 389 0
96 208 -296 0
-79 -90 98 0
24 87 -326 0
-57 -139 -187 0
209 -313 -384 0
222 -227 -229 0
-91 -305 -312 0
-101 -118 227 0
-164 -241 -387 0
143 -249 -259 0
-105 263 -316 0
96 -113 -221 0
200 -230 -276 0
4 342 387 0
358 -374 393 0
34 -65 302 0
43 49 -229 0
-107 153 270 0
168 -179 358 0
-98 -213 -285 0
-110 151 -362 0
-224 -307 329 0
201 -374 393 0
24 96 385 0
-5 28 -364 0
22 137 215 0
90 185 359 0
170 -207 -291 0
-20 340 366 0
-185 -224 -316 0
-24 -288 361 0
-136 158 172 0
-241 344 356 0
-31 -280 379 0
36 -227 279 0
72 101 -320 0
-59 271 275 0
78 -90 265 0
100 -153 -191 0
164 -197 -274 0
21 242 -368 0
163 292 -363 0
-68 -244 347 0
159 223 -234 0
-21 201 -358 0
-31 -156 395 0
-257 -317 395 0
333 358 400 0
-21 29 -276 0
-50 225 -231 0
-32 -258 270 0
94 189 -212 0
-75 122 -372 0
106 -216 -311 0
-294 -386 -390 0
80 277 396 0
-164 213 308 0
319 335 386 0
16 169 180 0
69 -99 228 0
-122 -156 369 0
238 296 -388 0
82 170 274 0
23 300 366 0
99 275 337 0
18 204 303 0
225 -233 -342 0
-9 226 327 0
49 -129 -289 0
82 187 338 0
34 286 292 0
40 155 273 0
61 102 352 0
98 157 -238 0
13 -147 344 0
-42 90 -373 0
-233 279 351 0
-33 51 86 0
-72 -128 287 0
-184 295 356 0
-148 -163 -348 0
-86 346 364 0
128 -205 274 0
9 -162 238 0
70 149 -150 0
-284 377 -378 0
-129 146 -215 0
-32 99 222 0
205 -329 340 0
-13 -78 89 0
-146 284 -306 0
-10 67 213 0
-230 247 -358 0
347 370 386 0
-188 -235 -376 0
299 333 360 0
87 282 -387 0
143 158 296 0
-1 197 -305 0
-47 -114 370 0
179 323 -325 0
-92 165 -372 0
139 -179 -366 0
85 -93 -202 0
33 87 161 0
239 351 360 0
46 129 -303 0
93 139 -333 0
-95 128 -388 0
-33 74 247 0
49 174 -398 0
-19 59 -372 0
94 186 353 0
-71 -112 278 0
-127 296 320 0
-208 -327 -348 0
6 195 376 0
91 246 -255 0
-210 247 -287 0
2 -195 -309 0
279 -355 -362 0
51 -76 -147 0
4 -334 -375 0
96 256 295 0
120 -155 -292 0
132 146 -373 0
132 173 -351 0
-68 -126 -382 0
66 -106 -385 0
117 -173 235 0
85 -242 352 0
1 -44 205 0
80 119 -142 0
-88 320 348 0
-22 -196 318 0
-104 -176 -326 0
-28 73 304 0
92 112 400 0
-92 288 334 0
200 331 364 0
294 317 -320 0
9 32 -385 0
121 206 -357 0
-38 -73 182 0
15 -36 -40 0
7 12 -391 0
124 -132 359 0
17 -87 372 0
-259 -268 -381 0
-113 128 -286 0
117 -215 282 0
-28 316 -375 0
49 -336 387 0
-100 145 308 0
39 -153 -200 0
56 -106 -329 0
186 -337 -382 0
278 -314 -390 0
288 -303 -365 0
64 -92 323 0
76 116 -320 0
-6 -77 385 0
-105 169 -359 0
26 -84 -383 0
297 358 -391 0
-164 184 400 0
55 -78 314 0
10 134 327 0
-44 -159 376 0
-123 156 -303 0
-90 -158 261 0
6 32 -279 0
24 -27 251 0
-173 -229 334 0
-21 76 330 0
132 239 297 0
-136 -342 396 0
23 46 -315 0
-228 257 -270 0
-26 -74 298 0
71 -85 -396 0
-144 -290 -299 0
-45 -99 307 0
36 -115 -213 0
-163 208 -300 0
122 -250 -256 0
90 -226 277 0
37 40 136 0
142 -212 356 0
33 -84 -374 0
289 -332 334 0
88 -199 355 0
-137 -203 -260 0
166 246 -265 0
29 108 -216 0
209 -233 -302 0
-180 -371 -395 0
37 -42 86 0
38 173 373 0
-19 268 396 0
-92 132 -385 0
-44 50 -142 0
12 -64 75 0
-91 -136 -380 0
-133 -285 388 0
-83 187 -231 0
-210 212 342 0
-121 -212 247 0
186 343 393 0
99 -288 370 0
18 -38 -199 0
170 330 396 0
-230 317 -387 0
138 -147 204 0
55 176 -177 0
275 -389 -393 0
-42 -323 387 0
-140 -318 386 0
-252 284 -347 0
-84 138 -151 0
8 193 256 0
-194 -231 -352 0
-197 -274 378 0
79 108 -114 0
-3 -357 363 0
-319 -348 371 0
65 -220 334 0
-92 -204 -276 0
84 211 -392 0
-121 281 -356 0
139 217 -353 0
138 -333 -391 0
-51 205 -361 0
79 -183 -316 0
-26 -241 361 0
55 -253 353 0
-94 -191 318 0
-13 -231 328 0
78 -109 -236 0
5 65 376 0
-1 -332 -337 0
27 -251 385 0
151 -337 360 0
78 309 380 0
-110 -175 -280 0
257 -297 400 0
-289 309 362 0
11 -339 352 0
-30 210 -213 0
-20 -88 169 0
310 -355 -385 0
143 -194 -200 0
-63 103 -343 0
251 -253 -344 0
-6 -210 -282 0
-72 -105 -285 0
-52 -220 -281 0
-79 -144 -299 0
-2 -71 -274 0
-69 -258 -346 0
-141 -272 -360 0
43 -331 366 0
6 -283 343 0
-50 -157 -244 0
-362 -363 367 0
20 -209 -399 0
130 133 -267 0
68 -179 223 0
-4 -30 286 0
30 -213 -223 0
-181 -203 -233 0
3 211 -345 0
2 19 94 0
-1 68 247 0
-212 -328 358 0
137 239 362 0
-5 6 128 0
-154 169 358 0
-43 44 248 0
-37 123 -146 0
96 -103 -367 0
24 103 -225 0
14 -93 227 0
-233 -339 -356 0
61 163 -335 0
-129 167 -385 0
-25 -89 96 0
-96 -243 324 0
-13 -136 -400 0
115 126 -304 0
-2 -96 202 0
-71 352 400 0
-68 186 189 0
147 -308 -353 0
-47 -155 -180 0
92 -361 371 0
33 -150 152 0
120 246 391 0
-106 -297 -306 0
19 -260 310 0
268 305 368 0
-85 -168 -356 0
-70 152 -206 0
-258 -288 -302 0
-186 -222 264 0
-23 113 138 0
-85 -247 331 0
-101 286 -309 0
-33 251 290 0
312 -317 400 0
-17 94 197 0
89 -220 241 0
-31 111 -118 0
-134 215 261 0
-46 146 171 0
233 276 -365 0
218 -229 367 0
-227 289 -354 0
4 59 -135 0
251 285 349 0
-190 250 -262 0
-166 208 -387 0
21 -120 -353 0
50 53 -137 0
225 -341 -384 0
161 208 -282 0
116 -209 300 0
25 -172 -258 0
-165 -186 -273 0
-122 -228 -321 0
51 -193 -293 0
-17 123 -352 0
283 -353 -357 0
-17 230 -386 0
39 74 -231 0
83 170 -250 0
121 -286 -385 0
-52 244 360 0
-40 93 160 0
53 -283 -333 0
-75 -89 -287 0
155 -166 -188 0
166 -182 -256 0
-28 -364 -376 0
31 284 291 0
49 -99 -397 0
72 163 276 0
64 229 -376 0
17 113 126 0
-132 213 -367 0
-59 95 -240 0
-8 103 324 0
49 187 -254 0
-56 -85 -151 0
-118 -356 -399 0
-155 -296 -357 0
136 229 -299 0
25 160 241 0
-163 165 328 0
-43 -176 309 0
64 246 -339 0
247 338 340 0
-1 216 -276 0
19 212 -228 0
-90 150 342 0
-159 -162 392 0
2 -197 -288 0
-88 224 325 0
191 233 378 0
107 -156 -279 0
28 -180 -289 0
-2 15 -179 0
-139 193 -211 0
