c Phase 3 random 3-SAT negative control
c seed=51032
c ratio=4.26
c variant=planted_sat
c expected=SATISFIABLE
p cnf 800 3408
-190 568 -620 0
484 495 621 0
-44 179 -459 0
114 252 515 0
397 664 723 0
231 -343 492 0
273 275 -550 0
-315 -474 -756 0
562 -603 640 0
23 -200 -619 0
286 -425 669 0
-392 573 630 0
8 -294 486 0
-208 -215 262 0
-480 710 -727 0
-46 220 -440 0
-142 237 -265 0
-106 -698 -736 0
213 -571 -576 0
-454 651 660 0
-22 -374 412 0
499 647 -703 0
-4 -370 705 0
-35 257 319 0
178 187 662 0
-432 -541 -627 0
60 375 -718 0
-163 437 568 0
-38 583 685 0
-267 -622 -678 0
510 -610 783 0
-96 -579 -768 0
258 -365 -715 0
247 263 392 0
-8 124 731 0
-50 537 614 0
-335 745 -789 0
100 -103 -161 0
-87 217 -277 0
291 457 689 0
9 108 732 0
-127 370 443 0
-115 248 376 0
-134 -493 -501 0
-135 -344 689 0
226 -375 -618 0
-257 -290 595 0
-397 -526 697 0
-197 -256 -452 0
108 -693 -763 0
-284 -388 738 0
364 -543 -688 0
210 375 -430 0
225 410 -710 0
206 358 473 0
-34 256 -266 0
-1 158 -249 0
543 -592 -667 0
191 248 -271 0
-212 -234 659 0
425 -728 -780 0
-309 340 488 0
-371 435 -618 0
-72 -371 -637 0
229 320 771 0
-133 -250 377 0
-330 -360 -593 0
-22 230 -359 0
233 407 782 0
78 105 516 0
-187 239 -430 0
-15 -280 -479 0
388 427 733 0
123 173 779 0
-378 -486 -564 0
-359 -532 767 0
-174 220 -597 0
121 466 -670 0
147 -300 -369 0
157 -182 748 0
448 -493 -499 0
236 521 -594 0
-270 -705 776 0
-330 775 -798 0
-336 -447 502 0
-85 320 685 0
413 -700 -719 0
294 -659 751 0
-243 500 -627 0
30 253 776 0
-464 -516 642 0
-518 646 -751 0
-83 286 509 0
348 422 775 0
44 436 -486 0
62 207 -654 0
-150 -378 412 0
-111 -293 -369 0
-46 -65 320 0
-64 452 -651 0
-9 -232 -603 0
31 208 -456 0
209 -339 -598 0
274 -563 -662 0
-22 608 -646 0
-5 130 -239 0
-72 -599 -739 0
-91 -746 772 0
398 -439 539 0
-481 -591 611 0
-309 -373 700 0
-234 -458 567 0
73 -142 347 0
-501 701 -734 0
-197 -252 -296 0
94 -347 -358 0
263 -447 638 0
-198 -250 506 0
436 -627 -743 0
-70 -79 613 0
318 329 -554 0
525 -555 667 0
306 491 -678 0
-92 446 -657 0
70 -181 535 0
-218 -635 -683 0
100 -213 799 0
-243 -493 541 0
-94 212 -417 0
243 537 724 0
-40 204 507 0
205 489 -770 0
-50 177 -259 0
-160 278 301 0
245 542 610 0
-215 342 -392 0
269 -458 633 0
284 -594 739 0
-166 208 710 0
-266 470 581 0
-29 107 -332 0
69 161 -744 0
-256 -317 -701 0
-231 -489 -593 0
246 308 -463 0
55 -601 -732 0
-180 -611 -775 0
-358 -522 748 0
61 108 -315 0
-110 -461 735 0
145 687 -750 0
6 -41 -724 0
-20 -302 -799 0
-217 -266 -503 0
189 -399 -491 0
138 598 686 0
-197 261 -306 0
-222 249 633 0
-102 226 418 0
231 283 -627 0
-145 -255 -600 0
290 -336 -713 0
11 184 -583 0
69 -338 -769 0
414 -743 778 0
278 467 744 0
-21 -600 796 0
-99 189 619 0
197 303 -404 0
-20 -467 572 0
-269 308 -545 0
85 -97 -627 0
-272 478 785 0
117 425 725 0
-155 -427 -691 0
-270 728 761 0
-311 -688 690 0
44 -46 -795 0
130 457 516 0
378 391 503 0
180 327 -513 0
77 -134 513 0
-198 290 -342 0
-19 -407 -714 0
-103 123 641 0
185 281 409 0
388 -652 -795 0
45 -457 462 0
51 -257 -614 0
-521 535 -707 0
-162 -368 637 0
271 -404 488 0
19 -562 634 0
-318 -622 -698 0
-4 57 -317 0
126 127 192 0
-533 548 744 0
114 -755 795 0
-17 -132 -170 0
66 -158 -284 0
54 409 -661 0
200 -306 -644 0
-294 295 699 0
43 -458 679 0
-277 433 653 0
134 -434 496 0
-176 -474 -712 0
-128 400 773 0
140 -196 -350 0
-220 385 700 0
-65 70 297 0
-30 257 758 0
12 -260 772 0
-429 -508 -578 0
-87 203 -372 0
-23 -306 -540 0
-67 -391 -694 0
295 298 461 0
455 577 610 0
173 206 226 0
-57 -129 278 0
94 -166 -555 0
455 504 -738 0
626 686 -720 0
-160 181 357 0
381 -522 778 0
67 276 575 0
-253 393 -479 0
-564 603 -732 0
389 -548 558 0
48 88 -696 0
-161 326 418 0
173 -330 -387 0
186 -313 -446 0
17 -372 515 0
-448 -509 -675 0
-39 -454 -795 0
99 -168 215 0
-435 611 740 0
233 521 729 0
30 -354 -405 0
56 337 410 0
-438 -513 -720 0
-142 333 641 0
216 459 531 0
31 -189 712 0
85 -115 672 0
-344 651 -727 0
-482 771 797 0
53 88 135 0
511 -605 733 0
-56 536 712 0
58 -93 210 0
-143 -685 -723 0
64 170 -215 0
-180 -488 -600 0
-217 244 -405 0
18 -375 508 0
-157 253 527 0
-213 -271 739 0
-199 -243 -282 0
-259 315 607 0
-11 23 -109 0
123 588 -670 0
293 377 712 0
-90 159 796 0
-106 -176 523 0
-405 -495 -613 0
-152 354 -709 0
-78 118 785 0
121 268 -633 0
230 417 719 0
-40 -496 -694 0
39 553 -663 0
-27 -341 695 0
500 678 690 0
-342 487 -506 0
-280 -533 582 0
-45 -170 515 0
-340 -392 793 0
124 490 690 0
46 242 253 0
-444 701 -739 0
27 285 -712 0
-183 -428 613 0
343 411 -678 0
-190 -486 645 0
-89 92 -165 0
395 462 -538 0
-4 363 492 0
-316 -613 -718 0
-45 265 732 0
32 271 648 0
-33 -345 -549 0
-14 -297 694 0
77 -721 799 0
-262 -433 527 0
30 -334 -408 0
83 -331 -469 0
-30 -114 -432 0
127 -493 -799 0
86 -274 327 0
327 343 477 0
256 -635 779 0
272 528 573 0
-255 -600 683 0
18 -306 662 0
-151 230 273 0
-26 -113 -124 0
63 463 737 0
-107 244 -510 0
52 -652 790 0
167 -190 -652 0
96 -117 681 0
121 278 397 0
240 -573 696 0
-194 312 437 0
-35 -536 567 0
407 530 655 0
196 -352 607 0
-317 -599 624 0
-173 -260 618 0
-80 -460 595 0
19 182 -204 0
248 349 723 0
2 -224 472 0
-4 -299 -728 0
-157 196 377 0
466 -675 -787 0
19 239 406 0
48 -145 -656 0
107 -174 -252 0
-312 -334 -676 0
189 558 611 0
-209 359 -445 0
-167 179 199 0
272 306 -695 0
513 650 -655 0
-47 -250 394 0
-102 407 458 0
-30 622 -765 0
-14 -100 793 0
2 -47 -462 0
-486 -618 -716 0
-642 -762 -787 0
347 -348 -508 0
-536 613 -642 0
-283 341 -422 0
-304 428 -460 0
347 -549 768 0
125 526 -754 0
298 377 753 0
-46 -507 602 0
530 680 -776 0
-6 438 -672 0
-216 386 622 0
-294 465 -513 0
103 305 -653 0
144 -186 -793 0
-188 446 -521 0
198 -199 305 0
28 62 -178 0
-55 365 548 0
-247 279 -415 0
-123 -324 -375 0
322 -526 -567 0
-35 -50 -249 0
-60 745 -761 0
443 -445 -472 0
150 -342 -635 0
209 557 -740 0
83 -412 558 0
-97 -516 -732 0
218 235 660 0
196 -641 -788 0
-254 522 586 0
-197 -311 749 0
42 466 669 0
-312 -376 671 0
246 301 -765 0
231 622 687 0
147 -392 621 0
-137 -549 728 0
-515 582 -690 0
-376 402 -778 0
-76 -458 528 0
-197 349 529 0
111 206 -425 0
-403 -629 -704 0
-142 -217 -548 0
-264 506 613 0
-440 625 679 0
-672 679 736 0
259 -481 657 0
-78 391 478 0
157 -292 -349 0
16 -735 787 0
-183 -469 -745 0
-53 -109 694 0
-103 -209 658 0
-227 242 597 0
92 -784 793 0
-131 -388 570 0
-142 -366 -697 0
495 -658 -771 0
-253 -793 797 0
182 -476 -487 0
377 -712 724 0
184 -337 348 0
-88 -126 585 0
172 -582 672 0
76 -326 591 0
329 378 726 0
59 -452 469 0
-511 643 759 0
211 502 -577 0
69 -545 738 0
-258 476 644 0
-181 620 -726 0
-77 -669 -771 0
-111 112 764 0
-410 -433 -544 0
-413 -423 -489 0
247 349 -718 0
-76 284 577 0
145 220 262 0
-5 19 791 0
217 413 707 0
-50 736 756 0
-409 541 -744 0
118 -122 569 0
-326 -380 -475 0
44 -362 -442 0
-240 -660 781 0
-455 781 790 0
-335 -355 -516 0
-492 -619 757 0
-43 157 628 0
-227 438 -446 0
-118 -233 250 0
-11 104 -688 0
11 279 -401 0
169 -292 316 0
-5 152 732 0
-79 -224 492 0
-650 662 -752 0
40 -554 -666 0
129 -505 -607 0
-122 -353 -785 0
78 -674 717 0
40 263 -525 0
39 -89 -608 0
-91 130 -722 0
-274 506 759 0
18 200 -202 0
-413 -698 -708 0
-464 -505 -672 0
-326 377 619 0
56 -192 -557 0
-98 293 -472 0
-152 -269 511 0
25 -333 -750 0
-410 470 -647 0
393 -724 726 0
462 -722 -764 0
11 -217 735 0
58 253 356 0
97 -714 728 0
-45 -264 -666 0
204 218 330 0
-1 -63 417 0
91 234 -523 0
341 391 522 0
-248 265 -763 0
-25 -449 -574 0
130 -443 -703 0
78 156 -299 0
130 -306 -708 0
51 203 -425 0
83 -106 -211 0
-28 -183 -648 0
235 409 660 0
70 -124 -399 0
-136 -542 575 0
-277 593 681 0
116 -180 751 0
-140 -273 -700 0
622 -683 -684 0
260 340 -395 0
69 164 -787 0
30 -177 794 0
-83 -248 -663 0
401 567 740 0
174 -243 497 0
-625 -662 756 0
99 -273 -343 0
506 518 627 0
-79 578 749 0
-91 517 -529 0
-611 -725 -793 0
10 591 -795 0
315 611 628 0
-246 -247 326 0
-512 -640 769 0
51 -478 -725 0
-8 246 678 0
-294 450 -782 0
-4 315 -449 0
530 578 659 0
302 -369 -584 0
-74 -290 -731 0
5 188 -237 0
-240 -482 -773 0
-122 197 745 0
210 -329 334 0
-561 697 765 0
213 465 -537 0
89 -376 -773 0
-182 -240 601 0
-182 -453 -486 0
212 321 -696 0
670 -672 -784 0
-398 -634 642 0
426 428 785 0
369 -459 762 0
5 -502 577 0
-91 -332 474 0
-145 417 705 0
-92 -400 -574 0
358 -578 790 0
-296 -530 537 0
36 315 -345 0
421 536 671 0
-9 -28 657 0
-513 -542 783 0
550 -663 -719 0
153 408 -775 0
-270 328 -796 0
-449 689 792 0
-72 -205 -787 0
-221 -355 -656 0
106 -241 -497 0
-407 646 -681 0
-153 282 667 0
-127 -177 407 0
208 -463 497 0
-35 -309 449 0
-185 244 -533 0
-385 408 -474 0
6 -306 527 0
511 755 -780 0
-349 -391 -418 0
325 -582 679 0
355 474 -697 0
203 -274 782 0
222 -324 766 0
-369 -719 762 0
11 179 -574 0
202 -395 598 0
738 768 -777 0
10 -615 678 0
365 -609 -738 0
249 -575 -756 0
531 685 777 0
252 -400 -512 0
244 520 -766 0
130 578 701 0
-107 -192 768 0
-98 -494 561 0
-430 -521 632 0
87 -108 -110 0
-380 699 701 0
-464 470 -705 0
342 -350 -670 0
-24 -54 514 0
151 -248 -773 0
506 -557 -739 0
239 -558 594 0
302 494 -734 0
95 -390 -669 0
296 -357 -717 0
-3 -94 184 0
-269 634 -715 0
67 499 -759 0
37 -209 650 0
-453 489 548 0
-41 115 548 0
-69 -243 320 0
378 731 759 0
3 440 620 0
7 -38 -73 0
-500 508 723 0
-342 -673 794 0
436 -522 766 0
169 405 529 0
109 -358 -677 0
-125 -337 -383 0
365 758 -766 0
433 -505 -606 0
-523 542 -617 0
-260 775 -786 0
-271 637 -701 0
-388 644 -761 0
331 -683 -771 0
205 -340 -392 0
59 -260 652 0
318 357 -386 0
167 191 715 0
73 200 -494 0
556 575 -724 0
-112 -238 -715 0
-273 344 722 0
100 185 -272 0
-44 275 -364 0
174 -263 -628 0
-263 673 743 0
-422 -669 -774 0
-105 396 628 0
85 -128 570 0
59 -85 225 0
-350 -580 -608 0
-69 -548 727 0
412 465 709 0
223 -584 590 0
228 348 760 0
-201 -389 687 0
134 512 620 0
-133 243 448 0
346 -627 784 0
-40 193 -362 0
-130 200 -641 0
-194 -318 -466 0
-578 -694 -756 0
-126 409 -510 0
-134 410 722 0
-71 -497 616 0
48 610 -703 0
-439 543 657 0
-31 -181 274 0
145 447 -465 0
297 468 644 0
-217 742 -780 0
-283 720 800 0
258 723 778 0
-195 353 600 0
62 318 -518 0
462 -515 -746 0
-321 405 682 0
-439 595 -612 0
47 -79 198 0
152 -294 -323 0
-177 675 784 0
1 -421 486 0
-31 -477 -584 0
300 417 795 0
328 386 -775 0
-102 364 -745 0
154 -228 538 0
284 334 -628 0
-239 244 -765 0
-261 554 -730 0
-230 455 -622 0
128 -335 363 0
427 460 762 0
164 507 -582 0
-169 677 -682 0
26 328 455 0
-82 444 -699 0
-441 -453 -616 0
210 -453 -679 0
-588 -590 -698 0
-304 338 545 0
326 -428 614 0
-119 -150 -385 0
51 -115 412 0
255 -477 684 0
91 -392 640 0
-280 -706 749 0
-455 622 633 0
-159 286 358 0
-70 -348 -467 0
129 154 209 0
-538 556 621 0
-349 365 -457 0
-371 382 786 0
-347 439 523 0
-47 327 -501 0
75 362 485 0
17 -325 537 0
-331 456 484 0
196 229 643 0
-132 -612 708 0
-105 -493 -655 0
-240 587 597 0
322 -678 -703 0
178 447 484 0
-46 -228 573 0
353 568 732 0
102 -180 751 0
-315 729 774 0
-47 -143 572 0
-553 604 744 0
276 -456 687 0
163 295 -683 0
-88 -374 677 0
-391 -406 798 0
111 417 -489 0
-249 -274 -622 0
61 -347 711 0
35 -631 -670 0
-34 -248 -758 0
159 513 717 0
348 -479 681 0
431 -548 794 0
83 -232 -658 0
270 -559 741 0
-22 -307 621 0
-245 -508 -782 0
-167 -219 -259 0
242 409 -524 0
-428 -555 -755 0
186 -365 410 0
86 557 -583 0
-339 -547 680 0
314 435 -682 0
143 413 -533 0
-40 370 -519 0
-219 -291 -489 0
-97 -389 529 0
-166 504 -703 0
223 224 321 0
-43 427 -708 0
-382 667 -695 0
-13 -561 -582 0
-217 335 780 0
230 -549 -583 0
-64 -308 -621 0
25 -424 -633 0
221 280 -426 0
45 499 528 0
-76 158 454 0
-393 587 -678 0
-377 -752 800 0
-352 -548 719 0
-62 -372 -661 0
146 646 -676 0
226 -301 -648 0
-5 308 -784 0
-57 59 -108 0
6 -327 664 0
-7 -160 -673 0
367 -386 502 0
429 -684 -722 0
-50 -459 -664 0
55 65 435 0
-169 279 743 0
101 707 -756 0
53 227 -732 0
-119 -454 -766 0
-379 627 787 0
180 -506 -762 0
129 -595 693 0
-439 627 737 0
-555 585 792 0
403 640 -685 0
-94 -305 376 0
-398 527 -602 0
5 486 -742 0
-69 -472 -659 0
-40 497 -735 0
238 -312 -734 0
-459 -731 736 0
-126 -296 518 0
139 287 703 0
-13 488 -522 0
195 -257 -649 0
220 -323 780 0
41 -416 659 0
-458 640 -715 0
36 -182 -310 0
-155 202 -726 0
111 231 -371 0
187 477 -691 0
152 164 -460 0
-127 149 -166 0
-330 504 -672 0
-651 -748 -792 0
628 -667 -720 0
-68 -243 419 0
7 -315 -447 0
-239 306 -663 0
71 -522 -785 0
-104 -447 -726 0
141 236 796 0
184 441 588 0
-47 366 -393 0
-238 -563 -702 0
396 420 -653 0
304 320 732 0
-22 202 -792 0
20 48 230 0
-28 230 256 0
24 -374 -577 0
-473 659 670 0
-323 421 -651 0
210 -274 791 0
32 215 -725 0
408 727 765 0
-163 -179 -320 0
-47 -362 679 0
193 304 -594 0
50 90 687 0
-272 -314 -719 0
56 -343 416 0
-280 -313 -521 0
515 540 766 0
636 -692 -702 0
403 439 -707 0
-172 220 452 0
-94 137 204 0
-24 255 -426 0
-278 284 -563 0
-176 182 -575 0
48 190 454 0
-388 -520 -782 0
266 -322 -453 0
-2 328 -533 0
-21 -355 584 0
-98 610 616 0
-110 -420 477 0
-452 -560 -722 0
5 -315 -623 0
-573 635 770 0
6 -357 629 0
611 -643 690 0
30 -379 -511 0
-42 377 493 0
197 398 767 0
-162 -502 534 0
-458 462 -560 0
-402 -733 -795 0
-186 241 570 0
-295 395 -656 0
-28 166 -525 0
-339 -691 -760 0
-35 55 -619 0
-133 -211 -527 0
321 425 697 0
-63 84 401 0
399 -559 -591 0
265 576 757 0
-107 556 626 0
-195 -391 -457 0
-47 152 -516 0
24 41 -64 0
167 273 769 0
77 -399 425 0
-32 -444 -466 0
-29 216 711 0
-547 -625 798 0
465 -635 -765 0
124 234 -478 0
-10 184 -701 0
112 423 442 0
203 687 708 0
686 707 -762 0
-36 587 791 0
55 174 598 0
-170 -434 -488 0
25 -233 385 0
203 -419 744 0
234 -579 -666 0
66 485 -550 0
-143 280 752 0
45 224 -693 0
-3 40 119 0
406 -723 -786 0
-25 -300 461 0
209 486 -790 0
-447 527 739 0
101 -679 722 0
-194 250 -454 0
-229 317 375 0
15 534 765 0
460 -488 -524 0
340 -439 568 0
94 -488 -716 0
-19 77 547 0
96 292 -745 0
-6 -375 -608 0
-361 -691 -722 0
-636 -659 779 0
-153 -195 675 0
119 -152 -336 0
-74 -318 -529 0
-64 -91 -276 0
240 448 -459 0
429 -694 -787 0
-125 -293 -350 0
-161 635 -687 0
-92 279 -383 0
-226 -410 -572 0
96 182 562 0
206 209 242 0
-246 587 622 0
-144 655 762 0
292 -428 -534 0
-76 -376 693 0
62 -427 676 0
-97 -139 -505 0
18 -562 759 0
276 342 -622 0
459 -529 566 0
-457 506 -595 0
59 301 671 0
-472 700 -738 0
103 -689 -786 0
85 549 637 0
188 -673 -779 0
293 326 369 0
70 279 -589 0
-278 -488 763 0
-253 396 -544 0
89 -250 554 0
-6 387 -556 0
350 551 -746 0
653 -712 -741 0
-444 657 -716 0
-95 -343 -550 0
-416 575 -589 0
70 336 -557 0
429 -525 678 0
-58 123 223 0
-307 -462 515 0
-396 637 -685 0
-3 74 162 0
-30 -480 -484 0
-234 408 -444 0
-117 442 -491 0
306 -409 -792 0
56 226 707 0
-234 -337 706 0
-150 154 -269 0
14 398 -674 0
37 -236 389 0
-362 -421 474 0
14 -67 347 0
-116 -120 377 0
113 195 523 0
-199 365 667 0
-314 360 -394 0
-510 732 -784 0
-59 288 523 0
40 318 543 0
-90 -110 -311 0
-406 -451 626 0
-21 270 389 0
130 -226 526 0
102 509 -670 0
-201 212 -504 0
247 -273 574 0
-39 -398 464 0
361 -433 -503 0
347 -365 435 0
25 -384 -748 0
-499 521 -701 0
132 -465 -661 0
65 71 -716 0
493 -584 -690 0
-421 -542 -793 0
418 439 -737 0
393 427 -432 0
137 -141 -313 0
358 -575 -739 0
167 -172 -277 0
-200 210 666 0
112 596 -714 0
-39 437 454 0
36 480 -548 0
-98 351 633 0
-486 -534 744 0
196 227 -255 0
-294 316 -472 0
80 -700 -732 0
-86 216 -252 0
-72 -329 -701 0
314 466 499 0
219 597 -628 0
176 202 636 0
569 -682 -727 0
-173 682 796 0
-456 -470 -727 0
440 448 601 0
90 175 -201 0
-163 470 631 0
-53 407 703 0
93 171 -735 0
-32 490 -763 0
255 265 -572 0
-134 330 -638 0
-108 357 -669 0
12 -314 361 0
21 -565 725 0
-224 352 522 0
-412 718 -794 0
-323 681 -752 0
-123 267 777 0
-20 499 -703 0
-46 143 518 0
207 -697 787 0
-142 603 -689 0
-98 -515 -638 0
-167 -550 780 0
269 295 337 0
-56 441 -611 0
-353 -525 -539 0
416 -587 -752 0
-23 68 -429 0
14 -437 -782 0
-728 775 -798 0
347 474 737 0
284 696 707 0
-238 520 703 0
104 -116 -364 0
-177 -522 -534 0
-204 -559 734 0
118 261 -657 0
-214 493 -651 0
-82 -239 -665 0
297 368 -696 0
-200 537 -697 0
50 411 -463 0
-300 361 456 0
-90 308 562 0
-324 -468 -475 0
-79 296 710 0
-183 573 585 0
193 498 -571 0
413 -481 788 0
-2 -586 663 0
-118 -353 -750 0
-308 -643 769 0
-20 672 -766 0
-463 489 -645 0
154 -331 -516 0
632 -780 795 0
-195 317 -371 0
227 320 449 0
-35 85 417 0
-555 596 -688 0
127 -466 -687 0
-47 323 767 0
125 -159 -355 0
85 -94 -798 0
134 161 -651 0
87 370 640 0
192 413 763 0
-119 -143 696 0
-75 -289 -708 0
23 -126 -289 0
106 -172 569 0
-257 -454 -695 0
-46 -409 -532 0
-71 143 712 0
-156 -474 -793 0
84 -216 -315 0
133 -226 -683 0
244 -407 482 0
74 502 634 0
705 727 729 0
-467 -565 569 0
181 -575 -795 0
576 608 672 0
-55 239 -287 0
-104 506 744 0
-37 -138 -800 0
149 371 -595 0
15 -437 800 0
-171 684 -738 0
73 -324 -522 0
-586 660 -753 0
-84 398 566 0
-70 -114 -205 0
-117 -130 -596 0
16 299 -583 0
-76 376 -465 0
146 364 -714 0
438 -652 713 0
-115 234 241 0
572 -725 747 0
389 -528 567 0
17 -434 444 0
438 617 -668 0
41 -369 -453 0
-201 -623 676 0
57 399 491 0
166 269 728 0
-11 -212 701 0
-519 608 -674 0
-139 -153 -682 0
-106 251 632 0
10 -415 -718 0
119 -639 -694 0
103 -121 -235 0
23 -169 -413 0
286 -684 731 0
36 -529 -721 0
25 -553 781 0
367 -398 777 0
-99 -275 -549 0
-356 409 -430 0
-261 415 -727 0
28 299 -340 0
576 601 -701 0
-72 175 -428 0
-275 -394 -538 0
-56 -454 547 0
196 555 -568 0
-351 672 741 0
300 -458 -579 0
81 -270 439 0
244 -385 -677 0
28 -388 -666 0
268 512 -800 0
-15 472 -779 0
-137 366 -641 0
95 162 457 0
123 -205 -655 0
-47 724 -748 0
440 -531 656 0
127 195 798 0
235 -473 509 0
-123 -325 344 0
105 -412 -707 0
263 541 -749 0
503 682 787 0
487 613 645 0
187 -413 559 0
290 708 -777 0
18 50 300 0
259 -485 -708 0
-191 -243 690 0
76 220 683 0
28 -239 343 0
-224 275 -354 0
-58 271 -470 0
380 621 -667 0
-105 157 -417 0
-401 512 -537 0
-562 665 -710 0
316 -416 703 0
161 -297 -565 0
-280 -329 -358 0
-147 -153 -307 0
-14 -332 793 0
25 -526 -624 0
-554 -586 750 0
402 723 771 0
-53 109 682 0
98 -127 455 0
-23 525 -548 0
42 -302 602 0
-510 583 596 0
2 -502 -712 0
-246 388 -783 0
-320 -352 -489 0
75 126 432 0
-65 71 -655 0
-83 165 -627 0
-463 613 775 0
-278 712 786 0
-226 -540 -767 0
-24 441 677 0
-303 -323 -680 0
690 757 794 0
214 -561 758 0
31 -80 -438 0
137 738 798 0
174 -196 -525 0
82 268 319 0
389 -509 618 0
160 -223 -572 0
-109 583 -655 0
-155 -617 -798 0
-328 -429 565 0
-57 97 647 0
-28 477 712 0
-410 516 -664 0
57 727 -800 0
-358 -369 -493 0
-66 -403 -626 0
-145 275 -522 0
314 -344 -585 0
-104 200 598 0
-354 597 724 0
174 -215 -549 0
-13 544 562 0
273 413 763 0
-194 543 -715 0
-165 -452 560 0
-344 481 537 0
11 -133 -255 0
-287 -297 -658 0
473 639 793 0
-150 -389 -461 0
191 338 -764 0
-403 454 474 0
43 -504 -771 0
287 -339 -683 0
370 397 485 0
181 -204 -407 0
-550 -672 777 0
-410 -415 484 0
253 -336 649 0
403 550 593 0
-389 -475 -775 0
146 367 387 0
-9 -47 631 0
303 -479 605 0
-3 -310 776 0
293 -775 798 0
-100 -162 777 0
-82 200 -587 0
55 -469 -673 0
107 -248 -577 0
431 642 651 0
-528 583 -691 0
-367 -528 715 0
261 398 -613 0
-300 -656 -663 0
-372 -415 619 0
-68 -354 476 0
23 27 76 0
-1 -96 554 0
157 259 331 0
-130 -208 -468 0
119 178 -368 0
273 439 685 0
452 -592 -744 0
-110 -114 609 0
137 -631 729 0
-58 -761 793 0
496 -596 -681 0
29 93 138 0
-2 83 -166 0
138 -169 458 0
149 -265 -741 0
-169 507 788 0
-483 520 -650 0
15 -60 138 0
-108 -212 -520 0
-147 -328 446 0
-8 198 -653 0
-173 630 743 0
171 223 361 0
-50 -437 657 0
-340 364 -453 0
-11 -409 -658 0
84 639 -648 0
-110 -383 792 0
477 -583 646 0
-490 -544 621 0
59 -440 -558 0
125 232 744 0
213 -762 799 0
51 354 708 0
27 -206 -467 0
-98 714 793 0
-634 -745 758 0
211 -249 414 0
35 -221 225 0
-266 561 -698 0
26 -259 -402 0
265 -359 -599 0
-145 491 -667 0
410 -479 -580 0
-290 323 -366 0
-489 -537 547 0
-85 -236 -502 0
-138 445 497 0
-336 559 -591 0
214 -424 720 0
364 410 -631 0
117 622 625 0
-224 353 -419 0
25 81 -211 0
-28 266 -773 0
-405 -690 -769 0
104 -142 763 0
52 364 369 0
84 469 -476 0
-24 -201 -251 0
-115 585 643 0
-36 417 -519 0
-92 -483 -674 0
-468 -479 731 0
-1 -3 250 0
128 -284 491 0
-440 600 -684 0
317 -539 -724 0
161 418 -426 0
63 184 468 0
110 593 -717 0
-230 -415 694 0
195 -522 709 0
2 278 376 0
-92 290 -542 0
171 594 -603 0
216 353 -608 0
-600 659 729 0
247 -408 -653 0
-246 -282 -289 0
-150 -259 -388 0
-337 -555 654 0
437 757 -768 0
90 -270 -445 0
-33 -213 312 0
-133 134 -777 0
-13 179 -453 0
127 517 649 0
221 -576 632 0
144 221 330 0
-54 283 359 0
106 -308 659 0
156 -443 630 0
-519 -552 -729 0
-6 57 -64 0
578 627 713 0
64 -415 776 0
-153 -223 633 0
86 -243 -759 0
-529 -552 -724 0
174 593 -795 0
-138 -465 502 0
47 -352 427 0
-26 -259 -408 0
176 486 -531 0
193 260 766 0
193 -620 -763 0
244 -358 -713 0
190 373 -654 0
663 -728 737 0
-374 -488 -548 0
112 746 766 0
23 498 -664 0
-229 -305 582 0
-183 -725 759 0
-180 437 595 0
-73 200 770 0
-99 -210 286 0
427 678 784 0
-393 -648 -722 0
416 -428 -524 0
-245 333 642 0
-185 -537 -644 0
-100 514 587 0
4 421 -430 0
91 -421 782 0
-346 587 749 0
425 528 -781 0
33 -570 618 0
18 -38 331 0
-49 180 -192 0
319 -517 667 0
-245 748 782 0
43 -475 639 0
-16 185 -245 0
31 -436 734 0
-572 648 668 0
45 86 -533 0
-122 -642 -785 0
-212 574 650 0
-75 -254 280 0
55 -214 -247 0
176 -274 498 0
161 -294 -354 0
-298 -417 459 0
-326 -372 520 0
67 -196 -449 0
-121 -329 -724 0
290 319 -440 0
160 -528 777 0
132 472 -531 0
-386 459 575 0
69 -383 604 0
-287 445 491 0
-162 -405 -635 0
-114 391 -400 0
-19 329 -784 0
58 577 769 0
-296 542 786 0
-83 302 -365 0
-33 -254 -559 0
193 -223 749 0
-331 587 669 0
-243 308 -761 0
86 -230 -326 0
-270 370 -487 0
149 204 -337 0
-61 408 478 0
325 665 769 0
111 217 -612 0
-178 -246 -605 0
-294 -313 -322 0
-96 149 478 0
-205 -624 766 0
116 -390 462 0
29 148 216 0
264 435 630 0
-461 620 641 0
-18 -285 426 0
-304 -309 585 0
435 -667 -737 0
-190 758 -764 0
-240 -549 705 0
486 -539 -714 0
129 -219 -717 0
-44 514 -655 0
-1 203 599 0
-275 431 445 0
-470 529 -590 0
-170 587 -749 0
92 119 519 0
448 -759 -774 0
-223 -451 -706 0
-304 -572 718 0
295 -305 -428 0
62 -223 -323 0
-176 -337 650 0
44 -105 225 0
138 -510 -685 0
29 -411 425 0
-86 -501 683 0
166 695 792 0
21 -393 -672 0
169 -466 -705 0
-456 506 708 0
387 620 683 0
160 -312 -625 0
-34 -407 -677 0
9 90 -334 0
-119 -180 -759 0
43 -283 -495 0
13 -187 525 0
133 -190 456 0
119 261 565 0
-203 -215 505 0
13 -370 674 0
-102 -600 748 0
-64 315 -341 0
-124 -324 723 0
-285 -419 -794 0
-130 -195 796 0
1 -556 -729 0
164 -338 -389 0
36 465 745 0
99 -487 670 0
-173 453 691 0
163 317 -414 0
246 -346 673 0
582 619 748 0
39 -287 462 0
-86 95 -604 0
-304 542 -616 0
204 399 -463 0
-140 282 704 0
38 -700 746 0
435 -450 -748 0
-551 -670 708 0
514 558 -608 0
-85 185 673 0
415 633 700 0
142 -299 -670 0
185 275 380 0
-23 62 660 0
-269 386 491 0
-412 419 702 0
-39 96 -600 0
-115 406 -715 0
193 -503 556 0
-101 430 593 0
16 -575 -788 0
236 -265 -591 0
467 -623 761 0
-288 -461 -495 0
-40 417 794 0
-308 651 675 0
-174 242 275 0
-73 -78 -298 0
-151 -233 700 0
-6 417 -437 0
239 -336 -495 0
23 -96 212 0
293 372 -416 0
3 -4 464 0
-8 -433 -448 0
-29 488 -536 0
-15 -156 560 0
295 -445 -456 0
-658 682 -717 0
29 -521 -670 0
16 26 285 0
-384 -583 633 0
-243 -369 670 0
99 -221 667 0
-48 -667 759 0
212 -490 634 0
578 -590 -711 0
-383 569 -581 0
-64 420 610 0
8 -326 761 0
-150 -248 762 0
129 131 543 0
483 -513 -785 0
-189 440 606 0
150 -594 -748 0
-152 -400 445 0
-631 -661 -729 0
-102 698 717 0
291 386 -402 0
13 -476 -629 0
153 -298 -773 0
176 -676 -775 0
60 286 611 0
-623 -753 -757 0
-290 556 720 0
-270 -422 -713 0
43 108 -713 0
-104 258 467 0
-83 -283 294 0
229 399 455 0
238 353 -572 0
344 -549 794 0
-46 -359 -491 0
-349 462 586 0
-418 551 -716 0
-135 -284 -577 0
-164 478 520 0
328 427 442 0
237 -669 -700 0
317 -361 406 0
414 -477 691 0
-406 492 553 0
-108 -422 -500 0
84 370 682 0
-233 241 466 0
-94 575 -753 0
221 252 -342 0
-13 166 -550 0
228 384 767 0
234 -624 -673 0
-98 594 643 0
-51 250 731 0
-501 -626 697 0
-176 -475 518 0
-199 -256 636 0
-528 -572 -617 0
-175 580 -799 0
140 -189 -372 0
127 170 -595 0
-561 -583 -772 0
566 762 768 0
163 211 -362 0
-378 638 701 0
131 -504 507 0
219 -322 -529 0
250 724 779 0
-61 -326 -387 0
221 429 -569 0
254 586 -789 0
-320 -623 -694 0
-187 -622 -690 0
226 420 747 0
149 -184 -383 0
-396 -507 663 0
-649 -698 731 0
233 -244 -417 0
-354 609 730 0
-44 -200 631 0
-19 -178 750 0
-34 388 788 0
140 -289 -330 0
-212 -586 652 0
-535 671 -797 0
456 722 -800 0
-19 426 -720 0
-499 675 750 0
-145 361 -412 0
-315 -614 -670 0
-647 732 798 0
210 218 381 0
74 -386 442 0
49 78 -113 0
-41 686 -758 0
114 -383 638 0
-295 574 685 0
62 504 588 0
-57 -280 543 0
206 -309 569 0
-155 -252 -394 0
-131 177 -341 0
279 -327 723 0
109 -386 686 0
172 285 -289 0
-380 -471 -635 0
535 -539 764 0
-68 -409 -455 0
61 125 -161 0
179 -232 597 0
503 576 -587 0
39 -532 790 0
394 -681 701 0
-55 -157 -675 0
150 -271 -695 0
108 363 -624 0
271 -275 427 0
-38 -235 449 0
-219 -292 -390 0
-487 -535 -594 0
418 621 723 0
-135 382 -511 0
165 -290 -434 0
68 585 654 0
360 -467 612 0
-58 -127 -306 0
-284 567 -760 0
-20 -204 -372 0
-574 648 -707 0
-374 660 692 0
-352 -710 -788 0
538 622 -780 0
125 -200 769 0
99 -211 -716 0
473 -552 -695 0
-108 213 423 0
-38 235 678 0
94 464 -718 0
-131 -498 -560 0
-83 248 360 0
27 -156 248 0
98 187 319 0
-135 -164 628 0
-264 -435 -661 0
-14 228 585 0
461 -592 -732 0
171 -315 -721 0
-222 316 -350 0
380 545 686 0
26 229 246 0
242 251 -448 0
200 274 -791 0
408 442 -625 0
210 269 -605 0
80 417 -576 0
-17 110 -450 0
220 285 638 0
-249 275 642 0
-10 -666 -798 0
100 -290 -311 0
-456 -550 630 0
435 -455 718 0
88 264 -695 0
205 -501 -793 0
-110 363 -755 0
-35 611 -778 0
-444 -534 -760 0
-46 373 486 0
-107 137 612 0
-81 101 -138 0
201 491 -612 0
224 -280 501 0
143 -191 223 0
-145 -175 -508 0
390 442 544 0
172 -252 -280 0
142 -577 622 0
-446 691 772 0
126 578 -654 0
-211 280 360 0
-324 -440 -681 0
-35 -292 570 0
239 -366 454 0
108 205 -462 0
-112 -294 710 0
50 -172 674 0
168 -187 550 0
-1 784 -786 0
477 668 751 0
-391 -459 -625 0
47 193 296 0
311 -517 -591 0
-32 -271 493 0
292 700 -736 0
-290 512 -708 0
-123 -532 644 0
72 413 777 0
387 -402 521 0
-525 541 -576 0
182 216 412 0
52 190 495 0
1 -352 -548 0
195 304 592 0
-160 -192 -291 0
42 512 627 0
206 235 -697 0
-47 -142 320 0
-43 -339 -629 0
255 444 -781 0
273 365 738 0
278 -289 580 0
80 184 -493 0
185 -215 667 0
226 -264 -736 0
703 767 780 0
30 -202 -683 0
-150 -171 -446 0
13 -576 -668 0
-173 347 -592 0
-124 162 232 0
-49 -112 -774 0
-151 524 -604 0
-154 185 -694 0
154 -508 739 0
-225 -432 582 0
-416 531 -549 0
556 637 716 0
67 147 634 0
445 -453 -669 0
-134 212 -219 0
-114 295 579 0
-113 -420 -690 0
59 248 633 0
-410 520 -719 0
11 382 -602 0
238 273 -582 0
-352 -520 -719 0
340 595 -638 0
-226 -653 -681 0
117 -625 631 0
-438 482 583 0
644 -698 752 0
80 -115 -661 0
-68 724 738 0
-462 -647 -797 0
39 197 -491 0
380 -537 -613 0
446 513 -572 0
39 349 -597 0
426 692 769 0
-31 -282 383 0
-296 321 -627 0
2 33 -658 0
-57 162 -367 0
258 -286 -405 0
182 -414 474 0
23 -189 459 0
219 515 -766 0
134 -270 341 0
17 -59 305 0
88 110 -369 0
53 104 -733 0
-286 -410 513 0
-673 693 695 0
-148 157 -432 0
154 -246 -289 0
-66 -149 -651 0
-579 657 -670 0
-344 349 -508 0
-340 634 704 0
-409 439 652 0
-11 -374 -558 0
-127 234 690 0
-35 -419 520 0
-141 -205 -458 0
169 382 -699 0
-221 610 656 0
-62 253 -404 0
-365 -691 -715 0
314 -649 -783 0
-31 209 353 0
-247 604 -670 0
-10 217 -747 0
56 -410 -439 0
-228 -381 -679 0
9 -314 570 0
-710 718 739 0
-462 -669 673 0
502 -570 596 0
-263 470 718 0
-380 -457 -615 0
16 634 -800 0
441 578 -769 0
-70 -193 -460 0
-94 -390 -398 0
140 -328 -793 0
90 -126 -755 0
-50 -533 -563 0
-152 473 -583 0
205 285 613 0
-138 367 494 0
46 570 -636 0
278 325 701 0
182 -469 -743 0
158 455 518 0
323 -698 -732 0
-484 -581 708 0
277 -293 699 0
139 -141 356 0
498 620 -644 0
152 -573 791 0
-162 -472 784 0
-180 -328 -438 0
-146 282 -284 0
227 406 -761 0
-318 -767 -783 0
-177 235 -693 0
-227 -317 -574 0
269 502 533 0
126 127 -134 0
264 701 -796 0
-54 -59 690 0
-118 564 762 0
60 464 -509 0
-78 130 221 0
-103 -657 715 0
222 -462 666 0
-46 -127 -436 0
94 169 764 0
66 -381 739 0
157 -649 761 0
343 -508 -625 0
199 480 -502 0
158 340 711 0
-66 -77 451 0
-429 435 -576 0
-175 603 -768 0
-180 291 657 0
-470 -533 567 0
271 -391 -610 0
-17 -386 427 0
-48 216 391 0
-104 -314 -798 0
-225 -292 611 0
-383 416 601 0
100 347 -702 0
189 339 -449 0
287 313 607 0
328 349 -463 0
386 -613 -775 0
-178 456 686 0
176 295 350 0
287 -649 -714 0
-189 204 392 0
35 -63 -466 0
-208 561 738 0
247 -766 771 0
-59 561 614 0
-159 194 235 0
63 -460 499 0
274 -472 548 0
339 581 648 0
51 523 562 0
28 -648 691 0
-3 -103 719 0
-403 561 737 0
189 560 686 0
104 -468 764 0
340 701 -741 0
-648 663 744 0
-126 -237 697 0
-316 593 742 0
68 262 -288 0
16 721 773 0
64 403 755 0
206 -290 418 0
233 -440 -526 0
137 449 -775 0
-245 462 581 0
-244 642 -771 0
409 514 -641 0
138 229 244 0
-71 192 668 0
-13 -343 -409 0
-103 568 -610 0
20 203 -294 0
-318 -456 624 0
210 -380 402 0
-37 712 733 0
643 721 789 0
295 -444 -705 0
195 -506 552 0
55 257 307 0
-67 442 -670 0
243 -449 555 0
518 -558 744 0
174 388 -600 0
182 632 750 0
45 435 -567 0
-149 -165 483 0
-359 -669 -679 0
-3 -303 -712 0
204 379 -498 0
72 111 280 0
594 720 788 0
-325 -500 -799 0
-295 468 556 0
460 -574 -718 0
-110 -413 -417 0
-22 -542 662 0
157 726 -741 0
-61 189 -736 0
178 604 -705 0
54 283 -311 0
-130 -164 -696 0
-537 612 -729 0
-79 499 -543 0
5 -35 104 0
-446 452 721 0
-31 373 -464 0
111 -127 146 0
167 -378 777 0
-293 -673 -685 0
278 282 798 0
-367 -630 -632 0
573 575 718 0
-250 374 740 0
470 -597 759 0
-168 -311 473 0
30 -649 -698 0
-285 -386 625 0
-556 -682 782 0
-435 -540 568 0
-429 -440 -500 0
-31 493 -732 0
-183 -466 -565 0
10 -381 -572 0
-134 161 194 0
-75 448 -785 0
260 -405 -751 0
15 205 -533 0
383 497 784 0
31 537 758 0
-90 333 630 0
-3 -121 -346 0
-27 -60 -250 0
-466 575 787 0
240 -311 658 0
-312 -657 741 0
-104 149 -528 0
164 608 -645 0
-207 -284 -580 0
-170 -712 -767 0
153 230 773 0
183 -393 439 0
-205 220 -443 0
-60 346 -644 0
698 -733 -767 0
-58 -428 -550 0
-103 -389 452 0
9 -107 305 0
-141 370 535 0
44 -279 744 0
148 186 -475 0
-174 -475 -692 0
9 440 -451 0
159 -330 468 0
375 400 649 0
409 635 734 0
-331 -407 -594 0
94 -98 -217 0
45 482 790 0
328 395 -604 0
-164 172 -178 0
227 -428 -719 0
-188 -345 -460 0
-31 565 579 0
-269 578 -621 0
-328 355 479 0
198 -599 701 0
456 573 -604 0
-9 18 -506 0
344 475 -640 0
522 -596 -796 0
70 159 -439 0
-330 713 -715 0
46 -691 -740 0
-113 -287 -736 0
-10 547 -620 0
68 -617 -621 0
42 53 -142 0
-66 211 -614 0
-189 462 -556 0
-518 644 780 0
182 -322 432 0
-20 -451 640 0
766 782 789 0
-417 -599 -791 0
365 -436 467 0
154 257 -300 0
321 332 -601 0
249 -607 740 0
-592 604 746 0
-250 -266 640 0
-355 -563 -706 0
252 323 694 0
272 -695 738 0
267 503 -759 0
218 389 543 0
-299 -407 -761 0
-23 -77 494 0
-315 -669 -788 0
-451 -608 -684 0
-110 348 -551 0
-130 147 449 0
1 245 740 0
-431 -476 481 0
-59 -60 341 0
-477 -504 653 0
-197 -441 -530 0
239 -327 785 0
244 -292 -766 0
582 -589 769 0
112 -496 -691 0
-258 -633 -776 0
498 591 -596 0
-380 -670 714 0
227 488 -489 0
-209 392 -508 0
-9 122 535 0
248 -442 763 0
-135 543 -670 0
191 -204 787 0
-134 233 -697 0
35 -510 598 0
699 -713 -784 0
-124 -277 627 0
94 -397 -741 0
-2 -721 -757 0
-204 352 353 0
122 -348 731 0
-31 -117 691 0
-232 337 579 0
11 116 -143 0
511 -666 -684 0
-242 -261 -289 0
-101 -442 651 0
-332 476 715 0
529 -556 714 0
218 -497 557 0
555 576 -669 0
46 -61 474 0
213 -220 -340 0
-41 -156 -528 0
-62 -355 414 0
-29 -72 165 0
-153 -358 -461 0
-35 535 -680 0
73 185 672 0
-64 -401 -500 0
189 422 758 0
-169 -591 -609 0
44 641 -727 0
-8 -394 -623 0
-142 -214 -231 0
113 -208 487 0
-179 -224 -362 0
-33 204 683 0
70 307 -510 0
261 -353 681 0
87 -156 -188 0
181 254 395 0
-188 225 519 0
-525 682 779 0
-305 400 428 0
-135 428 -763 0
-54 -292 -631 0
-406 429 662 0
165 -447 609 0
638 -718 732 0
-137 277 -579 0
-442 -503 747 0
120 439 780 0
170 481 712 0
-234 -686 -729 0
270 -277 681 0
-506 534 -772 0
-46 -184 380 0
-658 683 -797 0
38 133 582 0
90 648 -659 0
205 563 730 0
6 -9 -721 0
61 -364 391 0
97 131 -439 0
278 -310 -713 0
-194 -596 -654 0
52 -623 -733 0
-134 -446 541 0
-317 -553 -781 0
185 747 -763 0
-39 -461 538 0
-196 675 744 0
-532 -633 -650 0
-104 -195 304 0
-88 -497 652 0
-39 -181 422 0
68 -83 -797 0
-220 733 -761 0
28 -34 493 0
288 640 695 0
-43 -484 -628 0
213 271 433 0
-343 584 778 0
-433 -450 -779 0
-29 -72 666 0
-62 111 390 0
68 -276 755 0
-253 524 536 0
373 -428 -797 0
-691 717 733 0
201 523 -613 0
-155 -331 619 0
-314 416 -636 0
299 -545 741 0
-29 102 -267 0
56 -504 507 0
-23 561 788 0
-395 -472 -773 0
147 189 242 0
-16 -539 -636 0
95 -571 -724 0
221 -471 783 0
-364 422 -469 0
342 602 -734 0
-93 115 142 0
172 276 -483 0
-197 542 -762 0
241 -650 -676 0
-211 535 -734 0
-164 -356 -410 0
-504 716 760 0
-155 786 -797 0
-54 -253 530 0
103 133 -579 0
217 -222 341 0
69 -168 -444 0
-29 354 570 0
-533 -582 792 0
-43 -776 796 0
-49 468 511 0
-15 127 622 0
127 -446 603 0
663 686 702 0
238 -287 463 0
-463 -703 -761 0
-126 128 -634 0
-166 337 535 0
-117 578 676 0
-177 -318 589 0
38 -113 -579 0
113 234 -510 0
-48 -160 396 0
435 -443 734 0
-99 -222 -361 0
177 -554 736 0
-78 -433 451 0
58 280 -392 0
380 575 -679 0
-379 568 715 0
-36 -681 -694 0
445 -469 -558 0
63 128 -775 0
216 676 764 0
518 -560 717 0
-104 370 -745 0
-143 -524 616 0
-308 606 -789 0
27 -471 551 0
80 -487 -783 0
-127 649 -718 0
329 431 -676 0
-115 371 534 0
-357 -549 667 0
-124 211 329 0
1 -611 -660 0
273 315 378 0
-125 -417 -507 0
-93 654 -713 0
-22 -401 -548 0
257 315 430 0
170 265 710 0
-13 333 -349 0
68 -490 -600 0
-235 247 -425 0
167 -316 -573 0
406 -538 -588 0
14 202 -528 0
92 334 427 0
-19 -218 307 0
-21 -419 440 0
405 -420 484 0
-23 212 574 0
447 -492 -606 0
170 -702 742 0
-38 47 75 0
262 517 -706 0
-344 688 784 0
316 -383 -427 0
111 636 -738 0
-512 581 594 0
267 335 -710 0
-174 -361 656 0
-368 482 581 0
-352 494 599 0
-274 479 -716 0
37 160 483 0
115 270 363 0
-41 -76 717 0
-83 -222 -360 0
-37 252 -746 0
-260 -274 -377 0
-211 -403 -747 0
-361 -645 677 0
-274 -327 366 0
-368 -631 -745 0
110 -606 -617 0
-209 246 -469 0
534 576 583 0
-246 490 -536 0
114 163 678 0
208 -442 -671 0
470 -747 758 0
-51 107 426 0
-86 -297 781 0
-389 -417 -754 0
264 -498 -584 0
-79 563 696 0
-130 360 -737 0
-111 -124 464 0
459 483 -673 0
-232 728 -729 0
-389 -549 626 0
404 -443 659 0
231 293 598 0
-59 -241 -333 0
-395 -458 -511 0
63 302 -525 0
137 -364 -410 0
-68 -218 396 0
-175 -225 630 0
-205 -294 -656 0
386 654 699 0
-45 443 632 0
-65 207 785 0
335 441 -642 0
184 -479 620 0
-204 -673 -699 0
-130 198 552 0
-347 531 702 0
-109 -632 -748 0
123 231 -420 0
-296 -421 -646 0
101 258 -458 0
-146 -289 384 0
-31 160 282 0
-245 353 631 0
393 457 495 0
-38 -598 739 0
-17 -88 -761 0
58 -285 352 0
96 209 637 0
152 365 508 0
350 -492 765 0
82 -111 -604 0
-226 -500 559 0
-421 574 755 0
-511 684 780 0
-77 -497 -576 0
140 282 -378 0
-8 -124 -133 0
-203 -273 -570 0
-351 462 657 0
-189 269 -344 0
-30 -519 693 0
-146 -240 343 0
37 -256 -793 0
-328 330 459 0
-172 -350 -687 0
212 -323 -680 0
323 -476 743 0
-309 453 -545 0
-20 -332 482 0
115 298 653 0
-66 448 527 0
10 37 720 0
93 111 616 0
556 -691 -741 0
-391 -680 732 0
305 404 594 0
284 -315 317 0
67 -734 -776 0
-208 564 590 0
426 470 -681 0
-118 293 431 0
278 -380 575 0
156 273 -673 0
74 -403 -643 0
216 -558 715 0
527 528 620 0
174 -505 704 0
308 627 -637 0
-193 -292 683 0
373 500 534 0
-30 169 -491 0
-327 -410 772 0
80 463 -676 0
-113 246 -592 0
83 192 460 0
-46 -208 -321 0
-165 -301 -355 0
-305 424 782 0
-176 249 290 0
280 -335 519 0
-338 643 754 0
224 261 424 0
-229 374 635 0
-296 429 719 0
127 -736 -771 0
261 -344 434 0
194 257 -596 0
-132 238 593 0
-383 385 456 0
352 -543 -783 0
-166 -264 -460 0
188 -566 748 0
17 -494 596 0
-277 559 718 0
428 -453 -782 0
-117 297 533 0
36 410 623 0
-13 -319 700 0
217 -417 -539 0
-31 297 -351 0
-463 487 -503 0
-94 120 -131 0
78 517 -635 0
276 -348 750 0
-148 -291 -755 0
-276 -616 696 0
-580 -657 660 0
21 -305 -375 0
185 197 -549 0
-173 -178 619 0
-23 114 199 0
-443 -509 -564 0
-110 -134 -411 0
571 634 -687 0
-175 430 735 0
-329 -480 655 0
26 235 465 0
268 -467 780 0
-62 -394 -768 0
-541 542 791 0
250 -267 596 0
-71 -206 411 0
312 -345 -427 0
191 410 -579 0
-533 675 729 0
223 -262 472 0
35 444 643 0
270 -280 -334 0
-204 -402 631 0
-305 380 773 0
33 -580 585 0
280 312 -550 0
99 135 -641 0
-333 -343 450 0
253 607 -780 0
-120 153 767 0
158 178 -757 0
-102 -545 -564 0
-279 679 795 0
-237 467 -607 0
-153 -629 -688 0
-344 -596 654 0
171 -356 -781 0
229 240 345 0
39 46 -706 0
-563 -566 -598 0
464 -517 -733 0
282 484 -540 0
66 -183 -303 0
-188 -324 -572 0
-463 -510 -742 0
-40 43 -694 0
-215 582 792 0
25 386 -405 0
-119 -298 439 0
-230 399 581 0
-354 -431 -617 0
653 674 -730 0
533 -700 -766 0
88 226 -592 0
-105 575 -712 0
-94 -460 465 0
-20 434 -529 0
-64 -316 -537 0
-309 -485 -528 0
-346 -400 -692 0
-64 -322 588 0
-535 589 625 0
-535 645 -650 0
-79 123 514 0
7 410 -531 0
278 -326 -365 0
-212 418 769 0
-100 480 602 0
70 -74 498 0
105 -154 235 0
87 -224 436 0
-198 347 -514 0
82 221 -334 0
329 786 -789 0
-625 735 -777 0
-57 65 -619 0
53 -413 -732 0
-63 75 -240 0
-272 -692 -777 0
-63 565 -780 0
72 303 -533 0
-117 169 -179 0
-102 109 692 0
-172 353 -609 0
-151 -655 -761 0
642 -688 -762 0
209 -668 698 0
92 710 -737 0
-139 -196 257 0
404 -569 713 0
-348 473 -724 0
-309 -615 -786 0
-83 365 652 0
-448 541 641 0
-261 -405 -735 0
16 -468 681 0
346 -620 785 0
112 129 593 0
-4 117 660 0
-152 551 742 0
354 414 490 0
541 777 -779 0
65 537 759 0
-14 43 -91 0
-246 -326 -474 0
-632 701 800 0
-155 -487 568 0
123 562 633 0
150 499 679 0
570 -618 726 0
53 260 -732 0
-380 -394 -768 0
22 -666 799 0
76 -151 408 0
-34 350 -571 0
-400 -507 -533 0
-228 -336 422 0
-26 161 -303 0
199 -352 -735 0
-249 -355 784 0
86 -415 -697 0
94 189 -405 0
-293 623 796 0
166 410 793 0
-665 -719 -773 0
224 454 657 0
71 381 -703 0
-350 373 -647 0
-132 172 -792 0
-64 -448 -774 0
352 461 -537 0
-430 611 797 0
-201 308 -694 0
596 675 741 0
-179 773 -776 0
405 -453 -679 0
-287 493 -793 0
-145 -423 -568 0
96 185 213 0
261 473 678 0
-70 -485 706 0
28 -82 785 0
-558 597 693 0
264 371 406 0
188 -321 -488 0
-6 -71 -505 0
91 -259 758 0
487 626 -671 0
-13 89 -467 0
-133 -152 336 0
19 -222 -480 0
555 -560 -622 0
609 -642 742 0
160 309 -334 0
75 262 387 0
-11 304 -316 0
-103 -511 -617 0
-14 -204 549 0
-177 -450 534 0
29 418 483 0
-28 -176 -182 0
-312 666 713 0
-623 719 733 0
-286 -371 761 0
115 -428 -593 0
45 -353 -711 0
-57 58 -774 0
184 -222 536 0
-139 652 729 0
-3 473 -508 0
7 -110 644 0
-134 346 391 0
-121 355 -602 0
67 -369 -671 0
387 630 714 0
-239 -432 516 0
-17 91 473 0
-603 741 -753 0
-175 -704 724 0
486 713 -741 0
-385 515 648 0
50 248 263 0
-275 443 730 0
-19 -160 179 0
48 69 -420 0
-122 354 -374 0
-230 -636 -770 0
-12 98 -405 0
-107 172 -653 0
-364 -453 648 0
-346 451 618 0
-286 -675 -779 0
-561 -618 772 0
27 130 389 0
188 -251 -669 0
388 -534 587 0
-355 546 749 0
-250 614 765 0
47 153 595 0
-257 -492 -725 0
-168 253 398 0
86 -233 781 0
20 445 756 0
176 -246 724 0
-464 -666 729 0
-286 406 447 0
-517 -599 715 0
-180 -383 650 0
-61 63 594 0
225 -226 728 0
-62 -525 -745 0
35 -311 784 0
-41 -57 599 0
469 582 -638 0
-170 -211 -653 0
110 -350 -778 0
-229 336 393 0
-349 -635 -731 0
-181 213 -461 0
264 -346 463 0
-158 -352 796 0
105 -660 -787 0
174 -535 -790 0
-85 148 -348 0
-104 292 -616 0
-7 65 -132 0
43 -55 683 0
379 -512 -758 0
5 -198 614 0
48 93 462 0
-171 -493 528 0
9 384 -575 0
-34 -686 -731 0
541 683 -778 0
69 -94 295 0
-29 -55 724 0
-359 556 -629 0
-212 -759 786 0
237 -375 581 0
-256 -400 -613 0
90 325 356 0
-286 -550 -666 0
195 -658 797 0
-283 297 -420 0
-78 169 -706 0
189 -295 -484 0
435 -441 -561 0
-72 -207 635 0
266 -325 -736 0
-207 -284 -473 0
-166 -324 -483 0
-43 550 -565 0
311 -542 -677 0
-527 -547 -741 0
161 -349 -500 0
-103 -357 -672 0
-167 252 290 0
112 473 635 0
114 -388 -432 0
38 -101 -328 0
42 -499 748 0
38 240 453 0
35 -59 -219 0
-78 353 381 0
261 663 677 0
-152 -216 -624 0
-29 523 619 0
-258 278 -650 0
-175 413 474 0
-9 -706 762 0
-43 531 -786 0
7 -384 -397 0
-608 -650 702 0
-32 169 345 0
6 -16 -706 0
484 -523 -797 0
95 -503 -568 0
-31 464 517 0
94 -293 -595 0
535 561 -566 0
127 -141 694 0
-288 368 -787 0
243 -336 554 0
-232 648 651 0
-214 551 -594 0
-154 188 -269 0
-235 316 406 0
29 -373 645 0
193 -317 -800 0
223 639 -644 0
-186 437 647 0
-368 373 432 0
159 178 -397 0
-118 -269 -397 0
141 -488 619 0
40 137 674 0
108 365 669 0
-102 -165 385 0
86 412 597 0
-123 -675 683 0
-37 -217 292 0
-67 122 -212 0
-10 228 -429 0
47 471 779 0
422 -686 790 0
198 -627 637 0
-128 434 -696 0
187 -326 461 0
-382 -472 728 0
478 604 763 0
-38 471 -721 0
336 567 785 0
319 -485 -509 0
524 744 800 0
77 -317 412 0
-17 -578 791 0
177 -199 764 0
-235 577 710 0
-236 -285 -373 0
-259 -610 -675 0
139 255 -412 0
-18 -165 205 0
30 291 -332 0
249 444 -716 0
81 -597 767 0
-232 -334 -466 0
-138 540 -726 0
-448 -511 636 0
-115 218 290 0
86 -256 495 0
503 637 -765 0
-319 -466 -472 0
-273 -398 -630 0
104 -205 234 0
-380 -399 -754 0
576 578 -752 0
-320 433 -444 0
-243 -632 763 0
-46 93 -191 0
243 326 451 0
-546 590 -755 0
-384 -714 -734 0
62 -513 639 0
9 343 -673 0
-200 490 -505 0
33 -125 703 0
352 -478 -581 0
276 -455 -598 0
197 -434 501 0
49 -295 474 0
-129 366 727 0
-308 -319 -691 0
-9 -480 -723 0
-234 458 529 0
-177 -611 701 0
-319 -582 -800 0
-383 -491 709 0
218 535 580 0
-162 -433 -629 0
-58 79 462 0
-79 -340 -512 0
175 714 -798 0
485 -604 -638 0
-60 366 594 0
-260 -393 711 0
360 -550 688 0
191 446 -778 0
-572 689 734 0
14 -124 175 0
241 -418 502 0
338 -507 -604 0
165 -400 665 0
-239 547 -761 0
129 -559 678 0
-18 203 638 0
-5 71 225 0
-45 349 -580 0
-350 474 -767 0
-29 458 698 0
-8 288 -663 0
280 -377 -605 0
-272 331 673 0
189 478 625 0
-33 270 -683 0
356 464 -491 0
117 -239 -396 0
-305 366 743 0
-624 746 -796 0
-10 187 -709 0
-103 415 -553 0
-335 358 -552 0
182 358 -483 0
243 -542 -794 0
-52 -94 -282 0
595 -691 -742 0
-549 -651 -800 0
23 -572 -757 0
27 -337 790 0
644 734 -769 0
134 -189 207 0
-12 -107 -326 0
63 642 -684 0
-611 -653 -673 0
-172 711 -724 0
50 -203 668 0
70 303 535 0
110 -116 -793 0
-290 -592 -675 0
296 492 677 0
-244 305 -404 0
7 -22 215 0
121 -393 710 0
309 525 -624 0
147 -497 788 0
14 -19 527 0
-48 482 765 0
-37 158 166 0
250 347 -491 0
-6 184 666 0
306 333 540 0
27 -70 -521 0
-269 -441 487 0
29 169 -507 0
-562 625 773 0
459 630 -694 0
-184 376 -757 0
44 247 -330 0
20 -633 722 0
293 -321 -795 0
-136 -588 726 0
120 574 765 0
381 -494 -634 0
-62 -255 712 0
-221 542 -694 0
363 -660 726 0
152 -553 701 0
255 -367 -713 0
-103 133 589 0
237 319 -572 0
-104 166 -575 0
-421 -516 609 0
92 -100 -795 0
-73 -372 737 0
-101 -380 786 0
-401 -574 -725 0
-164 582 -605 0
-42 -45 743 0
-67 -491 -719 0
-326 370 702 0
312 -387 798 0
-486 -596 -692 0
381 666 -751 0
-95 -121 776 0
531 -639 -683 0
149 306 -519 0
-195 -443 -678 0
-48 188 -225 0
522 584 -586 0
38 56 579 0
198 -395 -398 0
8 -165 605 0
89 642 -755 0
16 -340 513 0
-207 -440 -764 0
333 351 -563 0
257 556 -602 0
294 522 578 0
-40 -430 -454 0
-404 -435 659 0
319 607 614 0
183 683 731 0
351 460 669 0
50 231 -388 0
79 -152 665 0
-33 471 733 0
200 -318 718 0
-163 541 643 0
40 413 -527 0
-188 634 -733 0
-1 -120 575 0
-254 -285 640 0
320 454 728 0
-625 645 759 0
-394 600 -793 0
-417 -456 481 0
171 -320 558 0
-90 -549 643 0
-229 336 537 0
-479 528 800 0
-437 509 595 0
-119 -455 468 0
411 432 484 0
140 -252 302 0
44 -348 480 0
76 -259 -576 0
-112 337 530 0
-43 -352 536 0
-48 78 340 0
-58 131 295 0
-149 515 -796 0
-286 -754 765 0
-128 -155 318 0
535 549 -650 0
-11 -156 333 0
-351 623 792 0
101 426 430 0
275 477 696 0
-3 -97 630 0
-406 -603 -696 0
-155 536 -736 0
-491 -509 -661 0
-196 607 -757 0
-68 321 -480 0
-73 -149 668 0
276 -538 -753 0
-6 -7 123 0
-492 557 625 0
444 627 -692 0
-413 718 741 0
-76 489 630 0
478 -565 614 0
4 428 -532 0
-104 122 336 0
-25 112 365 0
-172 548 653 0
146 597 729 0
468 481 600 0
329 487 705 0
-369 515 -627 0
50 363 378 0
-65 155 177 0
-293 447 -489 0
399 592 -749 0
94 438 -558 0
-113 308 547 0
430 -450 -482 0
-138 605 -785 0
-13 225 327 0
-12 388 764 0
-209 -325 -625 0
82 -386 555 0
283 607 -628 0
-203 319 535 0
-142 -158 -242 0
15 -215 481 0
-216 -436 -797 0
145 288 503 0
341 -358 657 0
15 324 -546 0
563 -576 710 0
-490 567 784 0
-322 -410 -738 0
-388 459 682 0
-237 251 485 0
-357 -553 723 0
-419 680 739 0
-200 416 -515 0
-405 501 745 0
-80 -348 -736 0
229 -338 788 0
-165 243 -505 0
-168 -312 -722 0
93 454 535 0
-152 -229 -678 0
110 -638 -792 0
15 -120 -539 0
-85 -286 -548 0
447 663 724 0
-164 -331 680 0
-160 535 -741 0
112 704 769 0
165 -580 -655 0
-221 -690 -787 0
317 496 549 0
33 -120 777 0
99 180 316 0
-34 -358 737 0
-436 -654 -666 0
236 284 -546 0
-187 254 603 0
405 -655 -728 0
369 -599 628 0
351 487 629 0
28 453 605 0
-86 336 473 0
-126 375 -548 0
51 -198 -329 0
-38 276 300 0
54 194 -343 0
-194 -226 586 0
182 356 -722 0
340 -697 730 0
-174 298 -502 0
-97 -414 -654 0
641 -766 -799 0
-47 -348 729 0
-287 -336 587 0
-366 555 754 0
276 313 -381 0
482 -611 -644 0
-244 348 -553 0
149 -248 -616 0
-425 527 -535 0
-79 -206 -483 0
-65 -369 -780 0
464 540 -655 0
595 -687 -737 0
173 -608 -670 0
-606 637 732 0
-100 265 -389 0
-373 409 780 0
-184 -215 670 0
76 -376 754 0
-24 -43 285 0
-94 -159 -569 0
-282 555 -649 0
53 307 -485 0
54 -518 -588 0
274 -679 765 0
-40 268 656 0
367 -406 -574 0
172 185 -648 0
70 -78 383 0
-214 -699 796 0
-355 -531 -610 0
219 -282 468 0
360 378 616 0
481 509 -599 0
-163 -348 -800 0
344 527 545 0
-623 -637 767 0
437 -715 -781 0
-160 -504 -595 0
-8 -77 180 0
-6 219 278 0
132 532 -592 0
122 235 -428 0
303 -394 -456 0
-114 -727 750 0
-183 -221 271 0
157 -619 662 0
-111 231 -758 0
185 237 -751 0
120 -238 -538 0
-384 535 -581 0
-518 -552 -767 0
147 154 659 0
226 412 707 0
57 -59 -86 0
-187 -477 -611 0
61 -468 -615 0
-5 -63 423 0
243 582 -670 0
-146 334 778 0
-192 -330 564 0
-229 358 -482 0
300 749 -795 0
-137 -335 -416 0
423 -553 -723 0
56 516 721 0
-28 225 -248 0
726 -744 -775 0
88 -92 -747 0
-380 473 536 0
-9 -235 248 0
640 -687 -769 0
-22 583 769 0
290 694 -732 0
-27 382 400 0
-184 232 -303 0
-116 604 662 0
43 -138 551 0
201 452 529 0
-43 -67 -326 0
590 -620 -654 0
280 286 -318 0
-86 141 -179 0
-196 -382 -413 0
273 -294 -712 0
264 320 -585 0
128 448 -616 0
369 484 -759 0
497 639 -751 0
239 -320 634 0
11 565 570 0
114 172 -539 0
60 323 466 0
219 349 528 0
201 642 666 0
-235 -479 774 0
-175 -360 -472 0
18 20 -716 0
-68 -173 -347 0
-42 -472 682 0
-96 -269 -571 0
598 -613 -660 0
67 99 -219 0
239 -274 -463 0
-137 772 793 0
35 37 557 0
713 -748 795 0
-246 613 689 0
-256 538 -711 0
150 -421 -771 0
302 -455 718 0
35 -212 291 0
-91 -231 -436 0
242 -496 541 0
220 467 703 0
-24 -25 -157 0
169 -226 -645 0
-123 372 470 0
433 -668 681 0
147 -443 -674 0
210 -405 406 0
216 -518 584 0
-30 411 -799 0
-131 290 -291 0
-27 335 -787 0
-95 591 -614 0
98 -112 -555 0
-129 -259 467 0
-349 597 707 0
78 105 -114 0
333 445 -711 0
-242 275 -754 0
191 -258 -436 0
-92 387 641 0
62 154 700 0
-224 -353 734 0
430 -472 -483 0
-272 345 -493 0
204 -262 453 0
500 -629 -776 0
27 344 -506 0
60 406 535 0
-117 -502 557 0
-34 -580 789 0
-18 -81 -692 0
-38 98 -262 0
-107 -482 -527 0
89 375 490 0
176 -392 589 0
-391 -408 460 0
-469 707 -722 0
-13 54 -65 0
-296 448 -518 0
-60 -583 -746 0
113 -250 471 0
-454 617 -622 0
-422 -546 702 0
-268 458 -497 0
327 -348 -680 0
35 486 -573 0
402 -499 692 0
-406 -477 -657 0
-169 -577 689 0
-145 199 -471 0
-147 -357 -568 0
-149 339 466 0
-13 114 -673 0
-206 -425 604 0
136 -425 -560 0
-237 -771 785 0
-176 719 -756 0
158 -174 -547 0
-296 -419 668 0
-14 606 738 0
-398 467 -761 0
291 -299 700 0
39 -379 -485 0
-32 185 -614 0
94 -406 -536 0
-214 -355 764 0
-264 -349 377 0
-34 -605 616 0
-78 244 307 0
173 494 507 0
122 506 740 0
-3 175 -544 0
-441 -465 -655 0
49 -302 615 0
-104 -396 677 0
-158 361 484 0
-334 491 570 0
138 724 -784 0
13 230 -304 0
98 250 -663 0
34 451 667 0
-446 -557 -736 0
-49 320 723 0
-88 156 222 0
24 217 708 0
-211 259 -681 0
-20 628 -788 0
-17 78 -498 0
101 -357 662 0
171 -444 -447 0
37 -261 -712 0
-227 556 596 0
308 335 788 0
-448 645 -792 0
-143 -233 432 0
-62 -143 644 0
322 -487 700 0
-452 -555 638 0
207 641 754 0
-151 530 657 0
-213 -284 -339 0
351 417 -765 0
26 -166 -272 0
-225 -356 471 0
-171 -326 -412 0
200 -395 -546 0
-99 241 -705 0
-407 676 -710 0
107 469 763 0
-209 734 747 0
-67 -97 684 0
-6 109 -297 0
198 -510 677 0
89 315 -421 0
-233 299 617 0
-161 -340 449 0
-286 -426 653 0
-25 -177 328 0
-193 -238 -692 0
208 -229 681 0
-84 478 -524 0
279 -442 -573 0
99 491 -721 0
-43 606 -613 0
2 117 -714 0
-409 -466 -532 0
-209 528 -758 0
99 -551 -750 0
207 237 -640 0
1 122 -499 0
197 -219 319 0
333 425 -735 0
-36 -419 423 0
360 -392 431 0
-61 203 -798 0
233 -331 569 0
154 447 672 0
297 -439 613 0
-27 123 -616 0
-113 -211 497 0
91 -337 -643 0
-95 -485 528 0
73 -189 733 0
46 -61 626 0
-405 705 789 0
-405 616 699 0
199 652 -739 0
-142 306 -325 0
-123 490 752 0
395 498 709 0
-356 -421 642 0
-270 -370 -689 0
189 346 379 0
-162 -176 558 0
29 505 651 0
-243 468 -661 0
254 -273 -536 0
182 -427 791 0
-267 -568 -798 0
-223 481 505 0
-55 376 -704 0
-144 -535 732 0
-372 446 731 0
440 -591 -770 0
-342 491 500 0
203 -541 -649 0
-293 364 688 0
91 187 -331 0
-461 591 753 0
-216 310 -457 0
132 -613 -778 0
360 423 754 0
-8 470 617 0
-47 274 -778 0
-241 588 611 0
142 784 -786 0
96 -226 540 0
439 -614 -651 0
129 275 350 0
387 403 604 0
65 207 -703 0
113 242 644 0
-191 231 -283 0
83 -158 735 0
318 376 497 0
586 641 740 0
502 -513 -677 0
-111 -309 -780 0
-87 341 627 0
502 623 781 0
-227 290 -651 0
-195 -548 -790 0
-198 -432 499 0
158 539 550 0
324 383 500 0
-14 -300 700 0
255 -358 537 0
84 -302 663 0
-419 433 -758 0
-76 339 -734 0
378 531 -537 0
184 -333 383 0
-140 149 -701 0
-40 -337 706 0
74 193 497 0
381 -633 698 0
315 596 -694 0
142 250 777 0
364 368 -531 0
-201 229 619 0
-26 206 556 0
23 -287 543 0
-194 556 751 0
14 39 515 0
-214 751 785 0
157 -536 -646 0
-258 366 787 0
-109 -360 786 0
-34 -194 229 0
-46 -486 -535 0
187 561 -782 0
313 -631 760 0
3 -162 -790 0
97 -137 657 0
-417 443 526 0
-155 -642 -781 0
27 -146 215 0
71 -309 -466 0
-374 -467 -639 0
-342 -718 -755 0
-209 255 -800 0
145 -234 -283 0
-290 -334 553 0
444 449 -506 0
307 403 -481 0
-427 -715 -793 0
-243 444 630 0
-228 258 621 0
-172 -307 335 0
251 467 -713 0
13 190 -621 0
546 721 -783 0
161 488 699 0
-32 280 639 0
-60 -660 -761 0
14 -247 -751 0
159 -241 784 0
-310 -359 -508 0
-64 -154 -188 0
-437 -632 676 0
61 -206 428 0
326 -449 -746 0
30 337 786 0
286 287 -560 0
-192 -702 -799 0
52 223 -349 0
361 363 -642 0
-95 -116 -491 0
305 -395 522 0
398 -574 -693 0
-360 391 -544 0
-224 457 -459 0
-85 -458 -779 0
-339 400 730 0
510 522 791 0
241 -280 629 0
76 119 121 0
74 -566 -781 0
-77 -247 -707 0
-641 679 -680 0
8 -42 -100 0
-137 -341 752 0
-170 467 -585 0
-10 -118 785 0
-79 -235 -397 0
232 -483 633 0
464 546 634 0
-323 -359 486 0
-201 293 610 0
-10 138 275 0
117 -182 696 0
-75 262 607 0
-284 435 -690 0
8 198 742 0
385 492 -738 0
-87 -134 -716 0
309 427 624 0
165 329 469 0
-58 -160 555 0
-134 -242 -662 0
-84 253 586 0
-237 294 750 0
293 -458 -646 0
233 328 -423 0
252 -289 670 0
-91 -451 -575 0
211 -335 -489 0
-21 483 605 0
-142 461 -790 0
278 675 692 0
56 -722 745 0
-22 333 -489 0
181 308 710 0
329 -420 -486 0
-186 -661 698 0
264 453 -649 0
-333 -394 -631 0
31 -124 -797 0
221 420 623 0
60 -296 -446 0
474 -491 -688 0
-185 566 715 0
-404 710 737 0
19 130 -309 0
-135 179 -429 0
473 -681 746 0
-306 372 379 0
-391 -432 709 0
165 223 -626 0
502 -534 590 0
4 219 -366 0
-246 -369 769 0
379 682 686 0
-242 718 -772 0
225 270 662 0
-58 626 676 0
12 212 390 0
59 -520 -598 0
-68 122 -778 0
-184 264 -477 0
25 524 763 0
-7 346 798 0
-488 501 -656 0
237 702 -779 0
-116 -562 568 0
-612 -684 721 0
-28 -335 576 0
173 178 736 0
-154 227 -648 0
-280 360 -772 0
313 623 685 0
-353 -442 -584 0
5 90 -391 0
-178 389 -547 0
-460 -466 -661 0
-29 -467 -542 0
625 634 750 0
133 633 675 0
198 244 -386 0
44 -424 563 0
-191 359 443 0
