c Phase 3 generated performance instance
c family=overlapping_hall_violation
c scale=9
c variant=phase4a_sweep
c noise_percent=0
c expected=UNSATISFIABLE
p cnf 180 1549
-1 -2 0
-1 -3 0
-1 -4 0
-1 -5 0
-1 -6 0
-1 -7 0
-1 -8 0
-1 -9 0
-2 -3 0
-2 -4 0
-2 -5 0
-2 -6 0
-2 -7 0
-2 -8 0
-2 -9 0
-3 -4 0
-3 -5 0
-3 -6 0
-3 -7 0
-3 -8 0
-3 -9 0
-4 -5 0
-4 -6 0
-4 -7 0
-4 -8 0
-4 -9 0
-5 -6 0
-5 -7 0
-5 -8 0
-5 -9 0
-6 -7 0
-6 -8 0
-6 -9 0
-7 -8 0
-7 -9 0
-8 -9 0
1 2 3 4 5 6 7 8 9 0
-10 -11 0
-10 -12 0
-10 -13 0
-10 -14 0
-10 -15 0
-10 -16 0
-10 -17 0
-10 -18 0
-11 -12 0
-11 -13 0
-11 -14 0
-11 -15 0
-11 -16 0
-11 -17 0
-11 -18 0
-12 -13 0
-12 -14 0
-12 -15 0
-12 -16 0
-12 -17 0
-12 -18 0
-13 -14 0
-13 -15 0
-13 -16 0
-13 -17 0
-13 -18 0
-14 -15 0
-14 -16 0
-14 -17 0
-14 -18 0
-15 -16 0
-15 -17 0
-15 -18 0
-16 -17 0
-16 -18 0
-17 -18 0
10 11 12 13 14 15 16 17 18 0
-19 -20 0
-19 -21 0
-19 -22 0
-19 -23 0
-19 -24 0
-19 -25 0
-19 -26 0
-19 -27 0
-20 -21 0
-20 -22 0
-20 -23 0
-20 -24 0
-20 -25 0
-20 -26 0
-20 -27 0
-21 -22 0
-21 -23 0
-21 -24 0
-21 -25 0
-21 -26 0
-21 -27 0
-22 -23 0
-22 -24 0
-22 -25 0
-22 -26 0
-22 -27 0
-23 -24 0
-23 -25 0
-23 -26 0
-23 -27 0
-24 -25 0
-24 -26 0
-24 -27 0
-25 -26 0
-25 -27 0
-26 -27 0
19 20 21 22 23 24 25 26 27 0
-28 -29 0
-28 -30 0
-28 -31 0
-28 -32 0
-28 -33 0
-28 -34 0
-28 -35 0
-28 -36 0
-29 -30 0
-29 -31 0
-29 -32 0
-29 -33 0
-29 -34 0
-29 -35 0
-29 -36 0
-30 -31 0
-30 -32 0
-30 -33 0
-30 -34 0
-30 -35 0
-30 -36 0
-31 -32 0
-31 -33 0
-31 -34 0
-31 -35 0
-31 -36 0
-32 -33 0
-32 -34 0
-32 -35 0
-32 -36 0
-33 -34 0
-33 -35 0
-33 -36 0
-34 -35 0
-34 -36 0
-35 -36 0
28 29 30 31 32 33 34 35 36 0
-37 -38 0
-37 -39 0
-37 -40 0
-37 -41 0
-37 -42 0
-37 -43 0
-37 -44 0
-37 -45 0
-38 -39 0
-38 -40 0
-38 -41 0
-38 -42 0
-38 -43 0
-38 -44 0
-38 -45 0
-39 -40 0
-39 -41 0
-39 -42 0
-39 -43 0
-39 -44 0
-39 -45 0
-40 -41 0
-40 -42 0
-40 -43 0
-40 -44 0
-40 -45 0
-41 -42 0
-41 -43 0
-41 -44 0
-41 -45 0
-42 -43 0
-42 -44 0
-42 -45 0
-43 -44 0
-43 -45 0
-44 -45 0
37 38 39 40 41 42 43 44 45 0
-46 -47 0
-46 -48 0
-46 -49 0
-46 -50 0
-46 -51 0
-46 -52 0
-46 -53 0
-46 -54 0
-47 -48 0
-47 -49 0
-47 -50 0
-47 -51 0
-47 -52 0
-47 -53 0
-47 -54 0
-48 -49 0
-48 -50 0
-48 -51 0
-48 -52 0
-48 -53 0
-48 -54 0
-49 -50 0
-49 -51 0
-49 -52 0
-49 -53 0
-49 -54 0
-50 -51 0
-50 -52 0
-50 -53 0
-50 -54 0
-51 -52 0
-51 -53 0
-51 -54 0
-52 -53 0
-52 -54 0
-53 -54 0
46 47 48 49 50 51 52 53 54 0
-55 -56 0
-55 -57 0
-55 -58 0
-55 -59 0
-55 -60 0
-55 -61 0
-55 -62 0
-55 -63 0
-56 -57 0
-56 -58 0
-56 -59 0
-56 -60 0
-56 -61 0
-56 -62 0
-56 -63 0
-57 -58 0
-57 -59 0
-57 -60 0
-57 -61 0
-57 -62 0
-57 -63 0
-58 -59 0
-58 -60 0
-58 -61 0
-58 -62 0
-58 -63 0
-59 -60 0
-59 -61 0
-59 -62 0
-59 -63 0
-60 -61 0
-60 -62 0
-60 -63 0
-61 -62 0
-61 -63 0
-62 -63 0
55 56 57 58 59 60 61 62 63 0
-64 -65 0
-64 -66 0
-64 -67 0
-64 -68 0
-64 -69 0
-64 -70 0
-64 -71 0
-64 -72 0
-65 -66 0
-65 -67 0
-65 -68 0
-65 -69 0
-65 -70 0
-65 -71 0
-65 -72 0
-66 -67 0
-66 -68 0
-66 -69 0
-66 -70 0
-66 -71 0
-66 -72 0
-67 -68 0
-67 -69 0
-67 -70 0
-67 -71 0
-67 -72 0
-68 -69 0
-68 -70 0
-68 -71 0
-68 -72 0
-69 -70 0
-69 -71 0
-69 -72 0
-70 -71 0
-70 -72 0
-71 -72 0
64 65 66 67 68 69 70 71 72 0
-73 -74 0
-73 -75 0
-73 -76 0
-73 -77 0
-73 -78 0
-73 -79 0
-73 -80 0
-73 -81 0
-74 -75 0
-74 -76 0
-74 -77 0
-74 -78 0
-74 -79 0
-74 -80 0
-74 -81 0
-75 -76 0
-75 -77 0
-75 -78 0
-75 -79 0
-75 -80 0
-75 -81 0
-76 -77 0
-76 -78 0
-76 -79 0
-76 -80 0
-76 -81 0
-77 -78 0
-77 -79 0
-77 -80 0
-77 -81 0
-78 -79 0
-78 -80 0
-78 -81 0
-79 -80 0
-79 -81 0
-80 -81 0
73 74 75 76 77 78 79 80 81 0
-82 -83 0
-82 -84 0
-82 -85 0
-82 -86 0
-82 -87 0
-82 -88 0
-82 -89 0
-82 -90 0
-83 -84 0
-83 -85 0
-83 -86 0
-83 -87 0
-83 -88 0
-83 -89 0
-83 -90 0
-84 -85 0
-84 -86 0
-84 -87 0
-84 -88 0
-84 -89 0
-84 -90 0
-85 -86 0
-85 -87 0
-85 -88 0
-85 -89 0
-85 -90 0
-86 -87 0
-86 -88 0
-86 -89 0
-86 -90 0
-87 -88 0
-87 -89 0
-87 -90 0
-88 -89 0
-88 -90 0
-89 -90 0
82 83 84 85 86 87 88 89 90 0
-91 -92 0
-91 -93 0
-91 -94 0
-91 -95 0
-91 -96 0
-91 -97 0
-91 -98 0
-91 -99 0
-91 -100 0
-92 -93 0
-92 -94 0
-92 -95 0
-92 -96 0
-92 -97 0
-92 -98 0
-92 -99 0
-92 -100 0
-93 -94 0
-93 -95 0
-93 -96 0
-93 -97 0
-93 -98 0
-93 -99 0
-93 -100 0
-94 -95 0
-94 -96 0
-94 -97 0
-94 -98 0
-94 -99 0
-94 -100 0
-95 -96 0
-95 -97 0
-95 -98 0
-95 -99 0
-95 -100 0
-96 -97 0
-96 -98 0
-96 -99 0
-96 -100 0
-97 -98 0
-97 -99 0
-97 -100 0
-98 -99 0
-98 -100 0
-99 -100 0
91 92 93 94 95 96 97 98 99 100 0
-101 -102 0
-101 -103 0
-101 -104 0
-101 -105 0
-101 -106 0
-101 -107 0
-101 -108 0
-101 -109 0
-101 -110 0
-102 -103 0
-102 -104 0
-102 -105 0
-102 -106 0
-102 -107 0
-102 -108 0
-102 -109 0
-102 -110 0
-103 -104 0
-103 -105 0
-103 -106 0
-103 -107 0
-103 -108 0
-103 -109 0
-103 -110 0
-104 -105 0
-104 -106 0
-104 -107 0
-104 -108 0
-104 -109 0
-104 -110 0
-105 -106 0
-105 -107 0
-105 -108 0
-105 -109 0
-105 -110 0
-106 -107 0
-106 -108 0
-106 -109 0
-106 -110 0
-107 -108 0
-107 -109 0
-107 -110 0
-108 -109 0
-108 -110 0
-109 -110 0
101 102 103 104 105 106 107 108 109 110 0
-111 -112 0
-111 -113 0
-111 -114 0
-111 -115 0
-111 -116 0
-111 -117 0
-111 -118 0
-111 -119 0
-111 -120 0
-112 -113 0
-112 -114 0
-112 -115 0
-112 -116 0
-112 -117 0
-112 -118 0
-112 -119 0
-112 -120 0
-113 -114 0
-113 -115 0
-113 -116 0
-113 -117 0
-113 -118 0
-113 -119 0
-113 -120 0
-114 -115 0
-114 -116 0
-114 -117 0
-114 -118 0
-114 -119 0
-114 -120 0
-115 -116 0
-115 -117 0
-115 -118 0
-115 -119 0
-115 -120 0
-116 -117 0
-116 -118 0
-116 -119 0
-116 -120 0
-117 -118 0
-117 -119 0
-117 -120 0
-118 -119 0
-118 -120 0
-119 -120 0
111 112 113 114 115 116 117 118 119 120 0
-121 -122 0
-121 -123 0
-121 -124 0
-121 -125 0
-121 -126 0
-121 -127 0
-121 -128 0
-121 -129 0
-121 -130 0
-122 -123 0
-122 -124 0
-122 -125 0
-122 -126 0
-122 -127 0
-122 -128 0
-122 -129 0
-122 -130 0
-123 -124 0
-123 -125 0
-123 -126 0
-123 -127 0
-123 -128 0
-123 -129 0
-123 -130 0
-124 -125 0
-124 -126 0
-124 -127 0
-124 -128 0
-124 -129 0
-124 -130 0
-125 -126 0
-125 -127 0
-125 -128 0
-125 -129 0
-125 -130 0
-126 -127 0
-126 -128 0
-126 -129 0
-126 -130 0
-127 -128 0
-127 -129 0
-127 -130 0
-128 -129 0
-128 -130 0
-129 -130 0
121 122 123 124 125 126 127 128 129 130 0
-131 -132 0
-131 -133 0
-131 -134 0
-131 -135 0
-131 -136 0
-131 -137 0
-131 -138 0
-131 -139 0
-131 -140 0
-132 -133 0
-132 -134 0
-132 -135 0
-132 -136 0
-132 -137 0
-132 -138 0
-132 -139 0
-132 -140 0
-133 -134 0
-133 -135 0
-133 -136 0
-133 -137 0
-133 -138 0
-133 -139 0
-133 -140 0
-134 -135 0
-134 -136 0
-134 -137 0
-134 -138 0
-134 -139 0
-134 -140 0
-135 -136 0
-135 -137 0
-135 -138 0
-135 -139 0
-135 -140 0
-136 -137 0
-136 -138 0
-136 -139 0
-136 -140 0
-137 -138 0
-137 -139 0
-137 -140 0
-138 -139 0
-138 -140 0
-139 -140 0
131 132 133 134 135 136 137 138 139 140 0
-141 -142 0
-141 -143 0
-141 -144 0
-141 -145 0
-141 -146 0
-141 -147 0
-141 -148 0
-141 -149 0
-141 -150 0
-142 -143 0
-142 -144 0
-142 -145 0
-142 -146 0
-142 -147 0
-142 -148 0
-142 -149 0
-142 -150 0
-143 -144 0
-143 -145 0
-143 -146 0
-143 -147 0
-143 -148 0
-143 -149 0
-143 -150 0
-144 -145 0
-144 -146 0
-144 -147 0
-144 -148 0
-144 -149 0
-144 -150 0
-145 -146 0
-145 -147 0
-145 -148 0
-145 -149 0
-145 -150 0
-146 -147 0
-146 -148 0
-146 -149 0
-146 -150 0
-147 -148 0
-147 -149 0
-147 -150 0
-148 -149 0
-148 -150 0
-149 -150 0
141 142 143 144 145 146 147 148 149 150 0
-151 -152 0
-151 -153 0
-151 -154 0
-151 -155 0
-151 -156 0
-151 -157 0
-151 -158 0
-151 -159 0
-151 -160 0
-152 -153 0
-152 -154 0
-152 -155 0
-152 -156 0
-152 -157 0
-152 -158 0
-152 -159 0
-152 -160 0
-153 -154 0
-153 -155 0
-153 -156 0
-153 -157 0
-153 -158 0
-153 -159 0
-153 -160 0
-154 -155 0
-154 -156 0
-154 -157 0
-154 -158 0
-154 -159 0
-154 -160 0
-155 -156 0
-155 -157 0
-155 -158 0
-155 -159 0
-155 -160 0
-156 -157 0
-156 -158 0
-156 -159 0
-156 -160 0
-157 -158 0
-157 -159 0
-157 -160 0
-158 -159 0
-158 -160 0
-159 -160 0
151 152 153 154 155 156 157 158 159 160 0
-161 -162 0
-161 -163 0
-161 -164 0
-161 -165 0
-161 -166 0
-161 -167 0
-161 -168 0
-161 -169 0
-161 -170 0
-162 -163 0
-162 -164 0
-162 -165 0
-162 -166 0
-162 -167 0
-162 -168 0
-162 -169 0
-162 -170 0
-163 -164 0
-163 -165 0
-163 -166 0
-163 -167 0
-163 -168 0
-163 -169 0
-163 -170 0
-164 -165 0
-164 -166 0
-164 -167 0
-164 -168 0
-164 -169 0
-164 -170 0
-165 -166 0
-165 -167 0
-165 -168 0
-165 -169 0
-165 -170 0
-166 -167 0
-166 -168 0
-166 -169 0
-166 -170 0
-167 -168 0
-167 -169 0
-167 -170 0
-168 -169 0
-168 -170 0
-169 -170 0
161 162 163 164 165 166 167 168 169 170 0
-171 -172 0
-171 -173 0
-171 -174 0
-171 -175 0
-171 -176 0
-171 -177 0
-171 -178 0
-171 -179 0
-171 -180 0
-172 -173 0
-172 -174 0
-172 -175 0
-172 -176 0
-172 -177 0
-172 -178 0
-172 -179 0
-172 -180 0
-173 -174 0
-173 -175 0
-173 -176 0
-173 -177 0
-173 -178 0
-173 -179 0
-173 -180 0
-174 -175 0
-174 -176 0
-174 -177 0
-174 -178 0
-174 -179 0
-174 -180 0
-175 -176 0
-175 -177 0
-175 -178 0
-175 -179 0
-175 -180 0
-176 -177 0
-176 -178 0
-176 -179 0
-176 -180 0
-177 -178 0
-177 -179 0
-177 -180 0
-178 -179 0
-178 -180 0
-179 -180 0
171 172 173 174 175 176 177 178 179 180 0
-1 -10 0
-1 -19 0
-1 -28 0
-1 -37 0
-1 -46 0
-1 -55 0
-1 -64 0
-1 -73 0
-1 -82 0
-10 -19 0
-10 -28 0
-10 -37 0
-10 -46 0
-10 -55 0
-10 -64 0
-10 -73 0
-10 -82 0
-19 -28 0
-19 -37 0
-19 -46 0
-19 -55 0
-19 -64 0
-19 -73 0
-19 -82 0
-28 -37 0
-28 -46 0
-28 -55 0
-28 -64 0
-28 -73 0
-28 -82 0
-37 -46 0
-37 -55 0
-37 -64 0
-37 -73 0
-37 -82 0
-46 -55 0
-46 -64 0
-46 -73 0
-46 -82 0
-55 -64 0
-55 -73 0
-55 -82 0
-64 -73 0
-64 -82 0
-73 -82 0
-2 -11 0
-2 -20 0
-2 -29 0
-2 -38 0
-2 -47 0
-2 -56 0
-2 -65 0
-2 -74 0
-2 -83 0
-11 -20 0
-11 -29 0
-11 -38 0
-11 -47 0
-11 -56 0
-11 -65 0
-11 -74 0
-11 -83 0
-20 -29 0
-20 -38 0
-20 -47 0
-20 -56 0
-20 -65 0
-20 -74 0
-20 -83 0
-29 -38 0
-29 -47 0
-29 -56 0
-29 -65 0
-29 -74 0
-29 -83 0
-38 -47 0
-38 -56 0
-38 -65 0
-38 -74 0
-38 -83 0
-47 -56 0
-47 -65 0
-47 -74 0
-47 -83 0
-56 -65 0
-56 -74 0
-56 -83 0
-65 -74 0
-65 -83 0
-74 -83 0
-3 -12 0
-3 -21 0
-3 -30 0
-3 -39 0
-3 -48 0
-3 -57 0
-3 -66 0
-3 -75 0
-3 -84 0
-12 -21 0
-12 -30 0
-12 -39 0
-12 -48 0
-12 -57 0
-12 -66 0
-12 -75 0
-12 -84 0
-21 -30 0
-21 -39 0
-21 -48 0
-21 -57 0
-21 -66 0
-21 -75 0
-21 -84 0
-30 -39 0
-30 -48 0
-30 -57 0
-30 -66 0
-30 -75 0
-30 -84 0
-39 -48 0
-39 -57 0
-39 -66 0
-39 -75 0
-39 -84 0
-48 -57 0
-48 -66 0
-48 -75 0
-48 -84 0
-57 -66 0
-57 -75 0
-57 -84 0
-66 -75 0
-66 -84 0
-75 -84 0
-4 -13 0
-4 -22 0
-4 -31 0
-4 -40 0
-4 -49 0
-4 -58 0
-4 -67 0
-4 -76 0
-4 -85 0
-13 -22 0
-13 -31 0
-13 -40 0
-13 -49 0
-13 -58 0
-13 -67 0
-13 -76 0
-13 -85 0
-22 -31 0
-22 -40 0
-22 -49 0
-22 -58 0
-22 -67 0
-22 -76 0
-22 -85 0
-31 -40 0
-31 -49 0
-31 -58 0
-31 -67 0
-31 -76 0
-31 -85 0
-40 -49 0
-40 -58 0
-40 -67 0
-40 -76 0
-40 -85 0
-49 -58 0
-49 -67 0
-49 -76 0
-49 -85 0
-58 -67 0
-58 -76 0
-58 -85 0
-67 -76 0
-67 -85 0
-76 -85 0
-5 -14 0
-5 -23 0
-5 -32 0
-5 -41 0
-5 -50 0
-5 -59 0
-5 -68 0
-5 -77 0
-5 -86 0
-14 -23 0
-14 -32 0
-14 -41 0
-14 -50 0
-14 -59 0
-14 -68 0
-14 -77 0
-14 -86 0
-23 -32 0
-23 -41 0
-23 -50 0
-23 -59 0
-23 -68 0
-23 -77 0
-23 -86 0
-32 -41 0
-32 -50 0
-32 -59 0
-32 -68 0
-32 -77 0
-32 -86 0
-41 -50 0
-41 -59 0
-41 -68 0
-41 -77 0
-41 -86 0
-50 -59 0
-50 -68 0
-50 -77 0
-50 -86 0
-59 -68 0
-59 -77 0
-59 -86 0
-68 -77 0
-68 -86 0
-77 -86 0
-6 -15 0
-6 -24 0
-6 -33 0
-6 -42 0
-6 -51 0
-6 -60 0
-6 -69 0
-6 -78 0
-6 -87 0
-15 -24 0
-15 -33 0
-15 -42 0
-15 -51 0
-15 -60 0
-15 -69 0
-15 -78 0
-15 -87 0
-24 -33 0
-24 -42 0
-24 -51 0
-24 -60 0
-24 -69 0
-24 -78 0
-24 -87 0
-33 -42 0
-33 -51 0
-33 -60 0
-33 -69 0
-33 -78 0
-33 -87 0
-42 -51 0
-42 -60 0
-42 -69 0
-42 -78 0
-42 -87 0
-51 -60 0
-51 -69 0
-51 -78 0
-51 -87 0
-60 -69 0
-60 -78 0
-60 -87 0
-69 -78 0
-69 -87 0
-78 -87 0
-7 -16 0
-7 -25 0
-7 -34 0
-7 -43 0
-7 -52 0
-7 -61 0
-7 -70 0
-7 -79 0
-7 -88 0
-16 -25 0
-16 -34 0
-16 -43 0
-16 -52 0
-16 -61 0
-16 -70 0
-16 -79 0
-16 -88 0
-25 -34 0
-25 -43 0
-25 -52 0
-25 -61 0
-25 -70 0
-25 -79 0
-25 -88 0
-34 -43 0
-34 -52 0
-34 -61 0
-34 -70 0
-34 -79 0
-34 -88 0
-43 -52 0
-43 -61 0
-43 -70 0
-43 -79 0
-43 -88 0
-52 -61 0
-52 -70 0
-52 -79 0
-52 -88 0
-61 -70 0
-61 -79 0
-61 -88 0
-70 -79 0
-70 -88 0
-79 -88 0
-8 -17 0
-8 -26 0
-8 -35 0
-8 -44 0
-8 -53 0
-8 -62 0
-8 -71 0
-8 -80 0
-8 -89 0
-17 -26 0
-17 -35 0
-17 -44 0
-17 -53 0
-17 -62 0
-17 -71 0
-17 -80 0
-17 -89 0
-26 -35 0
-26 -44 0
-26 -53 0
-26 -62 0
-26 -71 0
-26 -80 0
-26 -89 0
-35 -44 0
-35 -53 0
-35 -62 0
-35 -71 0
-35 -80 0
-35 -89 0
-44 -53 0
-44 -62 0
-44 -71 0
-44 -80 0
-44 -89 0
-53 -62 0
-53 -71 0
-53 -80 0
-53 -89 0
-62 -71 0
-62 -80 0
-62 -89 0
-71 -80 0
-71 -89 0
-80 -89 0
-9 -18 0
-9 -27 0
-9 -36 0
-9 -45 0
-9 -54 0
-9 -63 0
-9 -72 0
-9 -81 0
-9 -90 0
-18 -27 0
-18 -36 0
-18 -45 0
-18 -54 0
-18 -63 0
-18 -72 0
-18 -81 0
-18 -90 0
-27 -36 0
-27 -45 0
-27 -54 0
-27 -63 0
-27 -72 0
-27 -81 0
-27 -90 0
-36 -45 0
-36 -54 0
-36 -63 0
-36 -72 0
-36 -81 0
-36 -90 0
-45 -54 0
-45 -63 0
-45 -72 0
-45 -81 0
-45 -90 0
-54 -63 0
-54 -72 0
-54 -81 0
-54 -90 0
-63 -72 0
-63 -81 0
-63 -90 0
-72 -81 0
-72 -90 0
-81 -90 0
-91 -101 0
-91 -111 0
-91 -121 0
-91 -131 0
-91 -141 0
-91 -151 0
-91 -161 0
-91 -171 0
-101 -111 0
-101 -121 0
-101 -131 0
-101 -141 0
-101 -151 0
-101 -161 0
-101 -171 0
-111 -121 0
-111 -131 0
-111 -141 0
-111 -151 0
-111 -161 0
-111 -171 0
-121 -131 0
-121 -141 0
-121 -151 0
-121 -161 0
-121 -171 0
-131 -141 0
-131 -151 0
-131 -161 0
-131 -171 0
-141 -151 0
-141 -161 0
-141 -171 0
-151 -161 0
-151 -171 0
-161 -171 0
-92 -102 0
-92 -112 0
-92 -122 0
-92 -132 0
-92 -142 0
-92 -152 0
-92 -162 0
-92 -172 0
-102 -112 0
-102 -122 0
-102 -132 0
-102 -142 0
-102 -152 0
-102 -162 0
-102 -172 0
-112 -122 0
-112 -132 0
-112 -142 0
-112 -152 0
-112 -162 0
-112 -172 0
-122 -132 0
-122 -142 0
-122 -152 0
-122 -162 0
-122 -172 0
-132 -142 0
-132 -152 0
-132 -162 0
-132 -172 0
-142 -152 0
-142 -162 0
-142 -172 0
-152 -162 0
-152 -172 0
-162 -172 0
-93 -103 0
-93 -113 0
-93 -123 0
-93 -133 0
-93 -143 0
-93 -153 0
-93 -163 0
-93 -173 0
-103 -113 0
-103 -123 0
-103 -133 0
-103 -143 0
-103 -153 0
-103 -163 0
-103 -173 0
-113 -123 0
-113 -133 0
-113 -143 0
-113 -153 0
-113 -163 0
-113 -173 0
-123 -133 0
-123 -143 0
-123 -153 0
-123 -163 0
-123 -173 0
-133 -143 0
-133 -153 0
-133 -163 0
-133 -173 0
-143 -153 0
-143 -163 0
-143 -173 0
-153 -163 0
-153 -173 0
-163 -173 0
-94 -104 0
-94 -114 0
-94 -124 0
-94 -134 0
-94 -144 0
-94 -154 0
-94 -164 0
-94 -174 0
-104 -114 0
-104 -124 0
-104 -134 0
-104 -144 0
-104 -154 0
-104 -164 0
-104 -174 0
-114 -124 0
-114 -134 0
-114 -144 0
-114 -154 0
-114 -164 0
-114 -174 0
-124 -134 0
-124 -144 0
-124 -154 0
-124 -164 0
-124 -174 0
-134 -144 0
-134 -154 0
-134 -164 0
-134 -174 0
-144 -154 0
-144 -164 0
-144 -174 0
-154 -164 0
-154 -174 0
-164 -174 0
-95 -105 0
-95 -115 0
-95 -125 0
-95 -135 0
-95 -145 0
-95 -155 0
-95 -165 0
-95 -175 0
-105 -115 0
-105 -125 0
-105 -135 0
-105 -145 0
-105 -155 0
-105 -165 0
-105 -175 0
-115 -125 0
-115 -135 0
-115 -145 0
-115 -155 0
-115 -165 0
-115 -175 0
-125 -135 0
-125 -145 0
-125 -155 0
-125 -165 0
-125 -175 0
-135 -145 0
-135 -155 0
-135 -165 0
-135 -175 0
-145 -155 0
-145 -165 0
-145 -175 0
-155 -165 0
-155 -175 0
-165 -175 0
-96 -106 0
-96 -116 0
-96 -126 0
-96 -136 0
-96 -146 0
-96 -156 0
-96 -166 0
-96 -176 0
-106 -116 0
-106 -126 0
-106 -136 0
-106 -146 0
-106 -156 0
-106 -166 0
-106 -176 0
-116 -126 0
-116 -136 0
-116 -146 0
-116 -156 0
-116 -166 0
-116 -176 0
-126 -136 0
-126 -146 0
-126 -156 0
-126 -166 0
-126 -176 0
-136 -146 0
-136 -156 0
-136 -166 0
-136 -176 0
-146 -156 0
-146 -166 0
-146 -176 0
-156 -166 0
-156 -176 0
-166 -176 0
-97 -107 0
-97 -117 0
-97 -127 0
-97 -137 0
-97 -147 0
-97 -157 0
-97 -167 0
-97 -177 0
-107 -117 0
-107 -127 0
-107 -137 0
-107 -147 0
-107 -157 0
-107 -167 0
-107 -177 0
-117 -127 0
-117 -137 0
-117 -147 0
-117 -157 0
-117 -167 0
-117 -177 0
-127 -137 0
-127 -147 0
-127 -157 0
-127 -167 0
-127 -177 0
-137 -147 0
-137 -157 0
-137 -167 0
-137 -177 0
-147 -157 0
-147 -167 0
-147 -177 0
-157 -167 0
-157 -177 0
-167 -177 0
-98 -108 0
-98 -118 0
-98 -128 0
-98 -138 0
-98 -148 0
-98 -158 0
-98 -168 0
-98 -178 0
-108 -118 0
-108 -128 0
-108 -138 0
-108 -148 0
-108 -158 0
-108 -168 0
-108 -178 0
-118 -128 0
-118 -138 0
-118 -148 0
-118 -158 0
-118 -168 0
-118 -178 0
-128 -138 0
-128 -148 0
-128 -158 0
-128 -168 0
-128 -178 0
-138 -148 0
-138 -158 0
-138 -168 0
-138 -178 0
-148 -158 0
-148 -168 0
-148 -178 0
-158 -168 0
-158 -178 0
-168 -178 0
-99 -109 0
-99 -119 0
-99 -129 0
-99 -139 0
-99 -149 0
-99 -159 0
-99 -169 0
-99 -179 0
-109 -119 0
-109 -129 0
-109 -139 0
-109 -149 0
-109 -159 0
-109 -169 0
-109 -179 0
-119 -129 0
-119 -139 0
-119 -149 0
-119 -159 0
-119 -169 0
-119 -179 0
-129 -139 0
-129 -149 0
-129 -159 0
-129 -169 0
-129 -179 0
-139 -149 0
-139 -159 0
-139 -169 0
-139 -179 0
-149 -159 0
-149 -169 0
-149 -179 0
-159 -169 0
-159 -179 0
-169 -179 0
-100 -110 0
-100 -120 0
-100 -130 0
-100 -140 0
-100 -150 0
-100 -160 0
-100 -170 0
-100 -180 0
-110 -120 0
-110 -130 0
-110 -140 0
-110 -150 0
-110 -160 0
-110 -170 0
-110 -180 0
-120 -130 0
-120 -140 0
-120 -150 0
-120 -160 0
-120 -170 0
-120 -180 0
-130 -140 0
-130 -150 0
-130 -160 0
-130 -170 0
-130 -180 0
-140 -150 0
-140 -160 0
-140 -170 0
-140 -180 0
-150 -160 0
-150 -170 0
-150 -180 0
-160 -170 0
-160 -180 0
-170 -180 0
