c Phase 3 generated performance instance
c family=overlapping_hall_violation
c scale=10
c variant=phase4a_sweep
c noise_percent=0
c expected=UNSATISFIABLE
p cnf 220 2111
-1 -2 0
-1 -3 0
-1 -4 0
-1 -5 0
-1 -6 0
-1 -7 0
-1 -8 0
-1 -9 0
-1 -10 0
-2 -3 0
-2 -4 0
-2 -5 0
-2 -6 0
-2 -7 0
-2 -8 0
-2 -9 0
-2 -10 0
-3 -4 0
-3 -5 0
-3 -6 0
-3 -7 0
-3 -8 0
-3 -9 0
-3 -10 0
-4 -5 0
-4 -6 0
-4 -7 0
-4 -8 0
-4 -9 0
-4 -10 0
-5 -6 0
-5 -7 0
-5 -8 0
-5 -9 0
-5 -10 0
-6 -7 0
-6 -8 0
-6 -9 0
-6 -10 0
-7 -8 0
-7 -9 0
-7 -10 0
-8 -9 0
-8 -10 0
-9 -10 0
1 2 3 4 5 6 7 8 9 10 0
-11 -12 0
-11 -13 0
-11 -14 0
-11 -15 0
-11 -16 0
-11 -17 0
-11 -18 0
-11 -19 0
-11 -20 0
-12 -13 0
-12 -14 0
-12 -15 0
-12 -16 0
-12 -17 0
-12 -18 0
-12 -19 0
-12 -20 0
-13 -14 0
-13 -15 0
-13 -16 0
-13 -17 0
-13 -18 0
-13 -19 0
-13 -20 0
-14 -15 0
-14 -16 0
-14 -17 0
-14 -18 0
-14 -19 0
-14 -20 0
-15 -16 0
-15 -17 0
-15 -18 0
-15 -19 0
-15 -20 0
-16 -17 0
-16 -18 0
-16 -19 0
-16 -20 0
-17 -18 0
-17 -19 0
-17 -20 0
-18 -19 0
-18 -20 0
-19 -20 0
11 12 13 14 15 16 17 18 19 20 0
-21 -22 0
-21 -23 0
-21 -24 0
-21 -25 0
-21 -26 0
-21 -27 0
-21 -28 0
-21 -29 0
-21 -30 0
-22 -23 0
-22 -24 0
-22 -25 0
-22 -26 0
-22 -27 0
-22 -28 0
-22 -29 0
-22 -30 0
-23 -24 0
-23 -25 0
-23 -26 0
-23 -27 0
-23 -28 0
-23 -29 0
-23 -30 0
-24 -25 0
-24 -26 0
-24 -27 0
-24 -28 0
-24 -29 0
-24 -30 0
-25 -26 0
-25 -27 0
-25 -28 0
-25 -29 0
-25 -30 0
-26 -27 0
-26 -28 0
-26 -29 0
-26 -30 0
-27 -28 0
-27 -29 0
-27 -30 0
-28 -29 0
-28 -30 0
-29 -30 0
21 22 23 24 25 26 27 28 29 30 0
-31 -32 0
-31 -33 0
-31 -34 0
-31 -35 0
-31 -36 0
-31 -37 0
-31 -38 0
-31 -39 0
-31 -40 0
-32 -33 0
-32 -34 0
-32 -35 0
-32 -36 0
-32 -37 0
-32 -38 0
-32 -39 0
-32 -40 0
-33 -34 0
-33 -35 0
-33 -36 0
-33 -37 0
-33 -38 0
-33 -39 0
-33 -40 0
-34 -35 0
-34 -36 0
-34 -37 0
-34 -38 0
-34 -39 0
-34 -40 0
-35 -36 0
-35 -37 0
-35 -38 0
-35 -39 0
-35 -40 0
-36 -37 0
-36 -38 0
-36 -39 0
-36 -40 0
-37 -38 0
-37 -39 0
-37 -40 0
-38 -39 0
-38 -40 0
-39 -40 0
31 32 33 34 35 36 37 38 39 40 0
-41 -42 0
-41 -43 0
-41 -44 0
-41 -45 0
-41 -46 0
-41 -47 0
-41 -48 0
-41 -49 0
-41 -50 0
-42 -43 0
-42 -44 0
-42 -45 0
-42 -46 0
-42 -47 0
-42 -48 0
-42 -49 0
-42 -50 0
-43 -44 0
-43 -45 0
-43 -46 0
-43 -47 0
-43 -48 0
-43 -49 0
-43 -50 0
-44 -45 0
-44 -46 0
-44 -47 0
-44 -48 0
-44 -49 0
-44 -50 0
-45 -46 0
-45 -47 0
-45 -48 0
-45 -49 0
-45 -50 0
-46 -47 0
-46 -48 0
-46 -49 0
-46 -50 0
-47 -48 0
-47 -49 0
-47 -50 0
-48 -49 0
-48 -50 0
-49 -50 0
41 42 43 44 45 46 47 48 49 50 0
-51 -52 0
-51 -53 0
-51 -54 0
-51 -55 0
-51 -56 0
-51 -57 0
-51 -58 0
-51 -59 0
-51 -60 0
-52 -53 0
-52 -54 0
-52 -55 0
-52 -56 0
-52 -57 0
-52 -58 0
-52 -59 0
-52 -60 0
-53 -54 0
-53 -55 0
-53 -56 0
-53 -57 0
-53 -58 0
-53 -59 0
-53 -60 0
-54 -55 0
-54 -56 0
-54 -57 0
-54 -58 0
-54 -59 0
-54 -60 0
-55 -56 0
-55 -57 0
-55 -58 0
-55 -59 0
-55 -60 0
-56 -57 0
-56 -58 0
-56 -59 0
-56 -60 0
-57 -58 0
-57 -59 0
-57 -60 0
-58 -59 0
-58 -60 0
-59 -60 0
51 52 53 54 55 56 57 58 59 60 0
-61 -62 0
-61 -63 0
-61 -64 0
-61 -65 0
-61 -66 0
-61 -67 0
-61 -68 0
-61 -69 0
-61 -70 0
-62 -63 0
-62 -64 0
-62 -65 0
-62 -66 0
-62 -67 0
-62 -68 0
-62 -69 0
-62 -70 0
-63 -64 0
-63 -65 0
-63 -66 0
-63 -67 0
-63 -68 0
-63 -69 0
-63 -70 0
-64 -65 0
-64 -66 0
-64 -67 0
-64 -68 0
-64 -69 0
-64 -70 0
-65 -66 0
-65 -67 0
-65 -68 0
-65 -69 0
-65 -70 0
-66 -67 0
-66 -68 0
-66 -69 0
-66 -70 0
-67 -68 0
-67 -69 0
-67 -70 0
-68 -69 0
-68 -70 0
-69 -70 0
61 62 63 64 65 66 67 68 69 70 0
-71 -72 0
-71 -73 0
-71 -74 0
-71 -75 0
-71 -76 0
-71 -77 0
-71 -78 0
-71 -79 0
-71 -80 0
-72 -73 0
-72 -74 0
-72 -75 0
-72 -76 0
-72 -77 0
-72 -78 0
-72 -79 0
-72 -80 0
-73 -74 0
-73 -75 0
-73 -76 0
-73 -77 0
-73 -78 0
-73 -79 0
-73 -80 0
-74 -75 0
-74 -76 0
-74 -77 0
-74 -78 0
-74 -79 0
-74 -80 0
-75 -76 0
-75 -77 0
-75 -78 0
-75 -79 0
-75 -80 0
-76 -77 0
-76 -78 0
-76 -79 0
-76 -80 0
-77 -78 0
-77 -79 0
-77 -80 0
-78 -79 0
-78 -80 0
-79 -80 0
71 72 73 74 75 76 77 78 79 80 0
-81 -82 0
-81 -83 0
-81 -84 0
-81 -85 0
-81 -86 0
-81 -87 0
-81 -88 0
-81 -89 0
-81 -90 0
-82 -83 0
-82 -84 0
-82 -85 0
-82 -86 0
-82 -87 0
-82 -88 0
-82 -89 0
-82 -90 0
-83 -84 0
-83 -85 0
-83 -86 0
-83 -87 0
-83 -88 0
-83 -89 0
-83 -90 0
-84 -85 0
-84 -86 0
-84 -87 0
-84 -88 0
-84 -89 0
-84 -90 0
-85 -86 0
-85 -87 0
-85 -88 0
-85 -89 0
-85 -90 0
-86 -87 0
-86 -88 0
-86 -89 0
-86 -90 0
-87 -88 0
-87 -89 0
-87 -90 0
-88 -89 0
-88 -90 0
-89 -90 0
81 82 83 84 85 86 87 88 89 90 0
-91 -92 0
-91 -93 0
-91 -94 0
-91 -95 0
-91 -96 0
-91 -97 0
-91 -98 0
-91 -99 0
-91 -100 0
-92 -93 0
-92 -94 0
-92 -95 0
-92 -96 0
-92 -97 0
-92 -98 0
-92 -99 0
-92 -100 0
-93 -94 0
-93 -95 0
-93 -96 0
-93 -97 0
-93 -98 0
-93 -99 0
-93 -100 0
-94 -95 0
-94 -96 0
-94 -97 0
-94 -98 0
-94 -99 0
-94 -100 0
-95 -96 0
-95 -97 0
-95 -98 0
-95 -99 0
-95 -100 0
-96 -97 0
-96 -98 0
-96 -99 0
-96 -100 0
-97 -98 0
-97 -99 0
-97 -100 0
-98 -99 0
-98 -100 0
-99 -100 0
91 92 93 94 95 96 97 98 99 100 0
-101 -102 0
-101 -103 0
-101 -104 0
-101 -105 0
-101 -106 0
-101 -107 0
-101 -108 0
-101 -109 0
-101 -110 0
-102 -103 0
-102 -104 0
-102 -105 0
-102 -106 0
-102 -107 0
-102 -108 0
-102 -109 0
-102 -110 0
-103 -104 0
-103 -105 0
-103 -106 0
-103 -107 0
-103 -108 0
-103 -109 0
-103 -110 0
-104 -105 0
-104 -106 0
-104 -107 0
-104 -108 0
-104 -109 0
-104 -110 0
-105 -106 0
-105 -107 0
-105 -108 0
-105 -109 0
-105 -110 0
-106 -107 0
-106 -108 0
-106 -109 0
-106 -110 0
-107 -108 0
-107 -109 0
-107 -110 0
-108 -109 0
-108 -110 0
-109 -110 0
101 102 103 104 105 106 107 108 109 110 0
-111 -112 0
-111 -113 0
-111 -114 0
-111 -115 0
-111 -116 0
-111 -117 0
-111 -118 0
-111 -119 0
-111 -120 0
-111 -121 0
-112 -113 0
-112 -114 0
-112 -115 0
-112 -116 0
-112 -117 0
-112 -118 0
-112 -119 0
-112 -120 0
-112 -121 0
-113 -114 0
-113 -115 0
-113 -116 0
-113 -117 0
-113 -118 0
-113 -119 0
-113 -120 0
-113 -121 0
-114 -115 0
-114 -116 0
-114 -117 0
-114 -118 0
-114 -119 0
-114 -120 0
-114 -121 0
-115 -116 0
-115 -117 0
-115 -118 0
-115 -119 0
-115 -120 0
-115 -121 0
-116 -117 0
-116 -118 0
-116 -119 0
-116 -120 0
-116 -121 0
-117 -118 0
-117 -119 0
-117 -120 0
-117 -121 0
-118 -119 0
-118 -120 0
-118 -121 0
-119 -120 0
-119 -121 0
-120 -121 0
111 112 113 114 115 116 117 118 119 120 121 0
-122 -123 0
-122 -124 0
-122 -125 0
-122 -126 0
-122 -127 0
-122 -128 0
-122 -129 0
-122 -130 0
-122 -131 0
-122 -132 0
-123 -124 0
-123 -125 0
-123 -126 0
-123 -127 0
-123 -128 0
-123 -129 0
-123 -130 0
-123 -131 0
-123 -132 0
-124 -125 0
-124 -126 0
-124 -127 0
-124 -128 0
-124 -129 0
-124 -130 0
-124 -131 0
-124 -132 0
-125 -126 0
-125 -127 0
-125 -128 0
-125 -129 0
-125 -130 0
-125 -131 0
-125 -132 0
-126 -127 0
-126 -128 0
-126 -129 0
-126 -130 0
-126 -131 0
-126 -132 0
-127 -128 0
-127 -129 0
-127 -130 0
-127 -131 0
-127 -132 0
-128 -129 0
-128 -130 0
-128 -131 0
-128 -132 0
-129 -130 0
-129 -131 0
-129 -132 0
-130 -131 0
-130 -132 0
-131 -132 0
122 123 124 125 126 127 128 129 130 131 132 0
-133 -134 0
-133 -135 0
-133 -136 0
-133 -137 0
-133 -138 0
-133 -139 0
-133 -140 0
-133 -141 0
-133 -142 0
-133 -143 0
-134 -135 0
-134 -136 0
-134 -137 0
-134 -138 0
-134 -139 0
-134 -140 0
-134 -141 0
-134 -142 0
-134 -143 0
-135 -136 0
-135 -137 0
-135 -138 0
-135 -139 0
-135 -140 0
-135 -141 0
-135 -142 0
-135 -143 0
-136 -137 0
-136 -138 0
-136 -139 0
-136 -140 0
-136 -141 0
-136 -142 0
-136 -143 0
-137 -138 0
-137 -139 0
-137 -140 0
-137 -141 0
-137 -142 0
-137 -143 0
-138 -139 0
-138 -140 0
-138 -141 0
-138 -142 0
-138 -143 0
-139 -140 0
-139 -141 0
-139 -142 0
-139 -143 0
-140 -141 0
-140 -142 0
-140 -143 0
-141 -142 0
-141 -143 0
-142 -143 0
133 134 135 136 137 138 139 140 141 142 143 0
-144 -145 0
-144 -146 0
-144 -147 0
-144 -148 0
-144 -149 0
-144 -150 0
-144 -151 0
-144 -152 0
-144 -153 0
-144 -154 0
-145 -146 0
-145 -147 0
-145 -148 0
-145 -149 0
-145 -150 0
-145 -151 0
-145 -152 0
-145 -153 0
-145 -154 0
-146 -147 0
-146 -148 0
-146 -149 0
-146 -150 0
-146 -151 0
-146 -152 0
-146 -153 0
-146 -154 0
-147 -148 0
-147 -149 0
-147 -150 0
-147 -151 0
-147 -152 0
-147 -153 0
-147 -154 0
-148 -149 0
-148 -150 0
-148 -151 0
-148 -152 0
-148 -153 0
-148 -154 0
-149 -150 0
-149 -151 0
-149 -152 0
-149 -153 0
-149 -154 0
-150 -151 0
-150 -152 0
-150 -153 0
-150 -154 0
-151 -152 0
-151 -153 0
-151 -154 0
-152 -153 0
-152 -154 0
-153 -154 0
144 145 146 147 148 149 150 151 152 153 154 0
-155 -156 0
-155 -157 0
-155 -158 0
-155 -159 0
-155 -160 0
-155 -161 0
-155 -162 0
-155 -163 0
-155 -164 0
-155 -165 0
-156 -157 0
-156 -158 0
-156 -159 0
-156 -160 0
-156 -161 0
-156 -162 0
-156 -163 0
-156 -164 0
-156 -165 0
-157 -158 0
-157 -159 0
-157 -160 0
-157 -161 0
-157 -162 0
-157 -163 0
-157 -164 0
-157 -165 0
-158 -159 0
-158 -160 0
-158 -161 0
-158 -162 0
-158 -163 0
-158 -164 0
-158 -165 0
-159 -160 0
-159 -161 0
-159 -162 0
-159 -163 0
-159 -164 0
-159 -165 0
-160 -161 0
-160 -162 0
-160 -163 0
-160 -164 0
-160 -165 0
-161 -162 0
-161 -163 0
-161 -164 0
-161 -165 0
-162 -163 0
-162 -164 0
-162 -165 0
-163 -164 0
-163 -165 0
-164 -165 0
155 156 157 158 159 160 161 162 163 164 165 0
-166 -167 0
-166 -168 0
-166 -169 0
-166 -170 0
-166 -171 0
-166 -172 0
-166 -173 0
-166 -174 0
-166 -175 0
-166 -176 0
-167 -168 0
-167 -169 0
-167 -170 0
-167 -171 0
-167 -172 0
-167 -173 0
-167 -174 0
-167 -175 0
-167 -176 0
-168 -169 0
-168 -170 0
-168 -171 0
-168 -172 0
-168 -173 0
-168 -174 0
-168 -175 0
-168 -176 0
-169 -170 0
-169 -171 0
-169 -172 0
-169 -173 0
-169 -174 0
-169 -175 0
-169 -176 0
-170 -171 0
-170 -172 0
-170 -173 0
-170 -174 0
-170 -175 0
-170 -176 0
-171 -172 0
-171 -173 0
-171 -174 0
-171 -175 0
-171 -176 0
-172 -173 0
-172 -174 0
-172 -175 0
-172 -176 0
-173 -174 0
-173 -175 0
-173 -176 0
-174 -175 0
-174 -176 0
-175 -176 0
166 167 168 169 170 171 172 173 174 175 176 0
-177 -178 0
-177 -179 0
-177 -180 0
-177 -181 0
-177 -182 0
-177 -183 0
-177 -184 0
-177 -185 0
-177 -186 0
-177 -187 0
-178 -179 0
-178 -180 0
-178 -181 0
-178 -182 0
-178 -183 0
-178 -184 0
-178 -185 0
-178 -186 0
-178 -187 0
-179 -180 0
-179 -181 0
-179 -182 0
-179 -183 0
-179 -184 0
-179 -185 0
-179 -186 0
-179 -187 0
-180 -181 0
-180 -182 0
-180 -183 0
-180 -184 0
-180 -185 0
-180 -186 0
-180 -187 0
-181 -182 0
-181 -183 0
-181 -184 0
-181 -185 0
-181 -186 0
-181 -187 0
-182 -183 0
-182 -184 0
-182 -185 0
-182 -186 0
-182 -187 0
-183 -184 0
-183 -185 0
-183 -186 0
-183 -187 0
-184 -185 0
-184 -186 0
-184 -187 0
-185 -186 0
-185 -187 0
-186 -187 0
177 178 179 180 181 182 183 184 185 186 187 0
-188 -189 0
-188 -190 0
-188 -191 0
-188 -192 0
-188 -193 0
-188 -194 0
-188 -195 0
-188 -196 0
-188 -197 0
-188 -198 0
-189 -190 0
-189 -191 0
-189 -192 0
-189 -193 0
-189 -194 0
-189 -195 0
-189 -196 0
-189 -197 0
-189 -198 0
-190 -191 0
-190 -192 0
-190 -193 0
-190 -194 0
-190 -195 0
-190 -196 0
-190 -197 0
-190 -198 0
-191 -192 0
-191 -193 0
-191 -194 0
-191 -195 0
-191 -196 0
-191 -197 0
-191 -198 0
-192 -193 0
-192 -194 0
-192 -195 0
-192 -196 0
-192 -197 0
-192 -198 0
-193 -194 0
-193 -195 0
-193 -196 0
-193 -197 0
-193 -198 0
-194 -195 0
-194 -196 0
-194 -197 0
-194 -198 0
-195 -196 0
-195 -197 0
-195 -198 0
-196 -197 0
-196 -198 0
-197 -198 0
188 189 190 191 192 193 194 195 196 197 198 0
-199 -200 0
-199 -201 0
-199 -202 0
-199 -203 0
-199 -204 0
-199 -205 0
-199 -206 0
-199 -207 0
-199 -208 0
-199 -209 0
-200 -201 0
-200 -202 0
-200 -203 0
-200 -204 0
-200 -205 0
-200 -206 0
-200 -207 0
-200 -208 0
-200 -209 0
-201 -202 0
-201 -203 0
-201 -204 0
-201 -205 0
-201 -206 0
-201 -207 0
-201 -208 0
-201 -209 0
-202 -203 0
-202 -204 0
-202 -205 0
-202 -206 0
-202 -207 0
-202 -208 0
-202 -209 0
-203 -204 0
-203 -205 0
-203 -206 0
-203 -207 0
-203 -208 0
-203 -209 0
-204 -205 0
-204 -206 0
-204 -207 0
-204 -208 0
-204 -209 0
-205 -206 0
-205 -207 0
-205 -208 0
-205 -209 0
-206 -207 0
-206 -208 0
-206 -209 0
-207 -208 0
-207 -209 0
-208 -209 0
199 200 201 202 203 204 205 206 207 208 209 0
-210 -211 0
-210 -212 0
-210 -213 0
-210 -214 0
-210 -215 0
-210 -216 0
-210 -217 0
-210 -218 0
-210 -219 0
-210 -220 0
-211 -212 0
-211 -213 0
-211 -214 0
-211 -215 0
-211 -216 0
-211 -217 0
-211 -218 0
-211 -219 0
-211 -220 0
-212 -213 0
-212 -214 0
-212 -215 0
-212 -216 0
-212 -217 0
-212 -218 0
-212 -219 0
-212 -220 0
-213 -214 0
-213 -215 0
-213 -216 0
-213 -217 0
-213 -218 0
-213 -219 0
-213 -220 0
-214 -215 0
-214 -216 0
-214 -217 0
-214 -218 0
-214 -219 0
-214 -220 0
-215 -216 0
-215 -217 0
-215 -218 0
-215 -219 0
-215 -220 0
-216 -217 0
-216 -218 0
-216 -219 0
-216 -220 0
-217 -218 0
-217 -219 0
-217 -220 0
-218 -219 0
-218 -220 0
-219 -220 0
210 211 212 213 214 215 216 217 218 219 220 0
-1 -11 0
-1 -21 0
-1 -31 0
-1 -41 0
-1 -51 0
-1 -61 0
-1 -71 0
-1 -81 0
-1 -91 0
-1 -101 0
-11 -21 0
-11 -31 0
-11 -41 0
-11 -51 0
-11 -61 0
-11 -71 0
-11 -81 0
-11 -91 0
-11 -101 0
-21 -31 0
-21 -41 0
-21 -51 0
-21 -61 0
-21 -71 0
-21 -81 0
-21 -91 0
-21 -101 0
-31 -41 0
-31 -51 0
-31 -61 0
-31 -71 0
-31 -81 0
-31 -91 0
-31 -101 0
-41 -51 0
-41 -61 0
-41 -71 0
-41 -81 0
-41 -91 0
-41 -101 0
-51 -61 0
-51 -71 0
-51 -81 0
-51 -91 0
-51 -101 0
-61 -71 0
-61 -81 0
-61 -91 0
-61 -101 0
-71 -81 0
-71 -91 0
-71 -101 0
-81 -91 0
-81 -101 0
-91 -101 0
-2 -12 0
-2 -22 0
-2 -32 0
-2 -42 0
-2 -52 0
-2 -62 0
-2 -72 0
-2 -82 0
-2 -92 0
-2 -102 0
-12 -22 0
-12 -32 0
-12 -42 0
-12 -52 0
-12 -62 0
-12 -72 0
-12 -82 0
-12 -92 0
-12 -102 0
-22 -32 0
-22 -42 0
-22 -52 0
-22 -62 0
-22 -72 0
-22 -82 0
-22 -92 0
-22 -102 0
-32 -42 0
-32 -52 0
-32 -62 0
-32 -72 0
-32 -82 0
-32 -92 0
-32 -102 0
-42 -52 0
-42 -62 0
-42 -72 0
-42 -82 0
-42 -92 0
-42 -102 0
-52 -62 0
-52 -72 0
-52 -82 0
-52 -92 0
-52 -102 0
-62 -72 0
-62 -82 0
-62 -92 0
-62 -102 0
-72 -82 0
-72 -92 0
-72 -102 0
-82 -92 0
-82 -102 0
-92 -102 0
-3 -13 0
-3 -23 0
-3 -33 0
-3 -43 0
-3 -53 0
-3 -63 0
-3 -73 0
-3 -83 0
-3 -93 0
-3 -103 0
-13 -23 0
-13 -33 0
-13 -43 0
-13 -53 0
-13 -63 0
-13 -73 0
-13 -83 0
-13 -93 0
-13 -103 0
-23 -33 0
-23 -43 0
-23 -53 0
-23 -63 0
-23 -73 0
-23 -83 0
-23 -93 0
-23 -103 0
-33 -43 0
-33 -53 0
-33 -63 0
-33 -73 0
-33 -83 0
-33 -93 0
-33 -103 0
-43 -53 0
-43 -63 0
-43 -73 0
-43 -83 0
-43 -93 0
-43 -103 0
-53 -63 0
-53 -73 0
-53 -83 0
-53 -93 0
-53 -103 0
-63 -73 0
-63 -83 0
-63 -93 0
-63 -103 0
-73 -83 0
-73 -93 0
-73 -103 0
-83 -93 0
-83 -103 0
-93 -103 0
-4 -14 0
-4 -24 0
-4 -34 0
-4 -44 0
-4 -54 0
-4 -64 0
-4 -74 0
-4 -84 0
-4 -94 0
-4 -104 0
-14 -24 0
-14 -34 0
-14 -44 0
-14 -54 0
-14 -64 0
-14 -74 0
-14 -84 0
-14 -94 0
-14 -104 0
-24 -34 0
-24 -44 0
-24 -54 0
-24 -64 0
-24 -74 0
-24 -84 0
-24 -94 0
-24 -104 0
-34 -44 0
-34 -54 0
-34 -64 0
-34 -74 0
-34 -84 0
-34 -94 0
-34 -104 0
-44 -54 0
-44 -64 0
-44 -74 0
-44 -84 0
-44 -94 0
-44 -104 0
-54 -64 0
-54 -74 0
-54 -84 0
-54 -94 0
-54 -104 0
-64 -74 0
-64 -84 0
-64 -94 0
-64 -104 0
-74 -84 0
-74 -94 0
-74 -104 0
-84 -94 0
-84 -104 0
-94 -104 0
-5 -15 0
-5 -25 0
-5 -35 0
-5 -45 0
-5 -55 0
-5 -65 0
-5 -75 0
-5 -85 0
-5 -95 0
-5 -105 0
-15 -25 0
-15 -35 0
-15 -45 0
-15 -55 0
-15 -65 0
-15 -75 0
-15 -85 0
-15 -95 0
-15 -105 0
-25 -35 0
-25 -45 0
-25 -55 0
-25 -65 0
-25 -75 0
-25 -85 0
-25 -95 0
-25 -105 0
-35 -45 0
-35 -55 0
-35 -65 0
-35 -75 0
-35 -85 0
-35 -95 0
-35 -105 0
-45 -55 0
-45 -65 0
-45 -75 0
-45 -85 0
-45 -95 0
-45 -105 0
-55 -65 0
-55 -75 0
-55 -85 0
-55 -95 0
-55 -105 0
-65 -75 0
-65 -85 0
-65 -95 0
-65 -105 0
-75 -85 0
-75 -95 0
-75 -105 0
-85 -95 0
-85 -105 0
-95 -105 0
-6 -16 0
-6 -26 0
-6 -36 0
-6 -46 0
-6 -56 0
-6 -66 0
-6 -76 0
-6 -86 0
-6 -96 0
-6 -106 0
-16 -26 0
-16 -36 0
-16 -46 0
-16 -56 0
-16 -66 0
-16 -76 0
-16 -86 0
-16 -96 0
-16 -106 0
-26 -36 0
-26 -46 0
-26 -56 0
-26 -66 0
-26 -76 0
-26 -86 0
-26 -96 0
-26 -106 0
-36 -46 0
-36 -56 0
-36 -66 0
-36 -76 0
-36 -86 0
-36 -96 0
-36 -106 0
-46 -56 0
-46 -66 0
-46 -76 0
-46 -86 0
-46 -96 0
-46 -106 0
-56 -66 0
-56 -76 0
-56 -86 0
-56 -96 0
-56 -106 0
-66 -76 0
-66 -86 0
-66 -96 0
-66 -106 0
-76 -86 0
-76 -96 0
-76 -106 0
-86 -96 0
-86 -106 0
-96 -106 0
-7 -17 0
-7 -27 0
-7 -37 0
-7 -47 0
-7 -57 0
-7 -67 0
-7 -77 0
-7 -87 0
-7 -97 0
-7 -107 0
-17 -27 0
-17 -37 0
-17 -47 0
-17 -57 0
-17 -67 0
-17 -77 0
-17 -87 0
-17 -97 0
-17 -107 0
-27 -37 0
-27 -47 0
-27 -57 0
-27 -67 0
-27 -77 0
-27 -87 0
-27 -97 0
-27 -107 0
-37 -47 0
-37 -57 0
-37 -67 0
-37 -77 0
-37 -87 0
-37 -97 0
-37 -107 0
-47 -57 0
-47 -67 0
-47 -77 0
-47 -87 0
-47 -97 0
-47 -107 0
-57 -67 0
-57 -77 0
-57 -87 0
-57 -97 0
-57 -107 0
-67 -77 0
-67 -87 0
-67 -97 0
-67 -107 0
-77 -87 0
-77 -97 0
-77 -107 0
-87 -97 0
-87 -107 0
-97 -107 0
-8 -18 0
-8 -28 0
-8 -38 0
-8 -48 0
-8 -58 0
-8 -68 0
-8 -78 0
-8 -88 0
-8 -98 0
-8 -108 0
-18 -28 0
-18 -38 0
-18 -48 0
-18 -58 0
-18 -68 0
-18 -78 0
-18 -88 0
-18 -98 0
-18 -108 0
-28 -38 0
-28 -48 0
-28 -58 0
-28 -68 0
-28 -78 0
-28 -88 0
-28 -98 0
-28 -108 0
-38 -48 0
-38 -58 0
-38 -68 0
-38 -78 0
-38 -88 0
-38 -98 0
-38 -108 0
-48 -58 0
-48 -68 0
-48 -78 0
-48 -88 0
-48 -98 0
-48 -108 0
-58 -68 0
-58 -78 0
-58 -88 0
-58 -98 0
-58 -108 0
-68 -78 0
-68 -88 0
-68 -98 0
-68 -108 0
-78 -88 0
-78 -98 0
-78 -108 0
-88 -98 0
-88 -108 0
-98 -108 0
-9 -19 0
-9 -29 0
-9 -39 0
-9 -49 0
-9 -59 0
-9 -69 0
-9 -79 0
-9 -89 0
-9 -99 0
-9 -109 0
-19 -29 0
-19 -39 0
-19 -49 0
-19 -59 0
-19 -69 0
-19 -79 0
-19 -89 0
-19 -99 0
-19 -109 0
-29 -39 0
-29 -49 0
-29 -59 0
-29 -69 0
-29 -79 0
-29 -89 0
-29 -99 0
-29 -109 0
-39 -49 0
-39 -59 0
-39 -69 0
-39 -79 0
-39 -89 0
-39 -99 0
-39 -109 0
-49 -59 0
-49 -69 0
-49 -79 0
-49 -89 0
-49 -99 0
-49 -109 0
-59 -69 0
-59 -79 0
-59 -89 0
-59 -99 0
-59 -109 0
-69 -79 0
-69 -89 0
-69 -99 0
-69 -109 0
-79 -89 0
-79 -99 0
-79 -109 0
-89 -99 0
-89 -109 0
-99 -109 0
-10 -20 0
-10 -30 0
-10 -40 0
-10 -50 0
-10 -60 0
-10 -70 0
-10 -80 0
-10 -90 0
-10 -100 0
-10 -110 0
-20 -30 0
-20 -40 0
-20 -50 0
-20 -60 0
-20 -70 0
-20 -80 0
-20 -90 0
-20 -100 0
-20 -110 0
-30 -40 0
-30 -50 0
-30 -60 0
-30 -70 0
-30 -80 0
-30 -90 0
-30 -100 0
-30 -110 0
-40 -50 0
-40 -60 0
-40 -70 0
-40 -80 0
-40 -90 0
-40 -100 0
-40 -110 0
-50 -60 0
-50 -70 0
-50 -80 0
-50 -90 0
-50 -100 0
-50 -110 0
-60 -70 0
-60 -80 0
-60 -90 0
-60 -100 0
-60 -110 0
-70 -80 0
-70 -90 0
-70 -100 0
-70 -110 0
-80 -90 0
-80 -100 0
-80 -110 0
-90 -100 0
-90 -110 0
-100 -110 0
-111 -122 0
-111 -133 0
-111 -144 0
-111 -155 0
-111 -166 0
-111 -177 0
-111 -188 0
-111 -199 0
-111 -210 0
-122 -133 0
-122 -144 0
-122 -155 0
-122 -166 0
-122 -177 0
-122 -188 0
-122 -199 0
-122 -210 0
-133 -144 0
-133 -155 0
-133 -166 0
-133 -177 0
-133 -188 0
-133 -199 0
-133 -210 0
-144 -155 0
-144 -166 0
-144 -177 0
-144 -188 0
-144 -199 0
-144 -210 0
-155 -166 0
-155 -177 0
-155 -188 0
-155 -199 0
-155 -210 0
-166 -177 0
-166 -188 0
-166 -199 0
-166 -210 0
-177 -188 0
-177 -199 0
-177 -210 0
-188 -199 0
-188 -210 0
-199 -210 0
-112 -123 0
-112 -134 0
-112 -145 0
-112 -156 0
-112 -167 0
-112 -178 0
-112 -189 0
-112 -200 0
-112 -211 0
-123 -134 0
-123 -145 0
-123 -156 0
-123 -167 0
-123 -178 0
-123 -189 0
-123 -200 0
-123 -211 0
-134 -145 0
-134 -156 0
-134 -167 0
-134 -178 0
-134 -189 0
-134 -200 0
-134 -211 0
-145 -156 0
-145 -167 0
-145 -178 0
-145 -189 0
-145 -200 0
-145 -211 0
-156 -167 0
-156 -178 0
-156 -189 0
-156 -200 0
-156 -211 0
-167 -178 0
-167 -189 0
-167 -200 0
-167 -211 0
-178 -189 0
-178 -200 0
-178 -211 0
-189 -200 0
-189 -211 0
-200 -211 0
-113 -124 0
-113 -135 0
-113 -146 0
-113 -157 0
-113 -168 0
-113 -179 0
-113 -190 0
-113 -201 0
-113 -212 0
-124 -135 0
-124 -146 0
-124 -157 0
-124 -168 0
-124 -179 0
-124 -190 0
-124 -201 0
-124 -212 0
-135 -146 0
-135 -157 0
-135 -168 0
-135 -179 0
-135 -190 0
-135 -201 0
-135 -212 0
-146 -157 0
-146 -168 0
-146 -179 0
-146 -190 0
-146 -201 0
-146 -212 0
-157 -168 0
-157 -179 0
-157 -190 0
-157 -201 0
-157 -212 0
-168 -179 0
-168 -190 0
-168 -201 0
-168 -212 0
-179 -190 0
-179 -201 0
-179 -212 0
-190 -201 0
-190 -212 0
-201 -212 0
-114 -125 0
-114 -136 0
-114 -147 0
-114 -158 0
-114 -169 0
-114 -180 0
-114 -191 0
-114 -202 0
-114 -213 0
-125 -136 0
-125 -147 0
-125 -158 0
-125 -169 0
-125 -180 0
-125 -191 0
-125 -202 0
-125 -213 0
-136 -147 0
-136 -158 0
-136 -169 0
-136 -180 0
-136 -191 0
-136 -202 0
-136 -213 0
-147 -158 0
-147 -169 0
-147 -180 0
-147 -191 0
-147 -202 0
-147 -213 0
-158 -169 0
-158 -180 0
-158 -191 0
-158 -202 0
-158 -213 0
-169 -180 0
-169 -191 0
-169 -202 0
-169 -213 0
-180 -191 0
-180 -202 0
-180 -213 0
-191 -202 0
-191 -213 0
-202 -213 0
-115 -126 0
-115 -137 0
-115 -148 0
-115 -159 0
-115 -170 0
-115 -181 0
-115 -192 0
-115 -203 0
-115 -214 0
-126 -137 0
-126 -148 0
-126 -159 0
-126 -170 0
-126 -181 0
-126 -192 0
-126 -203 0
-126 -214 0
-137 -148 0
-137 -159 0
-137 -170 0
-137 -181 0
-137 -192 0
-137 -203 0
-137 -214 0
-148 -159 0
-148 -170 0
-148 -181 0
-148 -192 0
-148 -203 0
-148 -214 0
-159 -170 0
-159 -181 0
-159 -192 0
-159 -203 0
-159 -214 0
-170 -181 0
-170 -192 0
-170 -203 0
-170 -214 0
-181 -192 0
-181 -203 0
-181 -214 0
-192 -203 0
-192 -214 0
-203 -214 0
-116 -127 0
-116 -138 0
-116 -149 0
-116 -160 0
-116 -171 0
-116 -182 0
-116 -193 0
-116 -204 0
-116 -215 0
-127 -138 0
-127 -149 0
-127 -160 0
-127 -171 0
-127 -182 0
-127 -193 0
-127 -204 0
-127 -215 0
-138 -149 0
-138 -160 0
-138 -171 0
-138 -182 0
-138 -193 0
-138 -204 0
-138 -215 0
-149 -160 0
-149 -171 0
-149 -182 0
-149 -193 0
-149 -204 0
-149 -215 0
-160 -171 0
-160 -182 0
-160 -193 0
-160 -204 0
-160 -215 0
-171 -182 0
-171 -193 0
-171 -204 0
-171 -215 0
-182 -193 0
-182 -204 0
-182 -215 0
-193 -204 0
-193 -215 0
-204 -215 0
-117 -128 0
-117 -139 0
-117 -150 0
-117 -161 0
-117 -172 0
-117 -183 0
-117 -194 0
-117 -205 0
-117 -216 0
-128 -139 0
-128 -150 0
-128 -161 0
-128 -172 0
-128 -183 0
-128 -194 0
-128 -205 0
-128 -216 0
-139 -150 0
-139 -161 0
-139 -172 0
-139 -183 0
-139 -194 0
-139 -205 0
-139 -216 0
-150 -161 0
-150 -172 0
-150 -183 0
-150 -194 0
-150 -205 0
-150 -216 0
-161 -172 0
-161 -183 0
-161 -194 0
-161 -205 0
-161 -216 0
-172 -183 0
-172 -194 0
-172 -205 0
-172 -216 0
-183 -194 0
-183 -205 0
-183 -216 0
-194 -205 0
-194 -216 0
-205 -216 0
-118 -129 0
-118 -140 0
-118 -151 0
-118 -162 0
-118 -173 0
-118 -184 0
-118 -195 0
-118 -206 0
-118 -217 0
-129 -140 0
-129 -151 0
-129 -162 0
-129 -173 0
-129 -184 0
-129 -195 0
-129 -206 0
-129 -217 0
-140 -151 0
-140 -162 0
-140 -173 0
-140 -184 0
-140 -195 0
-140 -206 0
-140 -217 0
-151 -162 0
-151 -173 0
-151 -184 0
-151 -195 0
-151 -206 0
-151 -217 0
-162 -173 0
-162 -184 0
-162 -195 0
-162 -206 0
-162 -217 0
-173 -184 0
-173 -195 0
-173 -206 0
-173 -217 0
-184 -195 0
-184 -206 0
-184 -217 0
-195 -206 0
-195 -217 0
-206 -217 0
-119 -130 0
-119 -141 0
-119 -152 0
-119 -163 0
-119 -174 0
-119 -185 0
-119 -196 0
-119 -207 0
-119 -218 0
-130 -141 0
-130 -152 0
-130 -163 0
-130 -174 0
-130 -185 0
-130 -196 0
-130 -207 0
-130 -218 0
-141 -152 0
-141 -163 0
-141 -174 0
-141 -185 0
-141 -196 0
-141 -207 0
-141 -218 0
-152 -163 0
-152 -174 0
-152 -185 0
-152 -196 0
-152 -207 0
-152 -218 0
-163 -174 0
-163 -185 0
-163 -196 0
-163 -207 0
-163 -218 0
-174 -185 0
-174 -196 0
-174 -207 0
-174 -218 0
-185 -196 0
-185 -207 0
-185 -218 0
-196 -207 0
-196 -218 0
-207 -218 0
-120 -131 0
-120 -142 0
-120 -153 0
-120 -164 0
-120 -175 0
-120 -186 0
-120 -197 0
-120 -208 0
-120 -219 0
-131 -142 0
-131 -153 0
-131 -164 0
-131 -175 0
-131 -186 0
-131 -197 0
-131 -208 0
-131 -219 0
-142 -153 0
-142 -164 0
-142 -175 0
-142 -186 0
-142 -197 0
-142 -208 0
-142 -219 0
-153 -164 0
-153 -175 0
-153 -186 0
-153 -197 0
-153 -208 0
-153 -219 0
-164 -175 0
-164 -186 0
-164 -197 0
-164 -208 0
-164 -219 0
-175 -186 0
-175 -197 0
-175 -208 0
-175 -219 0
-186 -197 0
-186 -208 0
-186 -219 0
-197 -208 0
-197 -219 0
-208 -219 0
-121 -132 0
-121 -143 0
-121 -154 0
-121 -165 0
-121 -176 0
-121 -187 0
-121 -198 0
-121 -209 0
-121 -220 0
-132 -143 0
-132 -154 0
-132 -165 0
-132 -176 0
-132 -187 0
-132 -198 0
-132 -209 0
-132 -220 0
-143 -154 0
-143 -165 0
-143 -176 0
-143 -187 0
-143 -198 0
-143 -209 0
-143 -220 0
-154 -165 0
-154 -176 0
-154 -187 0
-154 -198 0
-154 -209 0
-154 -220 0
-165 -176 0
-165 -187 0
-165 -198 0
-165 -209 0
-165 -220 0
-176 -187 0
-176 -198 0
-176 -209 0
-176 -220 0
-187 -198 0
-187 -209 0
-187 -220 0
-198 -209 0
-198 -220 0
-209 -220 0
