c Phase 3 random 3-SAT negative control
c seed=41015
c ratio=4.26
c variant=planted_sat
c expected=SATISFIABLE
p cnf 150 639
44 -64 -111 0
-39 -81 97 0
-1 -23 -26 0
107 131 -139 0
15 -40 -78 0
-24 -115 -117 0
-35 65 66 0
7 -42 -139 0
-22 -39 -127 0
-71 -117 137 0
-23 51 -142 0
28 63 -139 0
-28 -53 74 0
15 -29 40 0
-94 101 108 0
-18 96 105 0
-14 97 -118 0
71 116 -130 0
-32 95 -143 0
134 144 150 0
70 -97 109 0
28 91 141 0
-54 -71 -117 0
-36 -57 -123 0
9 92 106 0
75 -102 -107 0
25 -121 122 0
-50 -82 147 0
19 27 28 0
17 81 130 0
12 16 52 0
-6 60 -63 0
-26 59 68 0
-13 24 137 0
-30 -51 138 0
-39 -125 130 0
-105 -125 135 0
-34 -101 -117 0
1 -57 122 0
-18 -125 132 0
-30 77 97 0
27 93 -96 0
-116 -122 -148 0
-8 63 -111 0
26 -129 136 0
-33 91 105 0
-9 -32 -104 0
-69 100 133 0
20 -54 123 0
-103 -112 -131 0
3 -69 -131 0
-58 66 91 0
-38 122 135 0
-12 54 97 0
-35 78 -88 0
27 102 145 0
26 72 118 0
75 81 -139 0
-12 79 -119 0
12 96 -112 0
-19 -54 -141 0
26 79 -106 0
-52 62 74 0
-31 -130 -141 0
-67 89 -93 0
54 -68 74 0
-3 106 110 0
18 -64 -75 0
-21 -40 -117 0
28 54 -149 0
70 83 106 0
-1 -39 85 0
31 -46 -55 0
-27 35 143 0
-12 46 -103 0
-54 72 135 0
46 -51 90 0
-92 96 -145 0
-9 -39 116 0
-42 -53 -111 0
-21 -76 -93 0
-53 99 -134 0
-31 100 -123 0
-16 -79 116 0
48 51 74 0
-62 71 129 0
-8 -38 148 0
17 -64 65 0
50 -68 86 0
37 96 104 0
47 57 114 0
-61 -123 142 0
29 58 -127 0
-8 41 89 0
39 43 -110 0
-31 61 137 0
-76 91 -99 0
21 -141 144 0
-56 -87 111 0
63 -115 -129 0
-13 49 -51 0
28 112 -121 0
39 53 98 0
-24 87 118 0
-25 -33 -60 0
75 81 113 0
-41 -71 119 0
46 -69 107 0
-72 -100 146 0
-22 -105 -118 0
4 -74 -97 0
98 -109 -150 0
-58 -73 105 0
-63 -88 -132 0
12 70 82 0
-58 92 -126 0
34 103 -119 0
-23 32 62 0
-57 124 -143 0
-40 -65 80 0
44 48 106 0
82 103 -115 0
60 -129 145 0
-31 120 -144 0
49 92 116 0
18 40 92 0
43 -62 -149 0
-15 61 -134 0
-5 22 -97 0
-28 -41 117 0
-75 81 123 0
123 129 143 0
50 -52 83 0
-34 44 95 0
-28 -77 -91 0
-44 96 98 0
15 18 -69 0
42 58 -85 0
-58 80 83 0
32 -51 68 0
59 -64 -99 0
65 88 -89 0
1 -80 142 0
-74 -77 -121 0
-78 92 116 0
50 94 116 0
-27 -43 -109 0
43 62 -69 0
-31 -73 -82 0
-68 85 -88 0
-14 -56 133 0
-41 58 -104 0
37 -65 -137 0
1 54 100 0
-10 121 137 0
16 28 59 0
7 121 -149 0
25 -44 137 0
8 65 -70 0
-43 53 -88 0
-26 71 103 0
-38 41 112 0
-15 106 -123 0
-3 -122 -126 0
38 103 -126 0
12 -57 139 0
18 73 92 0
15 59 -110 0
-20 106 -110 0
24 -53 -81 0
8 99 -110 0
-20 46 -82 0
-71 -113 -139 0
24 43 -97 0
-97 111 130 0
12 43 -148 0
-5 47 -108 0
-34 -104 -148 0
-21 -46 115 0
-14 109 -116 0
15 -105 145 0
63 92 121 0
-64 93 110 0
-23 25 83 0
67 112 -120 0
55 -87 -93 0
8 16 -146 0
1 6 100 0
-2 -55 131 0
4 -39 -65 0
14 24 -145 0
18 -57 67 0
-52 84 -101 0
-8 -26 -132 0
31 128 133 0
-64 -80 139 0
24 34 -60 0
-16 -113 150 0
41 45 -77 0
44 56 140 0
75 89 149 0
-93 -108 137 0
7 -70 146 0
-67 72 86 0
46 -55 108 0
52 -67 -121 0
40 61 -147 0
-84 -145 -147 0
25 -50 86 0
-23 -104 133 0
55 102 -147 0
5 -76 98 0
8 75 -133 0
29 35 -73 0
-12 73 82 0
47 -103 -110 0
-38 -55 131 0
-7 -47 -94 0
11 -50 -104 0
-15 -29 62 0
8 -34 143 0
19 -29 -148 0
14 57 -116 0
-70 -116 -141 0
15 -128 -133 0
-26 124 138 0
-47 -98 121 0
-18 51 83 0
-102 118 128 0
52 -67 -79 0
-25 -92 116 0
20 44 52 0
15 -46 144 0
-9 -48 -54 0
-22 81 -96 0
77 125 -133 0
87 -89 132 0
12 17 70 0
59 105 -126 0
15 66 -88 0
45 104 121 0
-29 54 61 0
-91 -130 144 0
43 45 -106 0
-67 -101 -130 0
50 -98 -102 0
2 19 144 0
-69 -108 -112 0
-6 -80 -131 0
3 -29 -88 0
7 -20 -32 0
-51 -73 -128 0
54 -100 148 0
59 114 -136 0
-9 13 -39 0
19 63 -119 0
42 58 81 0
126 -139 149 0
-26 60 -62 0
-20 91 139 0
17 27 84 0
44 91 138 0
-80 113 -119 0
10 -93 -131 0
22 -59 -67 0
-8 -18 75 0
50 66 -74 0
-14 -56 -118 0
-22 -103 -105 0
-22 49 -67 0
-20 62 -75 0
18 -69 109 0
53 63 108 0
4 90 -121 0
12 -25 -128 0
10 -58 -72 0
-75 -77 -125 0
-20 88 -149 0
-32 -56 85 0
20 -64 80 0
98 113 -119 0
-29 -36 99 0
53 144 -145 0
67 111 124 0
-22 -97 118 0
10 -35 96 0
-64 -104 -141 0
12 -129 148 0
25 -100 144 0
-44 -90 110 0
76 -84 -137 0
-12 -52 117 0
10 11 -20 0
58 73 142 0
-14 56 115 0
107 -124 146 0
-52 103 143 0
-112 113 119 0
23 -83 -117 0
-71 76 139 0
102 144 148 0
-63 -116 121 0
1 -30 -73 0
28 60 141 0
59 67 -75 0
-41 63 109 0
-14 -17 -44 0
-74 -78 -115 0
79 91 -112 0
-72 86 -147 0
-12 30 35 0
-4 6 102 0
-29 -30 -124 0
11 39 -150 0
35 -86 -102 0
29 36 -54 0
-31 111 -114 0
-33 -58 -124 0
80 -109 144 0
-25 49 83 0
16 -20 -27 0
-21 107 128 0
-14 28 130 0
57 -100 -134 0
-55 71 120 0
-34 -95 -111 0
9 -68 132 0
-15 -61 -108 0
59 91 147 0
-67 -111 119 0
16 -41 145 0
-34 56 132 0
1 -101 -117 0
9 -91 -109 0
59 -96 131 0
6 48 -114 0
-40 -56 -122 0
-6 -103 139 0
65 74 128 0
-18 41 87 0
2 -82 -137 0
32 57 -141 0
-58 60 -94 0
37 40 84 0
-19 -94 130 0
30 33 120 0
12 21 -85 0
-73 -99 103 0
63 -127 136 0
-2 -68 87 0
31 -55 -99 0
-9 -55 80 0
-71 -74 89 0
95 130 135 0
4 -86 91 0
-15 -68 -109 0
-8 -86 -100 0
-3 -109 -141 0
31 56 -91 0
-9 109 -140 0
-13 52 81 0
40 56 81 0
-38 76 101 0
-19 22 49 0
42 105 112 0
-5 -11 149 0
12 -88 -120 0
23 -57 -100 0
3 -48 110 0
60 77 -147 0
-40 -95 -141 0
36 99 -148 0
-27 47 130 0
7 -19 -30 0
-54 -64 94 0
-24 96 122 0
-63 -66 104 0
50 131 -133 0
-8 -16 78 0
2 124 -142 0
1 -19 -37 0
53 95 -101 0
26 -79 -99 0
30 -103 -150 0
74 104 -119 0
77 -108 -150 0
-27 -74 75 0
-89 112 115 0
-13 -123 -140 0
-11 -49 -125 0
2 -7 93 0
36 126 -150 0
-22 -36 47 0
14 -68 -92 0
69 -73 -97 0
75 107 143 0
-23 91 150 0
-19 23 -61 0
-10 116 143 0
-38 43 128 0
-106 -126 149 0
-15 34 136 0
70 -78 112 0
51 80 -118 0
8 -26 -83 0
32 109 120 0
22 -84 139 0
-8 115 -132 0
-13 -51 -63 0
-71 76 106 0
-7 -106 -127 0
59 -61 -114 0
67 116 -148 0
-11 17 47 0
-21 -83 -144 0
-26 91 -115 0
6 -26 -29 0
-72 79 118 0
8 34 -93 0
49 61 -146 0
-17 -43 139 0
-76 77 107 0
-87 -93 -115 0
-36 -102 -140 0
-46 -140 -150 0
73 -126 -144 0
-14 88 -114 0
-11 -73 140 0
106 117 119 0
-16 -21 -78 0
63 -107 -108 0
42 -63 -149 0
41 53 91 0
10 37 -142 0
24 82 116 0
45 59 125 0
22 -63 -81 0
22 93 112 0
-21 68 109 0
73 129 131 0
19 -74 -140 0
27 -60 116 0
-16 101 -104 0
6 -50 -99 0
-25 -70 -76 0
27 -37 119 0
86 -93 -118 0
36 74 145 0
-26 -100 -105 0
-45 -64 125 0
-51 -90 -114 0
18 71 87 0
7 -20 -147 0
-2 -8 -49 0
40 -49 141 0
-37 62 -81 0
-41 72 135 0
30 -60 98 0
-28 -84 132 0
94 -120 145 0
-15 88 107 0
-30 -45 63 0
91 125 -147 0
-88 110 -126 0
78 93 -137 0
-102 104 130 0
44 -68 -89 0
36 -112 114 0
54 88 130 0
41 87 -108 0
41 -85 -133 0
-45 -85 146 0
49 58 81 0
74 88 -113 0
40 -57 149 0
62 -111 114 0
-53 -94 -137 0
1 -4 -143 0
-24 118 -130 0
21 109 -115 0
-89 99 144 0
-11 85 141 0
-62 68 -90 0
-59 -108 -133 0
-2 90 148 0
-59 -95 -122 0
134 -135 144 0
8 27 -61 0
4 89 -131 0
39 141 148 0
-12 -66 -70 0
4 128 -139 0
58 -72 -109 0
63 -65 120 0
-85 -90 136 0
60 110 131 0
26 -88 112 0
-127 -143 -146 0
-93 105 -124 0
-6 -61 -83 0
-16 -59 -105 0
49 -57 -93 0
9 -38 -89 0
9 -132 -149 0
-11 -43 95 0
-67 119 -129 0
-77 -89 138 0
-39 64 -99 0
-33 115 140 0
-44 60 79 0
-15 44 142 0
28 -29 -78 0
-36 115 -126 0
7 47 90 0
-6 29 -33 0
-7 -34 136 0
99 -110 146 0
32 -44 78 0
-72 76 -125 0
83 -94 -104 0
132 -133 -149 0
27 -65 -92 0
-68 88 89 0
31 63 122 0
-11 12 -136 0
-103 106 119 0
8 109 -135 0
-37 -100 122 0
-38 -99 -135 0
-10 -79 -100 0
-18 53 -139 0
-32 125 -136 0
35 -41 119 0
49 -61 131 0
26 87 -117 0
-2 20 123 0
-104 -129 150 0
90 -103 -118 0
119 128 131 0
120 -138 -140 0
-26 -55 -116 0
1 85 -111 0
6 -21 -142 0
-32 34 -87 0
76 77 -134 0
-12 32 55 0
-67 106 -135 0
-58 -63 -99 0
11 -59 137 0
-29 -42 146 0
-1 -117 138 0
51 -97 131 0
-24 -31 -34 0
-54 102 105 0
-3 124 133 0
1 20 -74 0
-51 -136 148 0
19 -23 -138 0
-6 -32 -97 0
-9 -88 -94 0
7 64 131 0
45 75 96 0
37 -90 -140 0
-19 45 -85 0
48 61 -130 0
-32 -48 -121 0
2 61 -67 0
23 -94 124 0
-7 86 -128 0
-5 37 -86 0
-28 74 144 0
-27 -85 -98 0
-23 -44 94 0
-7 108 -124 0
-86 101 -146 0
-47 -71 -125 0
27 36 96 0
19 -33 -90 0
17 98 -122 0
87 93 -107 0
53 -68 99 0
-60 94 -112 0
-60 -77 91 0
-76 -81 114 0
-29 -127 147 0
-18 57 135 0
104 113 147 0
-5 -91 -142 0
21 25 68 0
34 72 -97 0
-58 116 125 0
2 -73 137 0
-1 8 -25 0
-25 -69 -77 0
-52 -120 144 0
37 -44 61 0
-16 -46 -128 0
38 79 -143 0
5 92 -146 0
45 -71 -96 0
92 127 -140 0
1 -28 60 0
-36 -49 -136 0
58 -116 -143 0
12 70 73 0
9 -16 -92 0
8 54 83 0
54 106 121 0
-43 48 -132 0
-93 -102 139 0
86 107 -139 0
-38 -64 81 0
11 -61 112 0
-45 84 135 0
56 -80 -140 0
31 52 59 0
-77 -125 -145 0
16 -52 -84 0
54 -130 147 0
5 6 -57 0
32 -85 117 0
-8 39 95 0
88 89 -101 0
-44 -76 -126 0
30 100 141 0
2 103 -146 0
-79 88 97 0
-56 -61 127 0
-16 -37 73 0
32 49 -145 0
32 77 127 0
-102 123 148 0
-22 113 143 0
-4 -58 -140 0
-122 127 146 0
66 103 122 0
82 -122 146 0
61 102 115 0
-43 46 -85 0
