c Phase 3 random 3-SAT negative control
c seed=41016
c ratio=4.26
c variant=planted_sat
c expected=SATISFIABLE
p cnf 400 1704
102 -196 361 0
-170 -225 -376 0
80 -99 -260 0
-106 251 -355 0
-23 61 339 0
-34 105 -187 0
233 293 312 0
25 212 306 0
18 355 358 0
117 -132 350 0
207 -321 377 0
-71 92 249 0
-128 -353 -380 0
207 -271 -393 0
272 288 396 0
160 285 290 0
110 118 -169 0
14 -72 138 0
-91 -241 277 0
-56 99 -333 0
-6 -267 396 0
-44 76 316 0
262 -300 -328 0
41 133 -235 0
11 133 -168 0
107 139 376 0
-41 81 -300 0
316 321 350 0
-64 187 351 0
30 -247 -346 0
-11 82 259 0
4 -153 379 0
-31 262 279 0
-220 -329 363 0
-76 -176 177 0
-295 301 384 0
16 257 -295 0
225 -289 -296 0
108 -181 226 0
-5 112 -375 0
-102 -360 -374 0
34 211 339 0
-159 -209 -329 0
155 197 291 0
101 177 204 0
-22 247 -358 0
-36 -138 -362 0
121 169 265 0
37 41 395 0
-183 -185 265 0
-27 30 -181 0
3 258 383 0
48 201 -339 0
63 -300 332 0
20 385 395 0
66 -114 -132 0
121 143 366 0
-14 -62 -144 0
-92 -245 248 0
-134 -170 -215 0
-124 172 343 0
47 186 -373 0
-229 -286 346 0
-53 132 342 0
-68 279 329 0
34 47 -330 0
29 -146 -383 0
-122 316 -369 0
-45 -254 322 0
-89 177 238 0
-56 164 -346 0
-4 -7 298 0
-66 -217 -284 0
47 -266 -331 0
10 -79 -251 0
7 -47 -372 0
177 229 -322 0
-65 -89 -313 0
-93 98 -263 0
205 -321 331 0
23 102 -177 0
-112 -273 394 0
133 -142 -320 0
-73 -161 -341 0
-13 360 -388 0
248 -303 -385 0
128 -234 322 0
13 -341 383 0
-109 239 247 0
16 -50 136 0
-231 245 -273 0
-74 236 -355 0
-333 387 391 0
-4 15 -274 0
25 -152 -198 0
-60 246 301 0
220 302 390 0
-3 -89 362 0
148 -202 -253 0
-92 -257 -265 0
-61 263 289 0
-129 -244 260 0
110 -231 355 0
63 287 315 0
164 -273 -286 0
-288 -294 304 0
-210 227 -327 0
-113 -246 267 0
-37 133 -275 0
218 -230 -322 0
186 320 326 0
-68 -258 -264 0
-133 -153 247 0
-26 283 -294 0
94 218 -270 0
-178 -341 -348 0
-12 133 164 0
7 207 -274 0
59 -108 266 0
-149 232 -315 0
60 97 203 0
80 -316 339 0
-264 308 -375 0
68 288 373 0
145 -202 306 0
-33 94 -318 0
55 182 308 0
-52 331 366 0
-15 -289 -356 0
-53 90 -102 0
18 198 200 0
-35 -207 -224 0
-65 -170 362 0
254 267 -354 0
57 85 167 0
158 351 -358 0
-116 -132 -253 0
10 -175 341 0
228 -250 -380 0
63 154 186 0
-6 -355 377 0
-23 329 366 0
64 -84 -163 0
241 -306 -366 0
91 308 337 0
15 175 -318 0
60 149 346 0
-231 241 -324 0
12 189 -386 0
-169 182 -324 0
-5 -160 372 0
-48 -190 -369 0
84 -353 -360 0
148 -233 -258 0
31 -159 284 0
-66 217 219 0
-228 316 367 0
140 -152 216 0
72 -244 315 0
-166 -168 -305 0
132 -167 199 0
36 -94 104 0
16 -61 -163 0
58 165 -215 0
-30 -127 -284 0
-111 167 -292 0
-196 -353 -365 0
-44 -76 331 0
-139 351 -383 0
63 261 -387 0
47 -87 -313 0
-31 198 377 0
99 214 -328 0
-7 93 277 0
-29 160 203 0
-226 289 -316 0
187 282 -313 0
-101 116 308 0
-52 -70 75 0
72 164 340 0
-5 -301 368 0
122 -239 -392 0
-171 209 -356 0
-128 188 -344 0
116 160 -170 0
-24 50 -189 0
-256 330 -386 0
146 -279 -361 0
53 -160 186 0
74 102 -315 0
6 193 -223 0
130 -146 294 0
-167 249 313 0
-48 332 338 0
118 -173 -294 0
-2 -347 -359 0
-31 195 -243 0
82 144 -400 0
-224 291 294 0
160 276 391 0
-3 -24 -85 0
-96 184 345 0
-138 177 -316 0
62 -156 -266 0
18 -88 -179 0
-71 -220 334 0
193 -204 368 0
117 216 -259 0
48 -267 -314 0
-10 -359 382 0
-83 -206 -397 0
-25 -118 -337 0
102 148 -361 0
-122 192 219 0
101 -290 -354 0
-99 261 -377 0
-6 245 -302 0
-150 -282 399 0
45 322 339 0
108 -135 -281 0
-29 312 -374 0
-4 198 371 0
-180 229 361 0
62 -308 335 0
255 329 360 0
-79 -197 315 0
108 179 -263 0
20 -63 -117 0
-163 -301 -305 0
-29 37 273 0
-178 203 285 0
155 -222 344 0
-46 309 -349 0
187 237 302 0
-3 288 -319 0
-159 -181 276 0
-213 -244 -262 0
-23 -147 -352 0
-128 -170 388 0
-51 205 -269 0
22 61 -347 0
225 269 297 0
-7 -236 247 0
34 -130 -386 0
-50 308 -316 0
21 -41 -192 0
-52 147 229 0
-198 -218 -245 0
79 -90 -135 0
-169 -246 258 0
-17 -21 -130 0
189 232 -299 0
-91 -284 361 0
85 -310 -326 0
-21 102 369 0
209 257 -346 0
58 -129 242 0
249 -369 -389 0
87 219 351 0
-289 -356 380 0
132 -270 292 0
26 157 -211 0
-81 120 -360 0
8 28 -82 0
-2 -204 -279 0
224 265 -295 0
5 131 271 0
-198 -251 -367 0
-267 -288 -365 0
214 -303 380 0
-15 286 -354 0
139 -317 375 0
21 -67 -320 0
-164 205 -346 0
-79 139 -213 0
-308 -318 329 0
1 -238 -271 0
-205 207 -232 0
-20 -109 -143 0
-92 125 -324 0
70 -226 -292 0
25 263 270 0
31 -330 395 0
-12 -82 -132 0
-174 -275 -287 0
6 -103 274 0
178 339 363 0
-157 221 -388 0
-40 -296 340 0
-102 -209 -247 0
29 -73 -156 0
7 -95 -251 0
-35 221 287 0
-10 -234 279 0
85 -310 -329 0
81 195 277 0
-52 -97 139 0
-13 -124 394 0
-129 132 -359 0
118 378 383 0
-65 98 -223 0
166 169 364 0
-42 140 -282 0
358 390 399 0
29 55 310 0
138 187 -330 0
11 -214 215 0
84 -183 -202 0
25 -35 51 0
-64 -181 326 0
-141 179 -219 0
6 -197 325 0
25 -216 359 0
-22 106 -335 0
-28 -65 -221 0
-7 -166 211 0
107 115 -373 0
-26 -127 321 0
30 273 -311 0
-49 -147 173 0
7 64 269 0
54 72 265 0
52 126 -285 0
-88 -211 -333 0
91 -151 359 0
-58 355 376 0
-322 362 -381 0
-35 -203 371 0
13 34 -155 0
-236 -300 -314 0
-14 28 -93 0
201 -334 377 0
152 -225 -327 0
-136 -244 383 0
-88 -341 -363 0
68 -79 -188 0
-171 222 332 0
-141 -306 -353 0
53 104 -399 0
139 173 -357 0
-178 198 -257 0
187 -314 -344 0
-192 -272 -305 0
-83 -93 343 0
161 216 326 0
-122 -339 398 0
243 -361 384 0
-59 117 -279 0
-123 -335 389 0
-337 -362 -364 0
105 203 -272 0
-135 337 -359 0
101 161 -271 0
-255 -296 -382 0
80 240 -362 0
-156 232 340 0
-132 347 354 0
-21 49 95 0
-101 143 -237 0
80 270 -386 0
11 -71 -282 0
-42 -152 213 0
-171 242 -397 0
-158 -169 -174 0
-42 -50 145 0
-63 -221 396 0
-28 -144 382 0
-173 -199 313 0
49 107 324 0
-7 253 -314 0
-304 329 -348 0
-106 163 -348 0
72 -188 225 0
-19 -188 -372 0
-178 339 -357 0
-240 308 -321 0
146 -352 366 0
93 265 -294 0
233 -313 -368 0
99 -297 -354 0
-72 -97 366 0
-8 -272 394 0
287 298 -311 0
-48 -122 154 0
174 -316 -322 0
259 -300 -314 0
106 -134 281 0
-188 257 282 0
45 61 -355 0
61 267 -339 0
-25 45 -69 0
-198 -222 336 0
-81 -205 -237 0
-75 111 241 0
-100 245 -295 0
72 -206 -308 0
-6 -191 344 0
-216 -291 -301 0
33 348 359 0
35 132 -382 0
-76 -110 -344 0
-152 -340 -397 0
-35 -60 162 0
29 175 328 0
-69 -102 357 0
-58 -235 251 0
-7 -151 -339 0
60 78 -164 0
129 219 -321 0
17 -175 -287 0
-36 225 234 0
-100 -310 -390 0
148 150 -347 0
46 218 -317 0
-164 351 -367 0
-25 181 227 0
-45 200 -225 0
-351 -370 -387 0
-21 137 -327 0
145 234 -265 0
-4 249 389 0
73 -255 343 0
-260 -283 396 0
-142 347 -391 0
-146 181 -304 0
-151 -328 -331 0
59 90 96 0
65 70 -238 0
56 79 -231 0
67 187 -194 0
-54 127 367 0
160 -180 311 0
-7 225 288 0
58 280 393 0
-203 372 -383 0
-200 -342 368 0
111 -280 329 0
257 -313 -336 0
-95 246 384 0
-55 286 308 0
-7 135 -341 0
-61 -101 -384 0
-116 208 -257 0
67 -96 -212 0
-35 193 325 0
-55 -89 196 0
-44 -206 -324 0
-167 -205 394 0
-85 -114 165 0
-35 -322 340 0
-234 257 -364 0
-27 -219 331 0
-133 210 -219 0
-58 391 -397 0
-50 171 270 0
97 142 -381 0
-148 -217 331 0
130 -264 320 0
-23 -181 -392 0
-49 -108 -246 0
18 65 265 0
135 328 339 0
182 304 -383 0
-81 -176 -298 0
-165 -174 -178 0
185 -219 -274 0
11 -122 174 0
104 210 337 0
-12 -175 -280 0
171 231 -241 0
107 -148 -301 0
150 301 338 0
-41 264 280 0
-49 -187 325 0
-141 -161 -389 0
35 149 320 0
-236 -255 314 0
44 -61 142 0
-127 154 -349 0
219 -244 286 0
81 134 184 0
23 -264 -303 0
102 111 -303 0
1 7 -352 0
-30 297 -390 0
-177 322 362 0
12 17 308 0
206 228 -331 0
22 -370 377 0
-100 -185 351 0
-85 -182 -214 0
-75 176 -192 0
-87 94 275 0
-66 234 326 0
-71 160 397 0
1 163 -212 0
-47 314 348 0
9 -52 274 0
-202 -247 308 0
130 139 -330 0
26 207 -380 0
13 67 -216 0
-28 -113 208 0
103 -220 252 0
-32 -71 -305 0
106 -293 385 0
-37 307 -392 0
-152 -224 396 0
182 275 395 0
-2 216 -391 0
-35 126 149 0
120 -262 -270 0
86 -140 176 0
31 -207 249 0
198 -369 381 0
1 116 -180 0
152 -222 264 0
-17 74 -162 0
34 172 387 0
-89 -209 302 0
-280 -337 -392 0
27 222 -379 0
81 -234 327 0
-2 -262 387 0
-10 298 -352 0
34 -54 -155 0
241 296 -321 0
110 -214 254 0
19 385 393 0
-4 201 -218 0
158 216 298 0
198 -265 293 0
-8 254 330 0
26 -83 -131 0
-15 -300 -398 0
135 -167 -392 0
-148 -204 -361 0
80 -222 278 0
158 -278 -351 0
-44 148 397 0
118 256 299 0
70 -88 337 0
78 -110 -158 0
-28 91 -323 0
195 296 -389 0
33 206 296 0
-103 -126 -374 0
100 -131 -309 0
-95 -326 370 0
55 -243 285 0
18 -149 192 0
-217 -332 392 0
78 182 -368 0
-25 -158 -241 0
176 -290 308 0
14 222 -229 0
83 -109 -150 0
133 135 -215 0
22 -177 250 0
-9 -162 -189 0
29 212 261 0
-198 199 306 0
13 79 170 0
-112 -225 294 0
235 -347 -360 0
185 311 353 0
48 -85 372 0
-40 47 -332 0
-9 55 247 0
-50 280 -304 0
-88 -198 -307 0
-125 281 -388 0
64 71 -84 0
-107 -381 -398 0
127 182 -340 0
127 243 398 0
-47 253 -347 0
-49 112 158 0
-44 176 326 0
166 183 -295 0
-46 -93 -291 0
10 -48 -187 0
4 366 -383 0
-29 -255 369 0
-54 -86 -217 0
-119 339 -379 0
-221 338 -345 0
-81 188 -192 0
114 -129 -273 0
7 26 45 0
-121 144 -291 0
246 -288 303 0
98 230 392 0
-57 338 398 0
-176 -214 -332 0
142 -167 -329 0
158 217 227 0
103 -239 369 0
-73 317 355 0
47 -235 -298 0
-28 -212 -216 0
-40 209 -264 0
-298 -329 336 0
96 162 -250 0
100 -128 160 0
-34 -53 242 0
225 -262 -390 0
102 187 229 0
266 -328 356 0
-108 337 -354 0
47 -75 -179 0
-26 162 274 0
-68 210 225 0
60 234 -280 0
126 -238 -303 0
39 -45 -383 0
184 268 285 0
151 -160 -344 0
3 89 -338 0
95 -107 294 0
-236 268 334 0
-1 104 -140 0
3 -9 272 0
21 120 -394 0
84 -166 -322 0
30 91 -98 0
57 -106 130 0
-92 215 -254 0
12 134 -399 0
35 171 -355 0
30 329 352 0
-130 255 364 0
-17 -18 260 0
85 147 265 0
70 -243 361 0
-13 76 -385 0
-26 195 343 0
-144 204 275 0
217 -236 -364 0
93 -165 269 0
-116 257 -272 0
-103 -148 -399 0
211 261 392 0
54 95 -370 0
-121 -165 -211 0
-210 345 -388 0
43 -163 -271 0
100 -238 325 0
-17 -140 -386 0
-262 364 371 0
48 101 -232 0
221 -277 349 0
77 313 -349 0
31 -362 387 0
49 159 -257 0
137 215 239 0
-225 324 -385 0
-96 248 269 0
268 -276 318 0
1 -237 -264 0
169 -194 295 0
-217 -231 -343 0
-52 152 194 0
21 161 -316 0
124 -298 322 0
104 -150 -325 0
160 -224 -311 0
212 349 -358 0
26 215 304 0
61 318 -348 0
-77 -240 246 0
-227 228 280 0
-47 114 263 0
-106 190 233 0
76 -129 -161 0
57 66 -224 0
-189 -245 334 0
-45 108 -111 0
-13 320 381 0
-216 -273 -278 0
-190 368 -398 0
98 254 394 0
-6 -65 295 0
80 -330 -376 0
75 327 341 0
-63 -161 394 0
-16 172 -282 0
-106 -297 -375 0
-2 -21 246 0
-90 -255 -287 0
255 334 -396 0
73 95 -229 0
118 197 349 0
34 71 -136 0
-148 -322 -374 0
-14 -176 -230 0
88 132 279 0
-54 93 390 0
67 -218 394 0
-92 122 -285 0
-27 227 316 0
-44 88 125 0
33 -46 -164 0
63 131 -393 0
110 -184 -263 0
-229 -233 387 0
-52 -74 143 0
156 169 -215 0
7 -196 -326 0
-116 -345 371 0
235 254 -370 0
-167 196 -304 0
-10 -46 -299 0
-64 335 -337 0
-291 -299 349 0
-109 -337 -388 0
93 140 318 0
-117 -272 379 0
165 -255 -323 0
42 -73 314 0
173 288 348 0
-71 -211 -259 0
-66 82 -198 0
-134 -319 342 0
-239 -390 -391 0
-163 -207 -263 0
32 201 -273 0
-201 -335 369 0
-29 255 340 0
-119 354 -398 0
-92 -247 264 0
187 -238 -264 0
-5 -158 314 0
-156 -216 -275 0
-3 -199 386 0
104 230 257 0
-111 -118 -352 0
72 95 138 0
136 -215 358 0
46 -111 -193 0
-178 263 -278 0
-113 137 -387 0
169 -311 -314 0
-84 -104 -142 0
186 -198 236 0
-107 243 -383 0
-29 -120 -347 0
-273 328 -341 0
-8 -99 -331 0
-168 361 373 0
77 -102 -197 0
-8 32 175 0
79 101 -127 0
-132 197 378 0
255 -299 -341 0
105 -368 379 0
-127 347 375 0
40 149 -328 0
150 213 228 0
28 132 -159 0
51 -100 -193 0
76 196 291 0
4 -221 233 0
-12 -173 310 0
-213 223 344 0
203 264 363 0
-14 225 -376 0
-24 -164 305 0
118 -200 -359 0
-246 320 367 0
25 66 -313 0
-29 201 231 0
-17 -189 284 0
-273 -302 312 0
-47 -121 -288 0
-50 127 -247 0
-13 185 -384 0
-1 -51 199 0
-124 -287 -372 0
-140 -184 277 0
14 -180 -190 0
-35 -309 -390 0
53 -160 -328 0
-3 -129 216 0
-161 -260 -308 0
192 -240 -290 0
194 266 -332 0
105 170 -348 0
139 216 -321 0
-9 105 249 0
89 -357 -388 0
-98 -194 -220 0
251 -354 -380 0
67 -68 250 0
39 -254 -287 0
16 -53 268 0
-3 -34 232 0
36 -131 -368 0
-72 200 -231 0
-110 325 -383 0
75 -217 293 0
245 317 -359 0
-2 213 -388 0
-252 322 -398 0
-103 293 -305 0
-132 -327 -342 0
146 -279 -328 0
255 308 -333 0
-170 258 342 0
-157 287 -296 0
-116 -143 307 0
60 261 -369 0
-14 -278 -354 0
-14 -210 -320 0
-16 -175 -287 0
-76 79 368 0
-71 131 -290 0
78 -185 -224 0
-214 280 302 0
-51 -57 -89 0
166 249 -296 0
-14 212 285 0
197 276 314 0
62 -68 166 0
-241 256 -347 0
127 -270 -381 0
309 -342 358 0
89 188 -356 0
-49 221 369 0
130 -254 -345 0
-178 267 394 0
-46 94 242 0
-63 79 286 0
-29 -46 248 0
-68 -354 -373 0
-78 -80 315 0
-38 -225 -324 0
143 -358 396 0
-141 -282 -358 0
1 -89 175 0
36 49 325 0
-229 -248 -287 0
7 -53 -141 0
-111 250 -370 0
-46 -85 -256 0
86 209 -304 0
-33 -245 353 0
-34 -50 -88 0
-60 178 -388 0
-35 -87 -238 0
-121 -208 -330 0
-166 -275 340 0
107 -154 -251 0
36 113 -158 0
-236 -339 -388 0
-150 -227 -277 0
-19 -243 -360 0
-185 353 -385 0
244 289 357 0
-166 297 392 0
19 -297 356 0
-207 -356 -368 0
-136 -198 -393 0
-208 278 -285 0
45 194 -355 0
-204 -233 -379 0
271 278 -333 0
-139 251 -349 0
-67 248 302 0
-240 -316 350 0
-16 161 -187 0
-18 -162 -211 0
45 104 -325 0
84 192 310 0
11 -120 161 0
75 111 -148 0
80 -102 -380 0
-141 -228 -358 0
-99 -266 -331 0
-60 -176 -314 0
-174 220 -381 0
-16 63 94 0
38 92 -138 0
-68 99 -230 0
70 -180 319 0
-118 217 377 0
-192 201 -253 0
-32 48 206 0
-202 248 -271 0
177 -263 -339 0
-134 145 -206 0
-166 245 276 0
-7 46 205 0
68 131 357 0
-160 299 353 0
184 -217 299 0
-124 -134 -230 0
-174 -182 -332 0
16 -31 -105 0
74 -85 -211 0
15 -83 -179 0
-83 204 -391 0
-16 -17 -285 0
-77 343 -351 0
-79 149 293 0
65 178 350 0
54 66 -252 0
-289 331 348 0
-14 -72 178 0
-196 -217 -346 0
-122 206 -376 0
-118 234 395 0
-64 277 -302 0
62 -327 335 0
-31 130 -178 0
233 316 -346 0
-191 -224 -366 0
-11 -270 341 0
-168 -307 319 0
-169 -362 374 0
-304 -366 397 0
299 -356 388 0
-160 -242 -331 0
137 -158 397 0
98 222 367 0
12 147 389 0
-187 -354 -391 0
-177 183 261 0
150 278 -346 0
42 -105 -277 0
-56 61 -273 0
-10 -56 -349 0
12 -125 -181 0
-63 -181 294 0
-3 313 369 0
-93 -260 -271 0
-11 34 265 0
-86 153 -285 0
4 -22 348 0
54 -108 369 0
99 -210 300 0
76 -133 -169 0
48 -172 267 0
114 149 195 0
-7 269 357 0
-77 -305 -329 0
239 -277 -325 0
124 -354 -385 0
66 211 -332 0
175 -278 337 0
-312 321 -330 0
-208 271 -297 0
-67 -178 -260 0
-44 66 -168 0
-238 285 -371 0
-89 246 -391 0
9 -128 208 0
-207 -338 -380 0
91 313 -332 0
70 -207 302 0
-143 -287 334 0
27 244 -272 0
-5 247 315 0
62 -137 174 0
273 -284 308 0
287 361 380 0
-140 -231 266 0
-51 -83 -127 0
30 80 277 0
49 -129 248 0
-31 202 330 0
207 -391 392 0
19 62 74 0
-118 -200 267 0
-65 215 235 0
-48 171 252 0
-126 -187 -332 0
-198 232 -340 0
-101 -250 -265 0
200 -229 278 0
-41 242 -383 0
124 -146 -331 0
-48 243 265 0
-118 138 -181 0
-52 -138 389 0
-87 -270 -378 0
114 -176 -212 0
239 -297 -318 0
22 -108 272 0
-3 50 190 0
-50 225 228 0
-54 -150 -355 0
162 181 -194 0
130 -167 179 0
-129 -369 389 0
102 228 -364 0
-187 -228 -394 0
63 -124 -171 0
262 275 -341 0
-98 -159 326 0
-25 -198 -331 0
21 35 102 0
21 140 155 0
-131 -220 233 0
75 -247 395 0
122 -133 318 0
-197 -290 380 0
97 294 -344 0
310 -383 391 0
32 -34 312 0
84 -104 350 0
315 -336 -360 0
259 350 365 0
-65 -205 -357 0
90 -222 274 0
-49 206 355 0
-97 -286 -323 0
-78 179 -380 0
15 -132 208 0
-220 326 391 0
12 -32 62 0
155 -273 -399 0
16 -84 392 0
-59 -115 324 0
49 87 -172 0
67 91 -146 0
39 -258 -274 0
208 248 -361 0
125 183 -230 0
-178 192 -351 0
-39 -61 166 0
37 -81 243 0
-64 112 -143 0
-122 -217 299 0
-10 34 -388 0
69 -121 -352 0
208 324 -352 0
137 161 -204 0
137 232 -376 0
237 368 -385 0
-176 357 -379 0
4 259 260 0
58 -268 331 0
-59 234 -309 0
4 -41 -272 0
-3 -85 316 0
-106 -252 279 0
166 278 383 0
70 -123 238 0
-40 148 -162 0
132 235 -260 0
38 -235 -293 0
-33 361 -397 0
-111 141 -249 0
57 273 -356 0
74 -256 359 0
-217 328 -368 0
-177 238 298 0
-7 17 39 0
65 -181 -192 0
-168 -235 267 0
131 -200 -377 0
-212 300 382 0
215 249 398 0
163 -177 282 0
-19 23 385 0
-367 -372 391 0
151 -376 -387 0
-89 95 317 0
-211 -247 -386 0
-276 -334 -383 0
-132 302 378 0
273 277 -380 0
68 -216 398 0
-128 -134 -234 0
124 131 311 0
-3 344 -372 0
88 263 318 0
-50 -247 -283 0
-55 -192 -356 0
80 92 -274 0
226 262 -393 0
-135 -161 308 0
-200 -240 -372 0
238 289 304 0
-102 -121 -182 0
-78 395 -397 0
257 -260 -261 0
37 -352 360 0
-98 -173 -297 0
-17 107 356 0
126 338 -384 0
-82 106 -133 0
-185 316 -337 0
-88 -196 -381 0
-65 320 334 0
-138 -249 -358 0
100 -135 -190 0
25 28 243 0
-1 22 -259 0
-62 -153 -267 0
-116 -117 222 0
204 -268 -394 0
21 126 -400 0
-141 158 -315 0
-205 209 331 0
12 -183 -201 0
-273 359 -369 0
23 -54 398 0
-30 102 382 0
54 205 -372 0
-38 85 -98 0
262 266 -301 0
61 -187 299 0
-133 145 314 0
11 -54 151 0
-92 147 -286 0
60 -157 211 0
17 69 -203 0
-24 -203 -246 0
-47 211 -235 0
300 -312 -397 0
119 -239 253 0
-299 -307 388 0
170 -230 400 0
-37 110 -197 0
-128 293 388 0
-300 -355 -389 0
318 -359 -362 0
151 160 -396 0
-178 328 389 0
52 127 359 0
55 -99 371 0
-49 -141 -351 0
140 167 -398 0
-94 152 -198 0
-35 -220 293 0
103 149 -236 0
-26 -214 268 0
-61 93 379 0
-152 227 382 0
-247 -330 383 0
41 43 100 0
-280 325 -347 0
69 -214 238 0
215 -239 -267 0
-73 181 -336 0
99 392 400 0
-57 -371 -372 0
67 116 -211 0
-138 294 -298 0
329 -381 395 0
68 -142 216 0
46 -148 326 0
128 -263 296 0
53 -72 259 0
43 -174 221 0
51 59 142 0
-87 213 -344 0
-106 -151 -158 0
-121 206 272 0
-19 62 398 0
60 -323 -371 0
-24 32 -287 0
147 236 327 0
7 259 263 0
-162 369 390 0
-11 -154 249 0
87 -148 -170 0
-197 243 -293 0
-174 -179 252 0
168 -188 -374 0
82 189 -336 0
-288 332 374 0
310 315 -360 0
67 -110 -146 0
83 -346 355 0
110 -192 246 0
-14 -144 397 0
-119 -140 248 0
-58 -159 -269 0
-26 -307 393 0
88 302 -388 0
-247 -255 395 0
42 304 360 0
65 261 -299 0
114 -115 -239 0
39 -253 -363 0
223 269 374 0
-135 153 208 0
78 -198 -218 0
7 -252 -302 0
-228 280 323 0
11 -66 -340 0
-103 273 382 0
-111 176 -180 0
115 156 231 0
150 279 396 0
-198 -220 -393 0
-16 31 323 0
61 169 219 0
12 -44 -339 0
-24 70 298 0
-86 129 173 0
-106 151 -169 0
-115 212 -321 0
-291 -305 328 0
112 125 312 0
211 -358 367 0
-202 -230 -373 0
141 -271 391 0
-49 119 -139 0
23 -258 261 0
98 358 -398 0
125 148 290 0
10 -242 349 0
-111 -216 310 0
16 211 -302 0
8 87 -112 0
-8 38 391 0
-83 243 -265 0
-79 141 400 0
73 144 195 0
-96 -175 -210 0
61 161 280 0
304 341 355 0
42 -68 230 0
-289 320 -353 0
-157 -189 -316 0
76 -268 -347 0
-33 -212 373 0
-92 114 369 0
-199 330 382 0
-94 204 -212 0
125 301 386 0
-48 53 -179 0
224 357 383 0
9 15 -95 0
49 166 -301 0
170 252 400 0
21 137 241 0
-25 60 -386 0
-77 313 400 0
-230 257 363 0
183 -241 357 0
-24 -51 75 0
74 -149 -191 0
-131 -266 353 0
156 303 355 0
116 132 -379 0
-54 -94 -197 0
111 119 354 0
58 212 366 0
108 -303 347 0
-244 326 332 0
-5 -256 372 0
186 -229 328 0
305 359 -370 0
-75 96 -172 0
145 -379 -387 0
15 -120 393 0
238 -363 -379 0
-5 34 -152 0
-38 -228 395 0
-169 234 -393 0
-65 -152 371 0
41 71 270 0
116 -394 -395 0
65 240 -336 0
86 -268 374 0
108 -142 342 0
-190 -318 -342 0
-63 -103 -275 0
77 -208 251 0
-79 298 -357 0
12 384 391 0
172 203 -326 0
174 180 389 0
-26 103 340 0
-185 -230 355 0
-203 213 -374 0
127 -184 -316 0
-243 -246 -247 0
198 227 328 0
-266 -335 -390 0
-16 -344 370 0
-194 -330 -367 0
-96 -107 -225 0
-27 -282 322 0
131 -265 300 0
16 -190 -216 0
-256 264 340 0
-190 232 267 0
-235 -248 301 0
125 141 224 0
12 -51 170 0
-176 -214 -347 0
-275 299 332 0
73 -254 -263 0
62 -161 378 0
-22 211 -352 0
-136 253 -339 0
-115 -269 383 0
94 -135 -389 0
253 -322 344 0
134 -352 370 0
-67 205 216 0
-204 -252 -350 0
201 362 383 0
20 -60 -197 0
39 129 -249 0
144 155 328 0
211 288 333 0
163 203 373 0
-1 138 350 0
45 114 -342 0
5 -53 -111 0
-46 -152 195 0
-148 -242 371 0
145 -147 -306 0
41 91 271 0
7 250 -392 0
19 142 -177 0
212 -233 -293 0
55 -203 -299 0
-33 -281 284 0
311 -313 -321 0
-143 286 298 0
125 151 291 0
27 200 -334 0
281 315 -331 0
-83 135 380 0
145 -218 350 0
-210 -246 260 0
-86 117 347 0
-80 -188 248 0
-218 -247 340 0
1 -32 191 0
52 -174 -230 0
97 -117 -286 0
-35 297 351 0
-154 -268 -350 0
52 121 238 0
-58 105 204 0
5 -71 -83 0
65 126 -239 0
2 62 101 0
-55 -56 60 0
57 -293 -333 0
154 242 -338 0
57 293 -298 0
57 -243 350 0
-17 -147 -388 0
22 -56 -309 0
-210 -231 -354 0
-15 -157 388 0
-21 -36 -211 0
-210 288 -299 0
92 204 277 0
-28 -256 271 0
-46 -103 324 0
3 10 -237 0
247 -307 395 0
-135 -181 279 0
-62 164 186 0
-5 -58 119 0
56 164 186 0
166 201 -275 0
78 260 359 0
-62 72 -121 0
-232 -260 399 0
73 321 -379 0
1 200 -279 0
-82 135 355 0
-82 234 271 0
109 -315 375 0
-140 -272 364 0
-254 -261 -318 0
73 250 -385 0
15 -97 310 0
40 -49 126 0
131 229 384 0
-136 -202 -368 0
-84 276 380 0
150 -257 -307 0
-122 208 -224 0
37 -163 -340 0
63 -128 328 0
-130 251 398 0
-13 158 -163 0
8 98 297 0
-49 68 324 0
311 319 -392 0
-79 -229 -391 0
-11 -24 -208 0
-16 203 -272 0
-150 -215 -279 0
-78 -100 -193 0
-70 -92 301 0
4 -163 -196 0
-30 352 388 0
22 181 297 0
-232 -369 -383 0
294 303 328 0
5 37 -152 0
-5 -113 162 0
172 -207 383 0
170 -293 336 0
-139 -185 289 0
48 107 223 0
250 286 378 0
77 -182 316 0
132 -213 307 0
-98 -151 399 0
74 -174 183 0
-12 -80 -383 0
107 277 -392 0
192 -209 -296 0
-26 165 -278 0
116 249 -267 0
24 -156 219 0
-13 -180 211 0
148 -282 298 0
-75 120 357 0
-165 245 -369 0
168 -250 331 0
-6 -172 280 0
-161 -230 -317 0
-234 331 -378 0
161 239 299 0
-81 126 -245 0
27 -267 -392 0
-137 -183 -328 0
100 -299 329 0
68 -193 352 0
246 -274 349 0
9 -237 -318 0
-180 -231 -375 0
-223 276 -390 0
-202 230 355 0
-152 -227 -396 0
-148 -246 375 0
-69 -272 -343 0
-113 129 -330 0
-235 -242 -373 0
-32 -305 -381 0
-180 291 350 0
2 -242 393 0
97 167 259 0
-131 204 262 0
-113 199 223 0
-71 -132 333 0
4 8 -208 0
98 -196 -311 0
-8 -351 -374 0
-34 -235 -392 0
-296 -368 380 0
145 307 -346 0
162 282 309 0
-33 -72 -349 0
39 -101 -278 0
185 209 -332 0
-29 -50 341 0
-84 143 323 0
-38 331 -336 0
43 -100 114 0
-39 276 343 0
-115 292 -293 0
-56 103 -197 0
213 -241 -300 0
10 159 -226 0
59 178 304 0
-70 -108 -393 0
7 225 350 0
201 -323 351 0
-251 279 -309 0
96 210 -335 0
-168 227 -251 0
188 -208 -252 0
-108 -163 220 0
-219 -230 -250 0
-7 12 -234 0
-50 -80 -150 0
1 -37 -122 0
278 281 394 0
120 -192 -335 0
-63 -250 355 0
71 261 380 0
-134 -231 -247 0
-57 108 326 0
73 322 -397 0
82 -152 -382 0
49 -121 -332 0
89 236 -313 0
252 -276 289 0
-100 101 349 0
-127 -332 -383 0
-1 178 360 0
-139 148 315 0
40 196 -300 0
-60 -183 -325 0
-43 -158 -335 0
55 246 -320 0
146 -251 -323 0
-6 -186 318 0
168 -224 -285 0
-84 -140 280 0
-76 -258 396 0
-150 -296 -351 0
-47 -105 -295 0
-140 -171 -335 0
89 -149 -212 0
85 220 -248 0
82 -295 -318 0
-57 -308 -324 0
71 162 165 0
-21 -224 239 0
8 141 366 0
-64 89 -167 0
210 -395 396 0
-223 -335 -396 0
-44 66 -219 0
69 -111 136 0
99 125 -219 0
60 -78 244 0
-42 -81 -267 0
13 -123 388 0
-24 -193 -306 0
-106 155 -354 0
25 142 -348 0
115 116 -194 0
32 37 124 0
3 177 224 0
-13 -54 -93 0
43 -224 -306 0
133 176 270 0
-96 268 -313 0
-116 286 355 0
127 -244 -267 0
56 273 -372 0
-131 161 -265 0
63 -259 -310 0
-202 -326 328 0
98 181 -329 0
-1 -43 -99 0
85 208 -356 0
-161 -261 294 0
-226 -261 -317 0
-64 94 227 0
-90 181 245 0
-66 -338 353 0
19 64 -174 0
-81 -151 -221 0
150 -300 333 0
-87 103 -106 0
206 -267 398 0
121 178 369 0
-155 320 -382 0
-82 319 -372 0
-105 305 355 0
-39 113 -330 0
181 314 -338 0
-17 -41 -330 0
-266 -286 -320 0
172 276 -384 0
40 -218 306 0
175 245 335 0
229 306 307 0
31 207 -312 0
130 314 -384 0
40 186 228 0
-9 -198 -200 0
350 385 395 0
64 282 317 0
-147 325 353 0
170 -178 216 0
119 134 -318 0
-163 264 -344 0
-225 -242 358 0
-46 193 -263 0
78 339 352 0
-9 -274 -372 0
146 251 -277 0
-131 347 385 0
333 384 -398 0
2 -28 256 0
147 -213 -243 0
25 228 -302 0
-39 -114 176 0
-31 186 337 0
9 214 -300 0
7 -48 245 0
16 -125 -326 0
18 -56 -162 0
184 326 388 0
64 186 359 0
111 122 172 0
6 -44 -335 0
-76 207 296 0
-254 -256 317 0
48 -54 311 0
47 -114 -294 0
199 -343 355 0
47 -167 -234 0
173 -175 339 0
68 147 345 0
-3 348 -396 0
52 -139 -219 0
164 -306 -392 0
-90 -129 -197 0
-109 -151 -213 0
79 -347 380 0
-133 -209 -370 0
86 -227 394 0
-54 131 260 0
-142 -287 -297 0
214 -283 400 0
52 68 -349 0
80 -238 -301 0
-56 -223 363 0
-268 349 352 0
253 284 -400 0
58 130 305 0
-106 173 348 0
232 -285 -384 0
-55 -141 365 0
-312 -331 -368 0
18 60 211 0
2 -61 -208 0
17 90 378 0
-39 -82 -217 0
43 -77 -314 0
180 184 240 0
176 -284 -340 0
-19 -311 -366 0
116 -177 203 0
-80 224 -245 0
309 328 -369 0
186 -270 318 0
19 -220 323 0
78 -278 -320 0
283 292 294 0
130 189 369 0
67 289 303 0
48 -232 392 0
146 -256 335 0
-158 -176 349 0
256 -373 375 0
-107 -366 386 0
64 -122 -299 0
137 -214 -228 0
-85 184 232 0
126 -180 -368 0
68 -229 -242 0
112 168 -398 0
-146 147 245 0
245 -293 358 0
25 172 242 0
-8 -84 -127 0
-141 -162 -201 0
308 334 -344 0
67 -241 -388 0
-252 262 272 0
-64 -140 -149 0
67 131 -243 0
-164 -189 -246 0
135 342 -347 0
-68 -82 -274 0
30 -252 -356 0
-208 -376 -391 0
-58 130 -211 0
105 -245 -252 0
16 -255 -271 0
-6 -134 349 0
71 264 -358 0
-27 -234 -327 0
93 -132 333 0
-26 251 291 0
3 -179 -234 0
-144 242 -388 0
-38 -168 207 0
63 -305 -312 0
107 153 169 0
11 -256 263 0
137 168 -284 0
122 297 348 0
-250 -364 -398 0
120 -151 169 0
-36 48 -246 0
52 -140 155 0
80 -238 -322 0
-20 -61 223 0
-7 -149 -293 0
30 -62 -307 0
99 -172 224 0
285 -288 -371 0
95 -358 -379 0
-223 -335 400 0
-118 -278 294 0
-40 -278 -296 0
60 163 -207 0
-104 -278 329 0
-33 103 -381 0
159 270 -301 0
