c Phase 3 random 3-SAT negative control
c seed=41017
c ratio=4.26
c variant=planted_sat
c expected=SATISFIABLE
p cnf 800 3408
-362 521 671 0
628 -653 -686 0
-123 -299 567 0
-275 415 667 0
280 -570 604 0
-92 198 697 0
-337 -423 551 0
229 -733 -762 0
165 609 733 0
-548 -585 -616 0
-97 194 482 0
318 -526 -770 0
-6 -710 723 0
-184 -319 381 0
-83 355 -683 0
141 -745 -756 0
-316 332 508 0
58 437 586 0
-200 -395 -625 0
251 584 621 0
-400 571 -642 0
-162 169 224 0
415 -555 787 0
-347 -437 509 0
52 -300 -661 0
146 399 -575 0
-99 207 575 0
53 307 -470 0
-316 460 597 0
82 267 424 0
-618 -732 780 0
361 621 -749 0
-27 90 -255 0
251 -442 -607 0
263 523 559 0
398 456 -537 0
-84 459 -716 0
-156 320 757 0
244 321 704 0
-282 -355 431 0
35 -231 -742 0
100 270 -411 0
-113 178 784 0
128 430 479 0
299 430 706 0
-112 216 405 0
-242 -736 -785 0
112 -260 -676 0
296 -506 -719 0
92 203 -501 0
-131 220 -588 0
-59 565 760 0
-125 -474 -526 0
524 599 -761 0
196 392 503 0
140 269 358 0
-446 -479 -487 0
113 -644 -738 0
-164 688 752 0
410 -503 537 0
68 585 -752 0
192 454 -522 0
-238 -565 618 0
446 -451 -623 0
175 434 692 0
250 311 -384 0
92 -409 -511 0
-204 448 569 0
-272 -338 -631 0
-161 430 -760 0
80 239 434 0
-44 -96 279 0
5 162 517 0
166 231 414 0
-525 -656 -788 0
-377 687 -716 0
-150 -457 540 0
353 658 772 0
191 -335 -491 0
413 684 -727 0
-426 530 663 0
-33 -172 278 0
-217 -366 -652 0
-125 180 -265 0
298 -502 -576 0
-93 -249 776 0
19 -130 -723 0
-317 685 -702 0
178 381 740 0
318 532 -582 0
-294 630 -683 0
6 -104 -754 0
453 482 -571 0
-392 599 -769 0
318 -684 -792 0
-44 -781 789 0
231 758 -795 0
-286 -493 579 0
45 -180 646 0
-334 472 514 0
480 -726 736 0
379 -663 -705 0
13 68 235 0
-348 607 -672 0
-440 -557 750 0
-166 -192 -678 0
72 -171 349 0
-9 747 -768 0
44 223 -312 0
139 -358 -632 0
481 -524 -742 0
-25 150 781 0
-294 565 -675 0
64 148 -436 0
116 -166 667 0
-320 -485 -579 0
84 330 481 0
250 -314 -730 0
-125 136 468 0
144 155 208 0
-155 -304 -448 0
336 -408 675 0
331 -455 579 0
-280 344 590 0
293 389 628 0
288 352 748 0
43 150 427 0
65 419 662 0
253 639 -682 0
-5 484 527 0
-46 -457 -649 0
-167 201 291 0
-13 466 -578 0
-444 -566 776 0
-132 -296 -512 0
58 -460 783 0
276 -596 739 0
38 429 -605 0
-144 -404 -417 0
16 329 725 0
258 -547 -594 0
-67 194 705 0
-505 -569 -678 0
106 -154 571 0
100 246 -625 0
21 -656 -703 0
132 -140 -800 0
86 93 608 0
-106 -594 660 0
-424 484 720 0
-284 -505 -538 0
218 275 434 0
116 309 752 0
-339 629 -767 0
-342 -431 463 0
-12 91 328 0
323 600 -781 0
-88 -440 -543 0
-149 -199 -424 0
-176 388 603 0
-336 -407 -698 0
144 199 -428 0
335 556 -697 0
195 214 388 0
245 -252 -633 0
-152 353 -494 0
-146 -155 725 0
279 290 678 0
190 322 634 0
-281 -385 421 0
44 81 687 0
209 460 -543 0
212 -360 763 0
348 -472 654 0
-82 -298 -654 0
-530 -787 790 0
17 648 -789 0
-388 589 -690 0
-159 -348 719 0
-482 647 775 0
299 -436 -582 0
-29 175 -591 0
475 604 726 0
289 -535 -617 0
-382 537 -630 0
-304 -361 -605 0
-345 -383 -687 0
-164 -199 215 0
85 290 -407 0
-248 -408 791 0
-241 -558 -778 0
309 317 528 0
269 420 -786 0
-18 -386 736 0
190 487 -508 0
59 -543 695 0
-410 -565 573 0
14 -454 -644 0
309 -327 -573 0
-72 -77 457 0
-368 653 -699 0
176 -409 544 0
537 -721 -743 0
-44 214 667 0
57 -329 645 0
-229 -545 706 0
-257 -680 787 0
-100 261 497 0
-472 730 -792 0
-400 -444 711 0
107 358 509 0
-161 -605 628 0
72 285 487 0
69 -305 347 0
476 670 -675 0
268 500 -569 0
-321 338 610 0
-351 -430 610 0
-374 437 755 0
-455 513 601 0
-116 421 547 0
-57 -215 -331 0
-289 632 -749 0
-48 302 537 0
609 -671 -796 0
-107 194 695 0
649 783 -792 0
189 357 -398 0
-124 133 588 0
-128 -245 -270 0
-176 -185 630 0
-232 559 -566 0
-274 521 -788 0
3 -263 672 0
-246 323 566 0
300 -516 686 0
142 -441 -697 0
-59 -493 -694 0
-247 407 -440 0
18 180 800 0
273 -373 459 0
397 -634 661 0
58 -82 311 0
490 547 774 0
225 704 -777 0
18 142 158 0
-240 549 -662 0
619 707 782 0
332 -385 -520 0
-287 314 384 0
-261 395 -445 0
-47 -510 677 0
-28 -114 -186 0
-36 -261 404 0
-395 -565 795 0
414 467 -732 0
-517 561 624 0
-93 342 -706 0
445 515 707 0
75 168 -479 0
-379 392 714 0
304 420 486 0
-161 402 729 0
569 658 796 0
49 269 -416 0
100 261 605 0
-48 -495 670 0
93 -701 -725 0
-55 -544 -753 0
206 333 -700 0
331 541 -568 0
260 596 -721 0
218 -501 714 0
-20 -68 680 0
183 462 673 0
228 508 -589 0
148 512 591 0
257 337 -499 0
20 100 -242 0
-144 270 648 0
-604 652 771 0
-350 501 -795 0
-6 191 463 0
-1 251 -556 0
-440 687 746 0
-323 -394 -646 0
266 667 -773 0
-85 -148 -305 0
61 -584 -714 0
-36 412 492 0
75 -387 -800 0
-167 -288 702 0
-160 -427 -654 0
-102 524 738 0
186 -308 -485 0
-116 -442 638 0
-291 725 791 0
-229 -331 -425 0
224 -536 -548 0
127 686 -772 0
382 -525 609 0
-185 -462 708 0
113 -581 -710 0
-13 572 728 0
-228 -529 720 0
-41 -371 -427 0
-3 402 -560 0
-121 -139 571 0
-302 572 661 0
120 326 -646 0
-101 -107 700 0
-246 -550 -758 0
-43 321 -650 0
46 539 566 0
86 -485 610 0
-29 -168 -743 0
206 -595 -771 0
-486 -594 741 0
161 -693 712 0
86 -157 232 0
-221 -381 553 0
-356 -371 -498 0
487 599 699 0
-555 701 709 0
524 626 726 0
14 326 -346 0
-300 -655 -657 0
149 752 778 0
-131 -535 -645 0
64 227 -545 0
337 611 782 0
172 330 -449 0
-58 279 -682 0
-71 -211 738 0
162 -406 765 0
16 -590 674 0
-95 137 -398 0
-246 416 -541 0
107 -435 502 0
505 599 -689 0
31 -204 301 0
181 259 -589 0
170 -303 -430 0
-254 391 -726 0
102 -278 629 0
272 -328 370 0
-291 -398 -418 0
-26 -568 781 0
207 -371 384 0
-537 -542 552 0
-143 429 604 0
-116 119 193 0
-525 -529 733 0
400 -423 -774 0
13 349 -483 0
343 -360 568 0
-410 448 591 0
221 227 345 0
-439 -480 635 0
3 -164 -379 0
121 -700 -776 0
88 -374 -417 0
-175 -388 560 0
538 -549 -590 0
433 699 -731 0
-452 -525 -717 0
150 -204 468 0
-411 -472 -764 0
-432 -443 -497 0
89 -512 719 0
-29 49 -342 0
496 -504 505 0
84 586 709 0
-158 -636 726 0
-289 -309 638 0
23 -144 -212 0
337 385 -649 0
-4 533 -599 0
138 -339 633 0
-453 584 716 0
5 269 498 0
-4 -28 139 0
43 426 -755 0
42 295 -467 0
-361 406 683 0
213 419 676 0
-18 119 322 0
-238 525 601 0
-7 -425 426 0
128 -275 441 0
276 484 783 0
-235 505 772 0
-175 -571 648 0
1 -494 655 0
-76 -127 -500 0
-95 -273 436 0
131 275 337 0
214 -273 -470 0
-57 -424 -626 0
-520 -590 611 0
515 -572 -598 0
551 -666 673 0
42 401 -649 0
32 412 686 0
64 308 -527 0
-15 -309 -311 0
16 -117 -525 0
-182 -469 734 0
-398 -470 706 0
-385 652 -713 0
-293 -589 -623 0
9 570 793 0
271 724 742 0
-17 -222 -275 0
-96 -403 -650 0
-14 -210 -699 0
-181 -412 -554 0
65 618 -765 0
97 -623 753 0
-161 544 574 0
-132 544 654 0
-37 -158 504 0
196 -723 734 0
-17 -22 144 0
-86 94 548 0
225 -256 374 0
-76 -100 -792 0
74 307 -320 0
466 -770 776 0
-329 786 -794 0
-86 -167 -746 0
-63 583 652 0
131 429 531 0
334 431 -629 0
36 -441 -515 0
-38 -478 546 0
44 330 612 0
20 61 -105 0
475 525 717 0
72 496 -545 0
-330 -563 -570 0
33 59 608 0
376 632 636 0
-249 649 759 0
-57 -437 -448 0
33 165 684 0
-299 -406 -598 0
-75 -522 -675 0
-139 -156 465 0
-1 210 689 0
333 -338 667 0
-247 -356 650 0
-276 -423 -550 0
-159 173 -386 0
-15 643 687 0
-366 417 -550 0
-335 729 -782 0
-63 -356 -378 0
44 -355 -752 0
298 -626 -666 0
3 -461 -645 0
-86 -187 -630 0
9 37 146 0
53 -144 -615 0
-265 -460 534 0
304 -561 670 0
245 483 598 0
-159 -476 -658 0
306 469 -637 0
293 -400 -473 0
-383 -575 770 0
518 -766 798 0
226 227 531 0
502 -664 727 0
-34 -319 618 0
542 -580 -714 0
-280 391 -432 0
-370 -583 676 0
-148 314 319 0
508 -770 -774 0
-42 474 686 0
-82 -424 -721 0
-614 631 686 0
-105 590 636 0
-52 -72 -530 0
-206 -563 -662 0
-197 588 684 0
-294 -440 -493 0
-41 -567 711 0
-63 140 -499 0
113 509 -548 0
-104 -464 624 0
-182 -228 559 0
-18 87 642 0
515 557 -712 0
99 227 -404 0
-162 348 -688 0
-52 83 -611 0
-519 -561 -762 0
80 279 798 0
-73 -247 630 0
-55 -188 779 0
21 194 223 0
-145 -552 -564 0
-304 -509 519 0
59 537 766 0
-279 683 712 0
276 549 594 0
482 -627 730 0
-144 485 -759 0
-370 450 539 0
126 -127 -268 0
-99 437 514 0
-32 -495 -636 0
72 -206 488 0
-388 -454 -777 0
-340 -433 731 0
175 492 579 0
112 -348 -696 0
-134 136 763 0
-619 -653 796 0
-93 -258 676 0
182 -640 -770 0
544 -656 691 0
170 -628 695 0
-540 -674 789 0
-15 -632 731 0
438 -479 -749 0
-173 -362 -641 0
-1 -109 266 0
-389 397 758 0
-324 -435 657 0
179 395 -696 0
391 580 -750 0
-640 -674 -760 0
127 -284 -483 0
-33 -132 -678 0
273 334 788 0
109 534 576 0
6 -243 -342 0
-94 500 -751 0
115 -239 -364 0
79 -303 499 0
-334 -633 651 0
-155 -280 633 0
613 670 680 0
83 253 -288 0
370 -657 760 0
96 311 -429 0
146 376 -695 0
49 -641 -772 0
-552 686 -690 0
-312 569 -675 0
245 -316 494 0
33 -109 382 0
-80 -143 -765 0
30 78 -182 0
347 -364 -629 0
-53 -464 550 0
80 89 274 0
-121 -199 295 0
124 -491 610 0
303 -459 -533 0
-408 666 792 0
71 509 691 0
-42 -172 -269 0
339 488 -546 0
-89 -619 735 0
29 494 -768 0
-70 439 658 0
105 112 -557 0
155 -355 -570 0
198 206 334 0
-35 182 -200 0
60 221 -406 0
-233 289 558 0
-8 153 -425 0
-493 -570 659 0
58 -157 501 0
-300 403 769 0
-257 516 -623 0
44 -108 124 0
-204 -566 693 0
509 571 -720 0
-12 729 -758 0
209 -548 -694 0
426 632 -673 0
-71 98 -186 0
-211 369 578 0
-85 -404 -435 0
198 -563 645 0
-71 -137 -691 0
-102 630 641 0
-261 -577 696 0
110 -715 -718 0
-83 -279 -348 0
-480 -763 -789 0
-11 656 -687 0
134 463 -664 0
-392 570 764 0
-323 -371 520 0
137 -463 -780 0
80 226 382 0
-49 -73 374 0
-112 -529 632 0
-341 417 638 0
-8 -419 -589 0
-12 -27 -711 0
-295 -710 -796 0
-5 640 -776 0
88 329 -574 0
366 -474 748 0
42 355 392 0
-289 330 408 0
123 651 -706 0
321 522 -585 0
77 133 727 0
-147 270 503 0
-167 183 -214 0
191 -533 791 0
123 -596 684 0
170 360 612 0
-339 -357 650 0
-175 340 -594 0
-305 399 -568 0
-338 -458 -674 0
297 553 -632 0
378 522 -569 0
29 105 -329 0
376 462 -520 0
-245 -646 798 0
48 242 448 0
578 619 786 0
-112 426 -681 0
-53 161 437 0
-115 332 -797 0
-160 -491 660 0
-46 -183 -551 0
-568 -685 782 0
25 70 -301 0
111 641 -675 0
30 -262 635 0
-317 329 540 0
-527 577 632 0
30 99 539 0
-29 254 -636 0
430 507 -709 0
-275 395 -694 0
-159 618 699 0
-38 138 419 0
-309 604 -680 0
33 -468 -747 0
-62 278 792 0
-21 49 770 0
-167 -529 -608 0
299 335 -662 0
-110 357 493 0
-381 474 699 0
-189 356 -713 0
-164 -457 -763 0
471 494 572 0
-177 330 -755 0
517 -674 725 0
283 -478 587 0
-432 517 -531 0
-353 -662 725 0
5 -93 137 0
183 573 -710 0
-82 273 -773 0
-279 300 -489 0
15 -43 -583 0
-300 426 487 0
-206 -351 -597 0
-149 -535 792 0
35 222 -487 0
-390 -762 -787 0
120 277 711 0
-254 351 456 0
-247 409 594 0
-705 779 -789 0
-15 -647 -735 0
-445 -504 656 0
277 -447 -577 0
-79 361 -795 0
183 -608 707 0
-318 408 -779 0
-2 37 -779 0
23 116 129 0
279 544 -652 0
161 -245 275 0
345 -419 724 0
425 -444 -660 0
458 514 550 0
-41 -574 691 0
-157 359 -723 0
-248 -498 -533 0
-43 -162 305 0
17 -106 -124 0
-108 601 705 0
362 -424 768 0
-168 482 -526 0
262 358 -491 0
128 137 286 0
-227 -400 -458 0
279 646 714 0
-426 -434 -593 0
500 574 -623 0
-151 -342 644 0
181 331 511 0
-227 -356 530 0
32 101 602 0
-31 -474 685 0
171 -301 -315 0
203 352 515 0
-358 -658 733 0
-312 612 -669 0
-43 485 719 0
257 -267 300 0
-183 -426 612 0
-53 -95 -316 0
212 -291 453 0
59 -706 -794 0
-584 -608 -622 0
-221 268 649 0
321 -481 -742 0
64 419 -601 0
140 -530 760 0
468 -549 616 0
133 350 377 0
-299 314 -433 0
5 -50 337 0
-66 259 -629 0
154 -155 -644 0
-209 288 589 0
493 -528 -732 0
62 -269 -488 0
398 -473 -498 0
-475 -551 635 0
325 -472 -505 0
-162 -453 716 0
-257 329 -699 0
355 436 443 0
-51 583 -652 0
-44 193 -332 0
-72 -198 -409 0
79 356 415 0
-311 -326 455 0
370 -470 638 0
-314 454 540 0
82 -244 -363 0
13 -445 -489 0
-78 -514 609 0
166 -547 616 0
-89 519 600 0
158 -281 639 0
-402 -427 632 0
101 -619 682 0
-49 -178 -426 0
223 399 -597 0
289 724 -783 0
-26 88 589 0
-67 -92 -412 0
74 591 -738 0
66 -438 -489 0
-164 -315 444 0
131 -364 -463 0
-237 -443 -682 0
241 423 530 0
-192 -237 -683 0
-99 -160 391 0
493 566 636 0
-211 355 -699 0
-236 -695 718 0
224 338 -498 0
-355 445 -594 0
47 343 681 0
-174 -180 -569 0
-31 484 -485 0
-149 -432 475 0
12 -548 586 0
375 -395 -563 0
109 442 693 0
50 346 754 0
86 -315 399 0
99 -464 -777 0
357 514 -690 0
133 -734 -770 0
321 -388 607 0
-1 -85 380 0
102 192 -331 0
-24 -56 -294 0
-89 -136 318 0
274 -617 781 0
-89 134 321 0
-464 634 773 0
-54 -493 -572 0
126 -578 -595 0
107 162 -548 0
-16 110 -696 0
-271 768 -800 0
41 -302 612 0
-429 689 701 0
-333 -465 505 0
409 600 -755 0
14 -315 -445 0
-138 516 -632 0
88 -147 -397 0
-110 -634 -665 0
-404 -437 728 0
236 366 -723 0
-116 -339 728 0
-64 -341 603 0
255 268 -717 0
-269 -389 733 0
39 116 256 0
414 -439 -638 0
559 630 752 0
-81 -258 548 0
313 471 760 0
64 531 -566 0
16 241 -414 0
-108 -250 -573 0
205 -535 -615 0
215 -256 -568 0
-152 -189 191 0
-85 -437 449 0
-3 413 709 0
-193 -552 -755 0
31 -596 800 0
-155 577 -619 0
-3 133 468 0
-51 -745 792 0
340 -369 779 0
-85 552 -730 0
-199 232 -261 0
-156 -555 -596 0
23 237 -687 0
264 -535 588 0
167 -247 -500 0
-132 244 498 0
135 -403 -668 0
-398 -546 650 0
-33 333 536 0
128 155 -743 0
627 682 -782 0
-275 -424 686 0
279 -668 -690 0
211 -507 -799 0
-374 582 -772 0
-92 -275 459 0
-60 -186 -659 0
156 592 690 0
-435 647 -740 0
-634 -653 784 0
296 593 -764 0
-129 -376 -697 0
94 -359 -786 0
-300 -639 -668 0
50 -289 -612 0
49 -650 -672 0
4 -606 652 0
63 357 -446 0
-173 199 607 0
151 -601 -793 0
-201 -284 637 0
224 -248 -269 0
30 452 -456 0
217 -255 576 0
138 -432 692 0
151 252 721 0
197 282 743 0
180 -422 674 0
-132 -189 580 0
-76 357 -579 0
-3 -467 -782 0
177 -277 297 0
-53 128 -786 0
119 -467 -693 0
-63 467 -593 0
17 -458 -542 0
361 689 760 0
-350 516 761 0
134 367 557 0
165 517 -544 0
-126 182 -778 0
-372 585 679 0
538 585 -733 0
-212 -650 -706 0
-313 374 -505 0
-110 349 737 0
-297 -496 737 0
522 570 664 0
-215 -383 472 0
311 390 -769 0
-219 -348 674 0
173 -421 -741 0
-361 477 -739 0
-278 -421 -719 0
-553 562 -744 0
-120 740 742 0
-37 625 645 0
-391 403 734 0
-64 136 -544 0
-12 485 -549 0
314 -598 -756 0
506 -614 -687 0
-324 383 -657 0
-103 -520 539 0
128 -275 504 0
245 -335 -350 0
378 -550 800 0
102 -602 -791 0
192 306 759 0
-136 522 552 0
314 332 -654 0
99 -330 -461 0
-233 508 696 0
-105 107 -357 0
-216 -320 -566 0
368 -393 731 0
151 666 678 0
49 78 -517 0
239 458 550 0
7 -282 447 0
-185 216 -591 0
211 -702 -781 0
-281 -463 -623 0
505 -708 -724 0
352 -564 573 0
-373 -384 531 0
189 386 -467 0
-253 340 -378 0
388 -474 728 0
372 446 -738 0
249 -586 686 0
-36 -666 771 0
296 640 771 0
-111 -136 275 0
215 -428 728 0
-31 464 -756 0
137 331 -712 0
330 -539 -583 0
602 782 790 0
-623 729 792 0
-181 -253 586 0
-26 45 441 0
524 599 -681 0
-47 551 771 0
-62 -461 593 0
114 145 -305 0
321 -428 -610 0
-175 589 -593 0
-20 502 -625 0
-225 248 522 0
-276 -650 687 0
-17 -488 -521 0
-754 782 798 0
111 -322 -396 0
-191 -319 -558 0
292 -534 -788 0
15 -76 131 0
-106 166 677 0
-511 -647 -712 0
53 -453 -745 0
-47 -544 794 0
-4 -245 732 0
-117 236 244 0
-189 -336 -459 0
566 -599 672 0
69 -274 544 0
48 255 -493 0
9 -107 -226 0
27 -136 -619 0
204 -386 647 0
288 625 -692 0
9 403 -590 0
132 675 -729 0
363 -504 -526 0
-126 231 523 0
-1 415 -780 0
-82 -211 -625 0
440 572 -800 0
101 -426 -659 0
120 261 559 0
264 -516 -722 0
-118 305 -324 0
-194 196 260 0
-102 477 -641 0
147 -314 388 0
-312 531 -776 0
153 -377 -448 0
439 694 794 0
-337 532 -559 0
-268 -470 -767 0
318 337 -669 0
-233 575 -702 0
-233 368 509 0
-125 -387 -692 0
-278 -308 -485 0
-208 243 280 0
467 -493 560 0
-439 560 -646 0
209 -385 -493 0
13 -498 660 0
138 -268 -649 0
34 44 78 0
87 366 526 0
-111 559 -683 0
298 -331 781 0
53 -148 224 0
-80 246 -581 0
-55 385 728 0
49 -63 -223 0
-371 658 -703 0
358 -533 -794 0
-105 456 787 0
-20 44 759 0
-37 -81 -501 0
-281 -400 -606 0
381 -531 -546 0
-27 -64 -100 0
3 362 738 0
-100 403 -551 0
-135 -504 572 0
-182 -324 -790 0
-52 118 713 0
69 189 -497 0
447 -568 -589 0
-209 382 410 0
-447 -496 -648 0
-119 308 -573 0
-262 -675 738 0
93 168 236 0
-68 416 -737 0
391 503 -540 0
-56 -564 -676 0
569 -657 686 0
121 415 459 0
166 -247 -356 0
246 517 600 0
-155 637 -723 0
-64 -95 -244 0
-53 66 -351 0
-76 403 751 0
361 402 729 0
-181 335 645 0
206 -298 -674 0
487 750 755 0
-44 -179 740 0
-236 586 -617 0
36 -91 375 0
239 604 606 0
162 -671 -686 0
-48 552 585 0
-176 -450 591 0
-7 176 -221 0
-124 169 -243 0
70 310 667 0
390 -494 -620 0
-41 169 679 0
-442 485 571 0
353 -475 550 0
-41 78 359 0
-128 212 583 0
-446 -592 702 0
137 -432 614 0
130 416 -424 0
163 666 -689 0
-477 -574 599 0
-161 -384 711 0
326 338 641 0
-286 -522 -581 0
279 -633 -730 0
-22 478 629 0
-121 575 754 0
663 -690 791 0
267 -556 -659 0
1 194 472 0
174 -248 -395 0
299 314 -484 0
25 267 -589 0
297 535 -696 0
-29 159 593 0
-15 -518 -545 0
285 349 409 0
-388 -542 559 0
-14 -101 338 0
-44 102 -211 0
350 424 720 0
78 300 331 0
-14 -484 628 0
-62 -573 721 0
60 130 -213 0
183 582 697 0
-413 666 729 0
475 -561 609 0
-411 602 797 0
44 516 657 0
102 546 713 0
94 -245 341 0
220 -353 671 0
-166 275 -391 0
125 -218 312 0
575 -613 646 0
-380 436 -735 0
223 -525 -675 0
121 202 -675 0
-319 -398 432 0
199 -330 -395 0
-316 633 781 0
-69 -219 764 0
55 196 402 0
-92 -253 390 0
60 -314 -504 0
339 454 -522 0
-21 30 -198 0
96 -327 -666 0
-200 -498 -638 0
115 -225 643 0
-8 -271 -753 0
478 -591 -759 0
-51 265 -579 0
67 -566 783 0
354 445 774 0
221 -388 691 0
469 477 -666 0
295 -605 -631 0
-84 213 414 0
85 -263 -581 0
-99 -491 565 0
-13 -359 -436 0
105 -302 722 0
-389 578 -745 0
-58 380 765 0
91 -297 312 0
88 -183 462 0
-298 470 -752 0
40 88 -494 0
353 395 -456 0
-145 589 -623 0
-228 -503 -706 0
-236 397 465 0
26 194 408 0
433 472 600 0
278 568 702 0
-267 -472 704 0
-295 -459 790 0
-52 -61 -157 0
52 71 462 0
-240 415 -757 0
136 389 -708 0
-146 -167 -408 0
6 106 393 0
81 253 281 0
-381 435 -761 0
-10 279 -624 0
39 -206 -555 0
-5 -383 715 0
-35 -458 -632 0
259 353 -657 0
57 223 -377 0
-73 520 -722 0
-113 187 706 0
157 663 -798 0
-202 -410 -629 0
-134 -170 -642 0
7 -221 -542 0
-556 -716 -728 0
87 310 390 0
-90 423 -513 0
-224 -282 497 0
-711 735 800 0
-56 -323 -473 0
-401 -504 718 0
262 -458 -501 0
111 -201 487 0
148 -224 -500 0
185 263 -569 0
-388 456 -586 0
525 -629 631 0
-60 245 -545 0
-102 -703 -731 0
-101 -203 -676 0
95 442 526 0
-25 -240 374 0
433 -646 -677 0
186 259 -636 0
-131 226 -420 0
2 -181 421 0
-118 -614 714 0
157 184 -687 0
170 300 -612 0
-140 262 670 0
127 -350 550 0
-215 318 -471 0
410 553 775 0
-204 543 674 0
-83 -258 562 0
-95 -145 -402 0
-191 -328 -514 0
68 247 -485 0
-105 -122 -401 0
-92 -235 710 0
50 -331 638 0
-116 178 431 0
447 452 -722 0
-407 -512 598 0
82 132 491 0
158 -397 -402 0
196 263 -331 0
250 -673 -695 0
-467 630 735 0
-334 -412 -618 0
-110 290 309 0
-208 313 512 0
-253 636 -764 0
48 55 187 0
162 383 460 0
422 -492 668 0
-19 325 -522 0
32 -198 492 0
55 -330 464 0
268 -311 -659 0
53 174 719 0
-250 -312 519 0
-8 -212 -265 0
160 -370 675 0
156 412 563 0
-33 461 -470 0
-26 121 316 0
-288 462 -737 0
294 -449 610 0
10 -272 -517 0
136 -438 526 0
-284 -364 -788 0
-208 -285 -563 0
76 -311 -548 0
-193 -319 579 0
-168 -488 -737 0
-304 377 -472 0
443 568 740 0
205 478 723 0
29 172 655 0
-466 563 679 0
222 404 -482 0
-373 485 -522 0
-121 -360 -484 0
-214 507 -562 0
74 -372 -793 0
-331 -336 469 0
-26 -557 -717 0
-406 775 -794 0
375 566 -586 0
125 220 -316 0
-263 -572 646 0
-237 -600 -673 0
-12 -299 669 0
477 508 -543 0
263 -437 530 0
141 -509 606 0
-1 -76 198 0
268 -383 -536 0
-163 242 -694 0
165 -529 669 0
50 -169 669 0
68 -418 -670 0
86 -202 400 0
-251 -647 -657 0
165 191 -387 0
331 -358 543 0
415 -532 -697 0
-168 -335 -524 0
-308 585 668 0
-24 -25 191 0
-123 220 300 0
262 268 -426 0
-4 -144 504 0
236 677 -777 0
-156 -172 671 0
59 -208 762 0
-333 -487 -706 0
241 -484 -730 0
-23 -418 -626 0
-122 -193 -569 0
-101 315 -536 0
-391 690 -783 0
-443 -491 -517 0
-510 -522 740 0
-52 -92 -117 0
20 -476 -742 0
-57 -453 -486 0
-253 -602 698 0
-96 -217 632 0
318 477 645 0
-451 -503 -700 0
285 363 -588 0
-313 -432 643 0
-19 -58 527 0
360 -429 575 0
264 460 -751 0
219 427 502 0
-92 325 427 0
-12 -318 475 0
79 -492 566 0
-146 409 791 0
-62 -595 720 0
-95 -265 559 0
-305 470 -483 0
-217 473 -498 0
-183 -383 -792 0
-249 -500 735 0
122 -224 700 0
315 626 720 0
-381 -561 692 0
-48 -516 754 0
-53 635 -771 0
-105 205 297 0
209 431 689 0
-483 494 -738 0
-91 210 246 0
11 319 -717 0
-273 287 -526 0
-272 -342 745 0
50 51 -596 0
-15 -122 -724 0
-368 -405 -463 0
-189 -480 -650 0
-230 -520 619 0
-299 -324 -351 0
252 702 -798 0
-13 -356 358 0
-135 -417 422 0
64 185 -548 0
-412 451 -552 0
-136 521 636 0
591 -632 -692 0
210 557 -595 0
98 344 493 0
352 -726 777 0
-37 50 -546 0
-79 291 -381 0
-340 -549 751 0
-92 -157 228 0
116 243 735 0
-264 -447 -730 0
-89 424 -657 0
-226 -513 -562 0
314 357 413 0
428 -591 -696 0
-566 -769 -780 0
328 -390 617 0
289 -298 526 0
-369 447 -700 0
498 617 -677 0
246 -435 788 0
-153 -612 787 0
273 374 -720 0
20 609 740 0
493 512 776 0
48 451 755 0
-25 139 -147 0
234 -535 -762 0
51 -80 -789 0
-37 65 -258 0
-37 525 742 0
32 -671 700 0
-331 -547 639 0
-27 -422 739 0
60 456 592 0
-79 -291 -564 0
-4 -360 -536 0
-44 -70 -323 0
-52 59 -352 0
195 236 381 0
144 326 506 0
-185 639 644 0
141 388 -706 0
349 533 -653 0
88 -231 -705 0
105 -234 670 0
186 250 -256 0
-73 -402 735 0
204 -507 736 0
104 142 565 0
-461 621 -777 0
72 -470 -648 0
-139 382 -394 0
-112 -383 -604 0
442 -495 -618 0
-150 -539 800 0
-290 335 -360 0
-318 379 593 0
-48 -549 -761 0
-434 -605 -670 0
77 -206 -232 0
80 -459 561 0
-35 -584 -613 0
176 -394 -617 0
138 -194 -515 0
22 757 -796 0
182 -195 -332 0
380 605 625 0
-370 -607 646 0
29 36 -725 0
-308 -492 -629 0
167 551 -619 0
189 193 607 0
3 319 723 0
-172 -335 -498 0
-147 210 332 0
-72 -236 -322 0
8 321 -453 0
-133 -201 497 0
69 328 -393 0
28 115 490 0
330 -405 -659 0
-348 379 678 0
55 -347 677 0
-8 204 796 0
115 466 -613 0
118 403 582 0
291 -544 679 0
-160 542 713 0
199 -205 -466 0
-59 -715 740 0
-92 336 -392 0
-133 460 -643 0
-93 -209 -566 0
37 618 -758 0
-481 -620 -657 0
52 -85 -186 0
326 425 747 0
2 -377 714 0
-289 -301 417 0
61 65 -167 0
132 -165 731 0
156 393 744 0
305 -451 -554 0
245 -306 -452 0
-118 -429 -519 0
-218 -267 499 0
-409 -614 -744 0
601 785 796 0
-243 -392 -611 0
431 472 -711 0
-455 -698 759 0
439 -498 561 0
153 171 -637 0
44 376 706 0
-58 101 -367 0
-334 -662 771 0
-274 -315 350 0
-193 321 488 0
40 -472 501 0
-403 -649 762 0
205 424 -571 0
12 359 459 0
-581 686 -712 0
-356 -610 -762 0
310 -367 418 0
-519 -545 -657 0
-476 703 767 0
33 129 340 0
-513 -693 -764 0
-41 -419 -441 0
133 -367 591 0
-95 -287 -626 0
45 195 589 0
-209 551 -556 0
155 292 -684 0
146 443 670 0
579 596 -642 0
259 -494 652 0
-4 -15 692 0
-294 446 -727 0
-151 -438 477 0
-173 384 687 0
109 329 491 0
-444 725 -770 0
29 388 502 0
157 396 -629 0
-29 286 -710 0
81 520 603 0
255 -279 574 0
-79 -86 -115 0
-437 474 -709 0
-341 631 -700 0
-44 -327 -576 0
314 -479 493 0
-358 503 -519 0
252 -337 441 0
237 302 -609 0
413 437 -684 0
102 227 -361 0
41 -147 266 0
-350 -486 699 0
-71 -238 -437 0
98 -161 446 0
-32 249 -753 0
-61 -300 597 0
-207 -315 480 0
199 -631 708 0
397 -789 791 0
294 389 409 0
-275 -531 -640 0
-127 370 787 0
237 374 602 0
53 378 -470 0
-143 -223 790 0
368 556 766 0
-136 -160 429 0
91 586 -596 0
66 -237 570 0
76 -290 719 0
-76 -101 -168 0
49 -105 -331 0
69 -420 -596 0
106 183 784 0
20 140 -437 0
50 145 -608 0
104 -161 739 0
95 -221 501 0
-249 -367 744 0
-98 -183 -722 0
-103 180 535 0
-424 456 682 0
159 -251 666 0
581 -689 -737 0
-143 427 498 0
195 -308 -795 0
474 -511 523 0
167 -223 466 0
54 -69 -786 0
118 230 368 0
56 77 -536 0
-96 222 -646 0
337 -503 -514 0
-76 -439 -515 0
-184 -448 501 0
-160 271 399 0
-121 -191 -661 0
456 477 683 0
-23 -520 586 0
25 -45 -707 0
-388 406 -509 0
-10 91 -112 0
102 -135 730 0
147 541 -673 0
26 110 -320 0
-146 197 -675 0
-227 398 -653 0
350 577 -795 0
-64 -374 502 0
18 -168 -437 0
-237 542 674 0
-100 277 -401 0
202 -349 -625 0
-40 86 164 0
41 -317 -415 0
-431 -595 717 0
290 -704 -782 0
322 656 753 0
20 -197 -648 0
12 -80 362 0
411 484 -684 0
168 -484 507 0
-61 555 591 0
217 -334 512 0
-262 493 604 0
-92 93 342 0
58 347 -724 0
193 -311 -521 0
63 -267 799 0
-427 -628 673 0
-607 -672 -741 0
-37 310 436 0
165 -386 -483 0
-362 -475 -729 0
339 -369 562 0
458 504 -673 0
134 -155 -255 0
373 -779 790 0
28 381 -446 0
-40 63 94 0
138 -262 -688 0
169 272 -785 0
18 -527 -622 0
199 600 -745 0
407 -672 721 0
-39 -358 736 0
-373 -389 -568 0
-243 310 -558 0
-69 -126 -173 0
116 266 -579 0
-535 -612 653 0
393 -486 -735 0
-254 -633 -791 0
-36 58 -413 0
161 426 -709 0
23 502 764 0
-76 -244 -727 0
25 -234 779 0
505 -615 650 0
-87 -568 -587 0
65 506 614 0
255 -526 -724 0
-267 -368 409 0
-427 -542 -681 0
221 -452 -623 0
-213 587 -747 0
98 436 -790 0
-492 -553 629 0
-32 -273 321 0
-404 442 -755 0
141 267 705 0
404 -478 582 0
57 -647 733 0
-14 -97 744 0
174 -226 -416 0
502 -616 -704 0
-172 308 677 0
161 451 606 0
505 539 -734 0
-366 521 718 0
-200 395 717 0
-162 249 692 0
-291 499 503 0
313 557 -776 0
56 90 -344 0
270 378 392 0
-360 -544 -609 0
201 -430 -456 0
-193 -616 -658 0
-112 582 -726 0
-127 322 643 0
-138 -681 -750 0
-207 535 738 0
-282 -426 -540 0
10 -651 752 0
109 256 -688 0
-133 -336 -526 0
68 -578 -641 0
-396 413 511 0
6 220 783 0
-136 -418 645 0
-191 199 329 0
-66 89 -130 0
174 184 330 0
-267 445 -562 0
235 -378 404 0
-268 -395 -419 0
-636 -710 739 0
173 304 337 0
-64 -135 414 0
241 -335 -629 0
-39 116 711 0
-100 161 465 0
-218 220 397 0
230 405 775 0
-155 232 713 0
11 142 -398 0
-87 180 645 0
409 -704 723 0
-114 -139 607 0
143 226 -605 0
293 617 628 0
122 -288 347 0
-76 531 -616 0
617 620 -739 0
-54 89 -264 0
-574 771 788 0
-214 348 -792 0
-100 144 -586 0
356 634 680 0
-492 678 -762 0
428 476 658 0
-253 -337 -791 0
363 603 -609 0
-444 556 -738 0
-596 -619 -627 0
-132 299 -504 0
351 -489 -791 0
65 -493 723 0
175 -298 535 0
172 683 727 0
-344 515 -648 0
232 -709 797 0
80 582 -673 0
222 357 -653 0
114 159 -373 0
179 -352 556 0
-55 762 796 0
362 -420 -659 0
136 -293 295 0
-264 -563 605 0
-133 -367 -466 0
38 77 -524 0
263 602 -794 0
-123 242 -721 0
96 565 -677 0
-201 482 549 0
89 -192 431 0
-175 -622 772 0
38 467 525 0
452 -572 638 0
307 425 -663 0
53 -304 -633 0
9 463 -522 0
-122 -288 -425 0
330 698 739 0
-408 529 -701 0
45 266 -699 0
485 -601 -634 0
316 -557 645 0
-187 -492 -775 0
-166 -196 -350 0
321 468 -700 0
-25 -408 745 0
-207 228 -695 0
-456 -552 608 0
-54 362 658 0
-163 490 -631 0
-236 -403 702 0
226 -384 466 0
57 -303 659 0
-93 591 -772 0
14 -372 -588 0
172 637 -800 0
-264 -628 -749 0
171 -675 680 0
200 389 478 0
156 253 396 0
332 -766 -794 0
97 -106 -187 0
545 -587 762 0
-238 -400 767 0
-199 -344 730 0
-132 -136 -311 0
37 -120 -750 0
-98 260 -748 0
-209 -234 -676 0
-4 -204 381 0
-119 -154 761 0
-163 666 -701 0
-31 -307 471 0
-252 570 -765 0
-263 286 324 0
680 -781 -793 0
339 -442 -558 0
-8 53 485 0
25 182 -478 0
-291 417 -553 0
-95 -235 561 0
463 -580 -643 0
102 266 472 0
335 469 661 0
630 646 -728 0
-72 -256 -577 0
21 -558 580 0
-25 -700 789 0
-90 292 422 0
-561 -667 743 0
149 402 -588 0
-318 -754 766 0
-5 110 777 0
205 628 -647 0
229 -329 -451 0
-139 -153 414 0
379 673 739 0
169 -439 -784 0
-7 37 464 0
-144 -234 372 0
19 -516 -601 0
323 605 -769 0
130 521 -624 0
-416 448 508 0
-56 539 777 0
191 -291 338 0
-253 -284 656 0
-249 -506 -603 0
255 -393 421 0
-35 92 -524 0
225 -615 677 0
95 218 327 0
259 260 294 0
79 101 -408 0
-540 676 733 0
-324 422 527 0
57 -103 -710 0
-6 -195 -468 0
-103 514 -752 0
-221 324 -388 0
361 515 -729 0
-249 -584 -620 0
38 259 489 0
-410 -730 777 0
211 626 680 0
300 322 635 0
562 -619 -723 0
-491 590 -639 0
-364 532 -569 0
-164 -693 -786 0
253 752 -788 0
-30 -426 -581 0
496 720 -797 0
-69 -446 -612 0
-224 666 724 0
168 -231 740 0
190 656 -692 0
-118 254 712 0
195 -201 206 0
-29 467 569 0
-101 -201 -414 0
-145 -155 537 0
185 -568 681 0
-326 439 709 0
-120 -225 520 0
105 142 -780 0
-107 207 223 0
-33 649 676 0
31 -90 -394 0
161 290 -390 0
284 -556 -744 0
-403 -465 741 0
-287 359 -556 0
325 365 765 0
384 -456 583 0
188 220 -774 0
561 -562 747 0
110 -543 -586 0
122 -209 549 0
460 -536 -588 0
48 -306 759 0
-205 -236 -735 0
-206 -344 -601 0
284 332 776 0
212 -342 -493 0
-381 -523 627 0
155 420 751 0
-515 -645 -777 0
-10 346 -772 0
16 244 794 0
-182 -325 394 0
-191 245 481 0
-324 -660 720 0
407 466 473 0
-353 -550 -584 0
62 -421 -534 0
259 -720 756 0
212 652 745 0
-251 610 -716 0
-94 -395 -508 0
551 563 -639 0
-117 465 638 0
10 359 552 0
-61 -63 690 0
179 -199 299 0
275 -332 410 0
16 -182 -624 0
-148 392 399 0
-261 -480 -743 0
314 -354 422 0
-37 -599 788 0
-196 575 -684 0
-406 518 530 0
286 -407 -504 0
510 534 785 0
153 283 -762 0
-122 -212 -291 0
155 252 -562 0
16 105 320 0
12 -164 -197 0
93 399 662 0
-329 -517 -648 0
150 343 -629 0
328 329 644 0
156 -338 -458 0
115 294 642 0
-150 -175 213 0
-222 313 531 0
-3 -625 -719 0
119 -248 632 0
439 689 777 0
529 784 787 0
-277 -334 -600 0
-219 392 585 0
147 -351 457 0
158 195 -316 0
70 433 -523 0
-490 522 -572 0
271 447 733 0
-197 362 -653 0
461 576 -760 0
-383 486 -578 0
-181 -389 -529 0
-340 -524 744 0
-158 -465 703 0
66 -151 -637 0
-52 157 581 0
76 -268 -273 0
-55 191 741 0
-73 -289 327 0
-60 63 618 0
-40 -555 689 0
-391 613 -625 0
256 -424 -715 0
-253 488 -596 0
-172 -248 -374 0
256 -290 -295 0
193 -207 318 0
353 499 619 0
-243 466 656 0
145 606 -620 0
-50 -377 660 0
-271 -651 -666 0
-414 735 -783 0
8 14 555 0
-255 448 -609 0
-50 120 739 0
-519 648 732 0
-178 -266 515 0
60 -447 -475 0
-307 -351 -603 0
-406 -563 640 0
151 480 -576 0
79 156 559 0
545 -647 -660 0
-14 133 -621 0
-149 378 -750 0
-99 -543 601 0
344 479 570 0
-33 576 -669 0
-156 -562 -603 0
261 361 593 0
-188 204 520 0
42 -234 -763 0
149 -560 -582 0
40 313 -607 0
253 264 537 0
281 419 446 0
142 -513 590 0
-212 -487 598 0
3 496 735 0
-351 -414 690 0
533 -564 -762 0
80 -545 -578 0
-234 -510 613 0
534 -726 -798 0
-118 -511 650 0
240 313 -362 0
15 378 699 0
-136 315 747 0
26 -88 -622 0
-155 -257 504 0
102 -280 -617 0
95 -153 501 0
359 525 -642 0
233 488 788 0
362 -566 -679 0
128 143 293 0
41 377 -401 0
144 511 -606 0
180 -187 -404 0
318 630 -768 0
233 -513 -553 0
332 491 -760 0
96 -109 -171 0
68 -104 340 0
393 754 771 0
-594 -637 639 0
139 -201 608 0
216 245 -470 0
-164 465 668 0
-47 370 -717 0
66 -364 -664 0
-46 -57 -433 0
-173 -429 -626 0
52 -464 -613 0
150 -333 -754 0
-286 583 778 0
46 -418 793 0
-12 120 259 0
175 191 -768 0
63 -553 600 0
181 -249 -375 0
145 359 389 0
399 -465 593 0
-118 303 420 0
-378 587 -590 0
-125 -172 -240 0
23 567 576 0
-188 501 -558 0
553 576 -776 0
33 -283 -436 0
-57 298 382 0
-118 647 667 0
-30 129 563 0
-210 231 600 0
24 -142 702 0
5 141 448 0
333 355 -751 0
100 295 361 0
370 545 552 0
68 -511 -730 0
-98 321 -678 0
585 635 -763 0
-388 658 661 0
-350 653 -695 0
318 -410 771 0
103 -305 -414 0
274 328 473 0
58 -510 571 0
174 -367 -604 0
212 -238 -532 0
49 472 -491 0
-7 377 -786 0
192 -429 -774 0
-346 448 -672 0
154 -241 -340 0
-120 553 -747 0
193 496 -632 0
-113 401 661 0
-194 439 -602 0
-92 155 740 0
-77 483 737 0
-24 426 -599 0
373 568 778 0
360 -771 -797 0
122 586 624 0
25 -192 205 0
33 148 -448 0
184 523 722 0
261 -571 613 0
-36 -262 360 0
-536 556 659 0
-44 -308 348 0
-724 -743 -779 0
-386 479 788 0
72 -461 -492 0
183 368 -651 0
307 680 -796 0
369 -406 -615 0
403 532 -704 0
-401 -631 -716 0
312 -400 767 0
-15 30 441 0
266 373 455 0
-270 508 761 0
468 626 -737 0
-83 -445 -494 0
174 -247 -502 0
259 -589 -739 0
-148 276 572 0
81 206 324 0
-328 335 336 0
147 302 -303 0
-210 -568 -791 0
-47 337 -644 0
96 -686 -690 0
58 374 -612 0
-32 -110 -685 0
423 617 -729 0
-366 591 -713 0
89 -236 -419 0
245 659 -708 0
6 -145 -496 0
374 482 655 0
246 -433 -598 0
22 -207 473 0
209 -435 -622 0
311 -406 -565 0
-543 -636 -786 0
285 663 -740 0
-404 412 473 0
541 746 784 0
-321 552 -643 0
-602 659 -770 0
77 507 -519 0
-52 -535 -752 0
305 568 759 0
42 -362 765 0
-195 -258 553 0
-6 -497 650 0
-25 -305 684 0
-330 434 -657 0
146 -150 -697 0
-123 -542 659 0
-498 596 648 0
-335 -628 799 0
-399 -473 540 0
-185 -667 736 0
354 -460 530 0
40 167 -621 0
-346 653 -746 0
100 386 788 0
-88 429 517 0
41 -676 -715 0
31 -460 -486 0
-60 115 766 0
-308 -329 707 0
-9 731 746 0
22 413 611 0
-125 -485 785 0
23 -474 687 0
332 -744 759 0
-55 667 -789 0
524 -603 -745 0
-23 -438 -664 0
-242 402 -435 0
-90 144 -657 0
-144 317 -411 0
416 -504 668 0
120 141 499 0
225 542 -731 0
-117 127 798 0
280 -424 -720 0
-24 -260 -417 0
-143 563 -745 0
21 176 -641 0
-5 -61 -223 0
-362 510 661 0
-244 270 -560 0
-257 424 -435 0
-162 174 447 0
53 -247 554 0
44 206 747 0
323 -450 -458 0
149 156 503 0
239 306 517 0
-196 269 645 0
248 368 -561 0
430 -582 -643 0
-45 381 559 0
-202 384 -658 0
25 -110 418 0
-84 -469 777 0
165 329 403 0
59 407 780 0
-233 583 632 0
164 -237 505 0
-178 -559 733 0
-185 489 -653 0
-467 -528 -794 0
357 -455 526 0
-332 418 -791 0
290 381 -715 0
189 362 -721 0
-144 178 240 0
97 226 -567 0
-146 -571 764 0
-306 -356 -631 0
-257 339 -486 0
234 415 450 0
312 -522 567 0
-44 405 -731 0
-218 489 758 0
301 -449 566 0
471 -681 682 0
-268 714 761 0
13 566 668 0
-12 525 655 0
-31 -461 782 0
23 243 -654 0
-215 -421 429 0
-37 55 -369 0
218 -320 679 0
341 -417 -531 0
108 260 271 0
167 391 -702 0
32 232 -567 0
224 -360 -769 0
-289 -474 -716 0
157 -317 732 0
155 -381 743 0
-88 -132 470 0
-22 45 -318 0
-116 435 -462 0
-61 340 -587 0
42 176 256 0
215 525 -636 0
111 498 680 0
-56 63 -286 0
388 -448 659 0
-315 485 -540 0
168 203 -557 0
300 387 -794 0
-212 431 674 0
91 162 -264 0
17 -62 -778 0
-504 505 517 0
502 -538 -561 0
-129 209 338 0
314 -547 600 0
-237 581 -742 0
384 -408 -753 0
-393 -503 764 0
-125 -346 -731 0
310 -504 577 0
-136 -138 -437 0
75 -110 297 0
-321 -413 -520 0
104 -467 683 0
325 424 -651 0
-333 600 -677 0
-266 -304 -654 0
-229 349 -371 0
60 -306 -434 0
-227 674 678 0
-10 -127 130 0
-76 -422 -743 0
-47 -445 -679 0
482 493 626 0
470 -539 573 0
214 -305 326 0
-132 -234 -421 0
47 -424 -514 0
167 343 424 0
-88 -101 -568 0
-6 219 281 0
157 159 -190 0
128 340 402 0
13 584 725 0
-209 637 -716 0
517 539 -765 0
-235 -514 609 0
233 711 -741 0
446 -461 -799 0
146 165 625 0
-96 -328 616 0
-59 423 624 0
108 -271 465 0
348 357 -515 0
80 -155 303 0
-476 480 492 0
-243 -572 -749 0
-169 524 -660 0
-3 -303 -388 0
-520 -545 643 0
-55 372 -439 0
345 460 -757 0
23 230 625 0
283 568 729 0
-208 -258 -394 0
286 414 765 0
149 251 -449 0
118 754 -797 0
221 519 705 0
366 384 -581 0
182 -202 -479 0
294 -324 -441 0
-191 224 -683 0
146 422 -626 0
-380 -633 655 0
-227 277 -695 0
-328 449 -455 0
-411 -493 655 0
-23 114 147 0
110 -116 286 0
166 537 -660 0
124 -195 -657 0
-96 175 579 0
224 381 555 0
-329 -331 -748 0
-280 614 -658 0
-85 99 -130 0
-59 198 -660 0
-280 326 365 0
79 260 -325 0
172 375 392 0
246 674 759 0
-1 -469 -705 0
400 -610 -662 0
-218 598 -624 0
-223 -248 617 0
134 399 493 0
-294 -478 768 0
-27 -369 -382 0
-136 -640 714 0
-130 -277 655 0
40 43 -456 0
149 -332 770 0
-455 523 692 0
76 636 -714 0
-412 503 -760 0
239 -268 -457 0
161 279 434 0
-100 465 -720 0
-255 -565 -749 0
199 222 -488 0
-106 137 297 0
-485 676 -784 0
-186 389 -710 0
-568 -576 -615 0
78 506 643 0
-193 198 -326 0
-173 537 668 0
-341 -455 -557 0
-168 -225 696 0
-2 -284 366 0
187 604 -747 0
346 482 -787 0
-147 -358 -516 0
155 -280 684 0
17 309 697 0
490 707 776 0
279 -518 -793 0
104 481 651 0
-21 -40 359 0
-41 310 -769 0
86 139 -502 0
-46 674 -721 0
167 650 -743 0
226 286 365 0
452 -680 -789 0
-392 -717 -773 0
252 -278 341 0
10 -291 695 0
-252 -358 472 0
-26 264 535 0
-559 585 -770 0
73 94 -710 0
-254 417 -770 0
-335 591 632 0
-387 -528 659 0
46 224 516 0
54 244 477 0
-160 -624 -630 0
32 -585 720 0
-174 -488 -569 0
9 -506 -658 0
-244 460 -602 0
-319 -714 791 0
162 429 463 0
303 -445 -635 0
15 111 -567 0
190 -220 -305 0
-172 578 -640 0
147 191 -756 0
-60 -307 -390 0
-66 158 -413 0
-337 -542 797 0
-700 -771 -797 0
-122 429 740 0
36 184 -219 0
59 471 -733 0
-115 349 451 0
113 131 -651 0
-442 524 -650 0
51 -220 497 0
163 -413 -526 0
98 412 421 0
-299 -334 -711 0
268 -417 -665 0
33 -283 789 0
-238 -256 442 0
445 -553 -738 0
392 591 -734 0
-443 630 -655 0
-147 -589 661 0
478 -503 -749 0
-124 -350 -390 0
277 587 -665 0
-24 -151 698 0
37 -363 -529 0
-130 362 369 0
-183 383 462 0
-74 290 585 0
55 -520 -624 0
-108 308 559 0
207 -429 732 0
277 -399 -539 0
-11 237 -607 0
319 649 714 0
-249 -369 554 0
435 629 659 0
-448 613 -672 0
-118 -163 420 0
110 611 -759 0
-115 -324 760 0
82 519 -762 0
-481 -623 699 0
-75 108 220 0
385 -515 -572 0
61 504 671 0
9 -378 446 0
459 622 679 0
-15 219 -259 0
604 700 -714 0
-114 -180 -554 0
-115 -305 -539 0
-93 -121 -778 0
-18 511 -522 0
3 -477 -680 0
372 504 -624 0
40 297 482 0
-348 -350 -556 0
-241 -408 664 0
253 436 730 0
7 149 -378 0
174 637 675 0
-6 525 767 0
28 -96 -157 0
37 -455 -794 0
122 451 456 0
-270 -558 -599 0
52 139 343 0
168 328 -523 0
359 -515 769 0
-364 387 648 0
-154 515 567 0
109 -328 -668 0
-37 -291 -447 0
37 -281 -543 0
-52 120 -625 0
150 -592 -787 0
-107 -147 -166 0
-281 -383 -552 0
113 233 768 0
109 -252 648 0
-261 -347 388 0
156 347 -504 0
230 239 298 0
466 610 716 0
213 450 -530 0
-31 -458 645 0
-293 -491 -670 0
167 292 762 0
-121 316 461 0
-2 -296 610 0
-46 244 496 0
223 517 -733 0
249 277 -545 0
239 -530 643 0
251 450 -660 0
346 -494 691 0
316 -495 -757 0
-15 -706 -776 0
17 -158 -691 0
169 183 -640 0
-153 349 653 0
11 16 51 0
-308 331 384 0
133 420 779 0
-101 534 -620 0
153 283 -765 0
52 -425 532 0
-126 -212 252 0
393 -505 670 0
-350 394 658 0
288 -368 614 0
234 529 -681 0
-234 582 -770 0
-273 -281 578 0
-203 -450 -758 0
-371 480 -688 0
333 434 577 0
322 -655 -727 0
430 -557 -743 0
-407 -443 -789 0
189 -215 600 0
-56 -85 560 0
-49 -279 -557 0
-145 213 340 0
360 -442 -507 0
84 141 -512 0
136 -426 -482 0
-26 -658 725 0
-53 472 571 0
-140 557 -651 0
-202 368 -649 0
38 -603 795 0
132 -172 552 0
326 442 712 0
-88 523 -556 0
-422 -437 -628 0
49 -212 291 0
-189 684 -714 0
433 -676 788 0
240 -564 675 0
-414 548 -630 0
-41 189 -504 0
368 699 755 0
-3 615 -684 0
576 -650 -677 0
-30 -413 535 0
10 -92 -508 0
-171 -279 -395 0
-3 442 541 0
-112 244 -274 0
-147 579 -788 0
219 -569 658 0
-509 -649 -744 0
-215 573 595 0
-80 184 -599 0
-354 -667 -786 0
-117 130 -569 0
116 141 -613 0
-171 -254 430 0
-107 -190 -438 0
-11 -250 -415 0
89 -152 414 0
-253 -266 677 0
-419 491 658 0
-109 -125 179 0
-407 -448 -652 0
288 -336 683 0
-152 -319 585 0
515 568 -676 0
-29 -275 753 0
95 113 -308 0
83 228 705 0
-36 529 -622 0
-209 345 -569 0
451 -568 676 0
-384 -499 -745 0
-102 -205 -344 0
5 404 -591 0
170 400 -771 0
-382 514 618 0
151 242 401 0
6 132 -678 0
115 388 -630 0
13 -222 -652 0
-502 599 772 0
297 -447 627 0
-86 -686 800 0
-17 212 605 0
118 -129 -399 0
51 303 -789 0
-236 361 656 0
335 347 349 0
490 -596 692 0
-62 164 -561 0
7 -326 352 0
-25 -102 -598 0
-150 -596 717 0
430 -747 -757 0
1 59 -400 0
-130 189 366 0
188 347 -507 0
446 515 -559 0
-272 -439 -790 0
-42 85 -329 0
-27 218 -351 0
328 -505 -539 0
-224 259 -461 0
59 -222 527 0
373 436 -567 0
444 -626 767 0
38 296 -726 0
409 668 -725 0
-119 -254 -624 0
546 -715 752 0
-26 -61 -339 0
-383 604 -777 0
-139 -331 574 0
185 189 -401 0
71 -449 -579 0
-130 -412 520 0
-258 -319 -768 0
357 518 555 0
53 226 500 0
89 -507 590 0
252 503 -639 0
-346 420 619 0
-3 -659 -736 0
-195 232 -605 0
-43 -275 788 0
170 -171 272 0
7 414 -537 0
71 425 -704 0
69 -461 672 0
125 -215 347 0
356 545 616 0
66 -121 303 0
-51 -533 594 0
143 375 -393 0
159 433 672 0
-209 699 -759 0
-344 386 -536 0
18 468 796 0
167 -621 -793 0
33 -653 769 0
575 -695 -784 0
146 367 756 0
208 490 620 0
-108 -266 -788 0
393 -419 450 0
-57 562 725 0
489 -548 557 0
343 -471 715 0
196 202 -715 0
-118 -501 749 0
358 -704 -733 0
213 -690 -738 0
397 -496 -798 0
-152 -355 -446 0
-139 550 723 0
343 366 -617 0
161 519 701 0
185 660 -698 0
276 483 -620 0
499 -571 -615 0
-269 -350 -379 0
-58 192 772 0
-310 386 -471 0
-374 471 -716 0
183 446 696 0
33 422 500 0
263 -374 -730 0
-24 499 728 0
241 356 679 0
-57 180 449 0
188 553 784 0
-132 -295 -362 0
279 -314 -618 0
151 524 640 0
-45 -452 -698 0
-75 -296 -462 0
-68 -356 -431 0
-260 545 775 0
74 -299 329 0
444 485 719 0
-138 304 -327 0
-176 636 645 0
-21 183 -477 0
-146 -150 733 0
98 556 -593 0
-143 -417 -764 0
-29 -65 -139 0
267 490 -589 0
88 334 -514 0
-97 209 599 0
561 -652 -654 0
-149 -292 -701 0
152 -600 -605 0
174 -532 635 0
-522 647 655 0
-117 579 -657 0
46 -87 618 0
-130 334 476 0
314 414 -620 0
55 339 723 0
26 -371 700 0
135 305 -648 0
295 -384 799 0
-209 -312 -632 0
-124 249 694 0
208 -419 499 0
141 -744 767 0
-276 631 -700 0
196 -603 641 0
-298 -426 -739 0
417 682 783 0
-270 -412 564 0
358 -457 -551 0
-46 418 -714 0
176 290 -596 0
207 343 -769 0
230 253 482 0
-328 575 732 0
-158 688 -746 0
85 -443 -525 0
-400 -424 737 0
109 -236 308 0
29 -408 -431 0
408 501 -769 0
-175 521 -565 0
53 -544 -595 0
119 300 648 0
28 261 -391 0
541 606 753 0
14 156 392 0
-103 218 335 0
-54 110 800 0
-239 -582 -726 0
-147 594 -608 0
-184 -200 -800 0
-104 118 341 0
-58 242 -380 0
-20 -37 -594 0
59 381 644 0
-246 342 618 0
-147 -423 -527 0
25 32 714 0
246 688 712 0
109 -165 392 0
189 190 -585 0
174 -410 -559 0
-120 284 -756 0
504 -599 753 0
-94 -283 -395 0
419 436 -606 0
112 204 -425 0
30 -228 378 0
-551 638 699 0
-53 -136 -308 0
201 723 -780 0
-410 -545 649 0
-283 552 629 0
3 91 -446 0
-15 -208 -516 0
-228 -286 737 0
-289 451 -567 0
224 -271 794 0
-156 256 421 0
33 575 729 0
39 202 -773 0
10 -174 548 0
598 -617 629 0
62 -254 -683 0
-139 -239 645 0
-172 -323 -581 0
-122 412 505 0
-67 388 765 0
-265 -319 718 0
-13 338 -525 0
158 503 770 0
544 -742 786 0
-157 583 -688 0
-66 -547 599 0
641 -702 -725 0
-6 515 699 0
81 356 646 0
70 -396 454 0
99 -121 -706 0
-165 198 255 0
-309 -704 -800 0
466 516 -763 0
-63 -152 -624 0
79 -114 -587 0
-125 670 -682 0
-139 -226 775 0
90 273 776 0
-121 605 -708 0
472 -647 -795 0
284 304 676 0
-113 328 -489 0
83 -152 -230 0
-406 -447 -520 0
616 -622 -662 0
-26 674 -712 0
288 372 -699 0
-55 421 795 0
-271 463 -476 0
-116 559 -716 0
134 -238 547 0
-49 160 -589 0
4 -231 -344 0
-45 -652 677 0
86 -528 760 0
-257 -364 -751 0
-261 -625 647 0
251 403 755 0
149 -385 -437 0
-113 337 525 0
-231 -328 -477 0
12 636 -644 0
-173 512 692 0
-168 -212 487 0
-368 -405 411 0
-92 335 -405 0
2 -99 -782 0
610 -621 -632 0
153 627 -749 0
-67 337 524 0
99 257 402 0
-152 473 474 0
-573 -623 -703 0
358 492 768 0
-458 -476 480 0
-111 441 693 0
-275 650 749 0
-514 530 -749 0
92 -226 -583 0
265 462 760 0
-101 -203 -506 0
109 270 -561 0
14 -183 -388 0
-39 453 -644 0
-47 286 798 0
-181 -357 589 0
-34 -243 596 0
-44 393 -510 0
399 485 651 0
-124 182 462 0
177 -508 690 0
-290 373 -609 0
-367 498 631 0
59 140 616 0
315 -449 -667 0
-455 516 622 0
-132 322 -638 0
241 -273 -545 0
302 -563 -652 0
-68 -496 -498 0
-233 288 377 0
11 -64 174 0
-28 -499 670 0
-403 -491 751 0
279 413 754 0
273 -433 733 0
314 -334 -679 0
-225 -244 245 0
110 244 -651 0
-79 149 704 0
-207 -331 -759 0
156 -204 -312 0
442 581 634 0
-138 229 -572 0
378 381 -383 0
79 189 -257 0
197 702 742 0
51 -218 593 0
496 -773 -796 0
206 418 695 0
1 42 683 0
296 414 648 0
-23 -59 -651 0
-72 426 607 0
-336 697 745 0
207 -214 -362 0
302 322 544 0
-272 510 -572 0
-64 719 -783 0
547 662 -764 0
36 -111 554 0
-359 444 -737 0
-270 -392 646 0
-545 634 -724 0
-149 310 314 0
-612 747 797 0
-244 396 570 0
128 492 648 0
-308 337 -344 0
432 -496 631 0
357 -484 552 0
465 -525 -664 0
-44 -103 -296 0
35 -153 474 0
-42 -637 646 0
250 -445 495 0
-43 190 621 0
-164 300 534 0
-165 -236 544 0
103 232 417 0
138 441 491 0
-36 -341 608 0
208 414 632 0
-130 234 -251 0
15 59 -560 0
-111 -645 -779 0
-81 340 398 0
-32 -84 -491 0
-89 -501 -738 0
-389 479 748 0
-251 -338 -470 0
-236 -293 391 0
106 221 787 0
97 214 635 0
-310 -382 -713 0
229 -397 -412 0
31 394 516 0
-25 201 -422 0
-601 642 798 0
-3 -162 -184 0
445 -513 604 0
224 -296 -465 0
117 272 -514 0
90 -420 -687 0
-166 -225 -303 0
-592 -730 740 0
-215 364 573 0
16 496 -731 0
-399 483 -775 0
42 -263 412 0
272 382 -557 0
95 230 695 0
-180 -337 627 0
-159 -325 485 0
-382 417 439 0
-91 -172 -796 0
-115 545 -550 0
445 683 776 0
230 -288 657 0
484 -599 771 0
147 -383 -687 0
-203 -472 507 0
-507 -658 -749 0
208 -393 643 0
-477 -530 -682 0
3 107 -691 0
343 461 478 0
-110 336 -526 0
75 -126 582 0
-561 -658 774 0
-266 -407 -765 0
-152 497 706 0
129 511 763 0
-381 633 -697 0
443 571 -631 0
-317 -363 458 0
178 275 -483 0
148 262 -521 0
-133 165 -462 0
-433 691 714 0
148 -359 -453 0
-416 579 -643 0
178 473 -590 0
-246 -687 738 0
-53 -664 666 0
221 308 524 0
-36 456 661 0
47 71 90 0
-581 -583 622 0
97 -306 436 0
-231 494 686 0
362 454 568 0
-401 593 704 0
509 -712 796 0
-436 -564 569 0
-624 -660 737 0
47 -381 -660 0
208 -651 729 0
22 -187 564 0
-254 -302 -718 0
5 -640 -661 0
-120 -122 667 0
381 758 786 0
-250 -637 733 0
101 454 -603 0
-459 746 -790 0
-76 302 547 0
-93 -290 -600 0
48 303 585 0
124 -679 -692 0
342 -385 -554 0
-141 -209 257 0
216 322 -678 0
278 -422 627 0
45 -297 647 0
204 -273 617 0
-292 620 761 0
28 184 -573 0
-196 -404 -732 0
-49 -185 499 0
-605 718 -742 0
149 -513 785 0
180 -356 -792 0
41 114 -441 0
-81 430 -627 0
-35 -117 607 0
32 -474 -635 0
518 613 -649 0
172 334 577 0
145 -329 535 0
-478 -595 614 0
125 -232 315 0
270 -367 -579 0
-18 194 732 0
-171 230 -348 0
-5 -153 -352 0
86 -245 322 0
-115 327 750 0
365 510 -671 0
-47 291 -709 0
-139 308 623 0
-432 447 -554 0
369 -421 574 0
-333 -383 615 0
-214 -436 519 0
-38 -442 -639 0
540 -576 -746 0
-1 -557 -770 0
-84 400 645 0
5 67 -767 0
193 -692 759 0
-434 529 -599 0
-91 290 743 0
-112 618 724 0
-133 274 -523 0
-236 -341 696 0
-396 -546 -705 0
-174 -185 -263 0
208 260 363 0
-250 594 688 0
-102 469 496 0
112 -167 -689 0
94 545 689 0
-58 509 -620 0
-157 -418 -528 0
-272 496 -665 0
-269 725 742 0
-15 -138 -784 0
286 325 -649 0
125 187 301 0
-10 213 -588 0
-303 -326 -642 0
-396 -400 748 0
512 525 625 0
-143 197 -678 0
-95 365 514 0
182 522 773 0
-115 404 691 0
-93 -222 -682 0
-62 -193 600 0
-373 416 -685 0
256 338 -387 0
-19 -357 -499 0
337 -574 -675 0
88 -299 734 0
-228 -438 -763 0
226 -486 -798 0
56 83 -266 0
170 250 -709 0
123 -363 774 0
-394 -498 580 0
386 -528 607 0
81 -589 -754 0
277 -635 650 0
-422 -437 461 0
147 -450 672 0
463 -710 727 0
332 387 -647 0
211 -374 797 0
-261 421 597 0
-154 -260 650 0
214 -248 455 0
-5 42 -716 0
-144 341 -750 0
-28 -179 -239 0
-267 300 -782 0
432 502 738 0
370 486 549 0
-328 -485 760 0
552 672 -717 0
2 -60 -665 0
-267 -457 619 0
121 -131 381 0
476 710 -747 0
375 -497 746 0
-177 445 -621 0
-54 61 -394 0
193 -522 527 0
391 -566 637 0
-44 -506 -697 0
-173 563 -680 0
348 -367 -750 0
-106 607 797 0
4 -159 -784 0
81 398 -553 0
-274 -312 618 0
295 -355 790 0
-35 91 719 0
-183 -194 -534 0
-26 125 666 0
-249 381 -451 0
-177 213 333 0
229 -504 537 0
-211 212 -655 0
249 -419 484 0
247 287 -595 0
-330 -434 621 0
-32 281 -787 0
90 -296 -373 0
109 -223 -721 0
-50 -355 -729 0
452 -543 792 0
-198 433 736 0
-323 -372 -759 0
155 -537 -796 0
-476 536 728 0
245 471 723 0
304 -583 -643 0
-488 618 795 0
9 -330 -515 0
-109 534 567 0
-442 573 -727 0
169 -765 -772 0
-23 26 462 0
46 432 790 0
78 -561 -664 0
-357 -724 -737 0
-27 -411 -733 0
-17 255 733 0
116 -222 564 0
407 530 -769 0
153 -221 -745 0
70 -151 205 0
-263 -308 599 0
-295 520 742 0
70 540 701 0
214 -263 -534 0
-16 -322 -333 0
227 -422 -476 0
116 -389 -782 0
45 58 216 0
-626 -645 -651 0
-106 -562 687 0
-5 -164 -265 0
58 224 -226 0
-117 -375 -551 0
-12 234 541 0
-313 -367 611 0
-108 -291 710 0
57 592 -740 0
-209 686 714 0
84 -264 -380 0
-123 -362 462 0
72 -392 536 0
-219 488 730 0
63 -91 388 0
-425 -443 599 0
237 260 784 0
54 -101 -321 0
-216 -715 749 0
325 -480 -732 0
-133 421 -662 0
220 -480 -784 0
-232 333 -375 0
-146 -502 735 0
-118 -516 -799 0
-317 407 -429 0
-84 -197 676 0
54 282 451 0
-40 -495 509 0
-4 -377 598 0
-96 -674 717 0
-284 344 792 0
89 544 666 0
218 313 777 0
298 -430 646 0
4 367 574 0
538 -633 714 0
16 -356 -450 0
178 361 -483 0
58 -296 -751 0
410 -750 766 0
-256 461 -797 0
-18 632 -646 0
62 -528 -673 0
-9 77 -691 0
383 477 670 0
-194 664 747 0
-40 -115 546 0
267 720 -735 0
52 -625 -702 0
-31 -238 351 0
-263 -356 -785 0
-297 -443 478 0
262 -694 750 0
-132 -306 688 0
-246 571 -798 0
-57 184 411 0
-38 516 619 0
179 487 -528 0
-4 103 -266 0
-152 -569 -745 0
428 619 -695 0
-64 -187 -455 0
-191 -434 -794 0
551 -595 -670 0
-142 -255 541 0
45 -462 -665 0
-244 338 659 0
-330 -460 -672 0
-2 445 -509 0
106 258 -424 0
668 737 -774 0
-226 -287 565 0
-22 -490 -722 0
-40 54 410 0
21 106 -784 0
143 356 463 0
-85 -595 662 0
-139 289 -613 0
-23 -255 281 0
-63 179 663 0
232 -762 795 0
19 126 -339 0
100 379 586 0
59 -526 541 0
171 -682 693 0
-86 92 -514 0
-312 -401 591 0
110 311 -537 0
-170 639 -768 0
107 -615 658 0
223 310 -728 0
-474 521 620 0
-334 754 768 0
-12 -200 -351 0
193 -248 -461 0
-136 -155 -351 0
-103 188 -279 0
-107 562 -591 0
-121 169 -466 0
449 643 759 0
-61 -261 657 0
43 -629 -772 0
-119 -283 -563 0
-65 -399 -598 0
-300 721 770 0
-123 446 456 0
102 553 625 0
205 668 -725 0
191 -374 -659 0
121 220 702 0
-48 -99 -694 0
-432 -548 786 0
-42 -267 726 0
123 268 -727 0
228 358 632 0
-223 249 403 0
397 -663 -765 0
-270 671 -694 0
-1 -488 514 0
-4 -69 339 0
146 -284 494 0
633 685 -711 0
-433 447 -539 0
-235 -562 769 0
-368 536 -647 0
66 289 681 0
56 342 560 0
373 597 -726 0
347 435 617 0
-168 -410 -748 0
-95 -721 800 0
-317 -380 -519 0
43 250 -685 0
-80 255 616 0
-283 -583 589 0
-344 -371 -709 0
47 310 -369 0
-36 119 218 0
473 487 -663 0
-58 519 641 0
-434 -499 -520 0
265 328 -561 0
39 -202 -639 0
-132 152 -388 0
-58 -585 -729 0
178 540 569 0
122 127 -172 0
-282 -342 -375 0
221 326 525 0
-263 -282 302 0
378 499 -670 0
-399 551 758 0
-72 -195 618 0
-270 308 -658 0
-150 304 554 0
-35 424 -673 0
-203 -354 -781 0
364 -501 -683 0
-28 215 -695 0
-90 -468 -546 0
-274 503 780 0
473 543 643 0
-172 -306 -361 0
286 537 741 0
-78 562 -651 0
35 614 722 0
502 570 666 0
28 -536 -577 0
245 -252 741 0
174 -208 224 0
-432 547 -635 0
-9 91 568 0
251 463 -640 0
-273 552 627 0
-600 622 -756 0
-208 -359 520 0
-474 617 744 0
161 218 288 0
63 -461 653 0
-403 568 725 0
-3 -200 -318 0
-55 -89 -792 0
-13 161 -401 0
293 435 -460 0
178 456 -641 0
-374 -609 -665 0
-324 -522 -700 0
195 279 -563 0
106 -260 596 0
97 325 617 0
-40 -204 -584 0
65 606 671 0
256 297 739 0
518 -574 578 0
237 351 -383 0
-129 273 -422 0
248 322 393 0
280 309 628 0
-58 -133 -800 0
296 -356 480 0
-72 -365 -534 0
-418 -520 -733 0
-415 624 660 0
30 122 256 0
400 -619 640 0
163 -393 615 0
205 350 672 0
-95 -330 -453 0
6 -86 89 0
-113 373 570 0
34 237 -328 0
-240 -277 353 0
516 -586 -607 0
-179 528 -694 0
-113 -245 446 0
-153 204 677 0
-85 492 -793 0
145 -505 787 0
45 67 681 0
155 -157 -555 0
125 267 733 0
-44 173 -469 0
-103 129 -703 0
383 757 783 0
385 410 647 0
134 -370 -375 0
179 -229 -441 0
28 489 -739 0
234 289 -472 0
20 -560 651 0
91 -185 -199 0
-117 507 -736 0
-374 -409 -747 0
-582 646 -761 0
161 -740 765 0
129 -239 -578 0
96 708 -746 0
-162 221 -538 0
-370 431 -791 0
221 -226 769 0
199 325 -604 0
-115 -304 345 0
-257 614 -793 0
-29 561 767 0
-104 344 353 0
-160 -196 351 0
159 -347 -360 0
71 -118 633 0
17 459 723 0
-13 230 760 0
-84 173 499 0
-393 -497 -746 0
-84 363 -772 0
83 -268 -793 0
-153 482 573 0
62 71 184 0
221 -397 579 0
21 93 -204 0
-77 143 361 0
170 622 673 0
-18 -548 -769 0
-550 730 -774 0
59 -116 -249 0
41 -203 692 0
-12 -103 116 0
4 -101 790 0
-142 -671 784 0
103 -722 -785 0
10 -553 717 0
235 -351 439 0
491 -527 625 0
-181 518 -579 0
-460 -696 763 0
123 601 -796 0
380 -630 -688 0
114 -302 -750 0
-1 -343 -508 0
-135 -318 -328 0
-584 708 777 0
-18 -418 655 0
13 84 -151 0
395 780 784 0
-543 694 -720 0
132 455 -702 0
190 -254 -452 0
-80 -250 -308 0
-274 -309 -630 0
-10 249 -662 0
214 475 671 0
90 343 -736 0
30 203 -580 0
-97 370 -767 0
-106 351 -355 0
-109 525 -675 0
-306 -513 -783 0
-6 157 -781 0
25 -116 -776 0
-25 143 -518 0
-115 -439 -454 0
81 -401 -646 0
156 -278 780 0
77 -542 -698 0
161 -567 -570 0
-229 478 584 0
-28 -285 -520 0
157 310 732 0
363 -443 -748 0
266 317 469 0
44 -70 -170 0
-105 683 -747 0
