c Phase 3 random 3-SAT negative control
c seed=32014
c ratio=4.26
c variant=planted_sat
c expected=SATISFIABLE
p cnf 800 3408
-66 -110 -219 0
-54 -224 -704 0
74 -474 -774 0
-228 231 -704 0
177 224 583 0
-411 468 -488 0
-130 -406 -661 0
24 -184 -352 0
84 312 -396 0
133 247 634 0
-129 -490 689 0
-183 227 788 0
137 447 -620 0
271 644 -780 0
-78 166 -617 0
-50 137 497 0
-149 -289 -436 0
-131 410 657 0
208 -283 541 0
-574 -693 718 0
-138 -179 -409 0
80 94 797 0
-124 130 546 0
53 -380 529 0
6 136 443 0
-3 -47 -75 0
128 378 -433 0
71 726 787 0
-170 -355 706 0
159 464 619 0
427 -469 -559 0
608 634 -794 0
-379 450 -623 0
-17 -153 -738 0
10 -262 545 0
356 632 -703 0
-104 272 506 0
181 291 679 0
-4 -115 120 0
561 -593 653 0
208 -523 552 0
279 -584 -763 0
77 -183 -274 0
433 447 781 0
-64 -262 -306 0
-132 455 690 0
-450 -558 -662 0
376 504 -769 0
-78 704 710 0
187 287 -746 0
-453 523 -670 0
-29 307 -456 0
-61 -128 -569 0
181 -525 761 0
-373 542 -553 0
-238 241 -521 0
55 58 -592 0
-14 184 -679 0
-95 151 263 0
-34 288 -437 0
123 -194 380 0
18 -400 420 0
-272 352 -361 0
422 538 695 0
-107 729 742 0
453 571 616 0
209 217 -450 0
143 382 406 0
-164 -262 -514 0
-390 -516 -716 0
-59 425 -703 0
-143 154 -551 0
169 -363 -701 0
202 -340 568 0
-164 242 -569 0
-265 609 645 0
-231 -262 -720 0
20 55 -620 0
-34 309 663 0
-12 -14 169 0
-295 -479 641 0
147 273 -591 0
-432 679 792 0
309 490 523 0
-161 226 574 0
180 -341 -490 0
-174 -506 583 0
60 196 -442 0
157 -367 -392 0
155 161 -343 0
-23 -332 -347 0
-167 -193 597 0
-174 -192 -386 0
-213 373 -597 0
-199 -326 -349 0
-59 249 -436 0
18 274 -680 0
-376 660 784 0
264 541 -733 0
265 -322 423 0
220 -430 -493 0
228 461 -512 0
-366 -772 -794 0
-45 374 -425 0
-94 -174 796 0
21 -265 573 0
-69 73 434 0
-61 472 -658 0
-110 -418 -645 0
276 330 -762 0
-471 776 800 0
-542 -729 797 0
347 -632 685 0
-124 316 428 0
226 281 -434 0
35 -52 -474 0
167 257 401 0
-138 -366 402 0
395 640 670 0
-85 -131 -410 0
-273 -697 731 0
-377 -466 -693 0
273 692 761 0
-278 280 -783 0
-210 -398 -549 0
190 472 568 0
140 -207 -585 0
-140 521 764 0
160 307 -540 0
-29 -188 460 0
203 435 -616 0
338 -489 -733 0
-4 -51 -599 0
8 -24 265 0
69 533 606 0
296 396 -557 0
285 375 -786 0
9 58 630 0
288 -310 -547 0
73 666 -670 0
-254 -274 -498 0
-66 370 610 0
350 662 -734 0
24 -110 -702 0
-116 448 712 0
298 -385 619 0
-124 137 174 0
-319 445 693 0
26 -374 -554 0
-159 304 398 0
272 644 794 0
115 -301 -623 0
-183 -201 328 0
-141 -173 534 0
-91 -290 759 0
-72 -113 -428 0
133 480 750 0
-305 -533 -639 0
-314 348 -639 0
-215 -246 436 0
-210 -226 -247 0
-134 298 423 0
22 777 792 0
345 -570 752 0
-173 -521 -634 0
-284 406 538 0
58 -519 -617 0
-42 200 230 0
-72 321 351 0
-450 -554 -655 0
186 366 -598 0
-107 682 720 0
132 423 -531 0
-129 302 483 0
-442 532 -598 0
137 455 -598 0
-388 -535 682 0
201 -595 -615 0
578 -604 -634 0
13 49 -407 0
-268 339 348 0
-348 -448 -717 0
-26 -432 630 0
-66 549 -770 0
545 571 752 0
24 97 -639 0
-29 189 335 0
560 -592 607 0
-178 -229 781 0
39 142 798 0
345 513 -754 0
-391 696 787 0
228 573 601 0
452 -749 -782 0
37 203 236 0
-62 -119 162 0
-198 -380 -763 0
248 -260 -420 0
13 252 770 0
169 511 733 0
2 -53 268 0
127 -591 -711 0
247 305 -775 0
-439 453 -660 0
-19 -228 402 0
361 -631 710 0
-126 407 487 0
-262 354 -663 0
85 -630 729 0
230 407 -621 0
106 -611 638 0
59 -372 609 0
-28 250 -431 0
247 515 -738 0
-237 -372 728 0
-491 618 -700 0
-82 737 765 0
325 584 785 0
177 556 -610 0
58 344 599 0
-152 -384 -751 0
151 -198 755 0
-250 323 649 0
-111 300 -783 0
139 -455 -759 0
255 334 -495 0
-112 392 -706 0
122 716 -741 0
174 -377 652 0
-149 -456 -553 0
-44 -342 -646 0
-518 -521 522 0
-399 547 -600 0
-143 321 367 0
109 -145 799 0
-427 -560 -692 0
120 227 -688 0
-255 317 731 0
-471 -509 -514 0
-341 551 666 0
345 -346 769 0
184 -344 761 0
-115 -377 576 0
-185 -253 -301 0
-163 728 -750 0
-62 367 -794 0
3 243 -533 0
-112 -219 -357 0
-122 196 -503 0
5 -490 -735 0
-55 -249 -568 0
257 -449 -492 0
218 -416 463 0
-15 308 -604 0
-483 514 -797 0
-454 455 736 0
95 -544 679 0
379 -596 -680 0
137 217 655 0
244 611 755 0
-369 508 -662 0
192 -280 -677 0
-92 305 720 0
528 -600 740 0
381 -396 719 0
-307 540 665 0
254 407 -752 0
-392 455 -714 0
105 -472 -587 0
-183 689 -784 0
-145 361 -757 0
448 672 691 0
-219 -236 628 0
-36 252 775 0
166 -304 -413 0
129 179 -191 0
214 308 535 0
-211 -588 -678 0
240 -605 744 0
74 606 692 0
-352 -448 -615 0
152 331 -560 0
-10 462 -555 0
-35 -141 292 0
266 652 -657 0
72 -130 -569 0
191 392 -505 0
-247 -365 -500 0
-201 -225 -436 0
-217 223 -682 0
27 -427 520 0
201 -573 743 0
-32 -480 -592 0
234 716 785 0
-193 550 573 0
20 101 -664 0
192 214 -751 0
-50 171 293 0
-371 574 -737 0
104 440 -663 0
30 347 -418 0
214 -473 -482 0
-417 -453 -746 0
-97 295 442 0
1 302 -503 0
22 -264 544 0
441 -480 -595 0
234 599 -641 0
142 -317 -619 0
-208 365 780 0
76 -383 -418 0
66 117 -312 0
-212 389 -768 0
198 358 555 0
155 240 -353 0
-6 134 -612 0
202 307 704 0
-101 -264 599 0
-177 634 -663 0
-311 -468 -638 0
-403 -430 734 0
13 -199 -560 0
248 -670 -675 0
-791 795 -800 0
-63 211 -650 0
171 -566 -772 0
-77 174 -259 0
-211 -299 766 0
18 -593 -698 0
15 -469 591 0
-313 -469 597 0
-5 -39 254 0
123 -149 750 0
-387 602 -700 0
-60 -709 780 0
-339 563 -608 0
454 514 664 0
-106 304 -440 0
276 479 749 0
21 -251 706 0
207 218 365 0
-145 756 783 0
99 -301 579 0
-113 169 -440 0
-222 -247 -379 0
-318 -664 -780 0
-352 -537 651 0
-678 686 725 0
-372 508 -773 0
-237 550 666 0
9 499 -581 0
-61 -403 -465 0
-223 394 -510 0
202 -226 -331 0
-70 264 418 0
241 -558 -666 0
253 370 -618 0
-30 -78 468 0
65 -325 555 0
408 -447 -658 0
-7 222 767 0
-88 754 -760 0
20 -373 -728 0
-20 -508 -658 0
177 -718 -719 0
-273 322 -343 0
-415 -546 769 0
77 -475 777 0
54 339 -491 0
72 -332 -431 0
37 447 658 0
492 -528 -709 0
203 -383 -777 0
163 -336 -532 0
-1 317 717 0
103 169 445 0
-184 189 -513 0
464 531 -676 0
78 -171 373 0
-586 589 665 0
57 -484 741 0
-233 -432 602 0
-38 108 -572 0
-41 305 604 0
-231 -615 661 0
272 -358 589 0
-212 387 694 0
141 -343 -775 0
356 450 471 0
-8 -74 -508 0
-210 -625 782 0
-195 -454 552 0
501 511 711 0
-55 -414 445 0
-293 -379 407 0
52 730 798 0
88 391 -525 0
-117 274 -440 0
-320 610 700 0
-144 -458 -666 0
109 161 661 0
-303 475 -578 0
-29 -85 349 0
272 362 671 0
-313 400 -445 0
168 265 680 0
-25 125 521 0
-356 529 -565 0
-241 460 535 0
-15 -182 246 0
49 548 793 0
-93 -166 702 0
132 -179 578 0
2 606 -682 0
-277 685 744 0
-42 -493 -626 0
-152 377 434 0
-182 -226 501 0
309 -368 785 0
-436 -452 -638 0
-227 -438 -755 0
-92 315 785 0
-633 662 -786 0
181 -413 -467 0
-27 135 469 0
-17 -534 -551 0
195 536 554 0
-227 471 -506 0
-60 -71 -490 0
-28 -42 105 0
-25 101 -496 0
150 366 -398 0
439 -540 598 0
123 -499 -683 0
102 475 -559 0
324 -450 -745 0
88 397 -470 0
392 454 717 0
63 -360 642 0
-245 657 660 0
-461 511 711 0
194 722 739 0
297 -429 459 0
300 -461 465 0
-176 -396 -583 0
374 -541 -796 0
-11 503 631 0
219 -357 668 0
712 763 -777 0
-530 713 -791 0
209 -619 734 0
61 140 568 0
-144 -451 -611 0
-167 -616 771 0
261 -426 666 0
-47 315 -599 0
-202 -789 -793 0
262 271 -565 0
-151 -336 -679 0
-43 -198 258 0
-27 -451 468 0
-281 -333 -341 0
297 -482 604 0
-269 572 -729 0
48 -325 -800 0
-212 334 620 0
-206 -671 792 0
442 502 735 0
276 381 -464 0
-24 -95 253 0
27 36 -395 0
231 -648 772 0
491 531 -734 0
29 -491 738 0
-75 -115 -782 0
-633 -742 -798 0
-33 160 681 0
115 -327 -718 0
85 273 612 0
-9 -132 -436 0
-42 -514 693 0
-186 310 -567 0
-377 560 644 0
369 472 -758 0
235 -523 786 0
429 705 716 0
284 -339 -611 0
354 361 624 0
351 -359 -449 0
157 -653 799 0
127 -396 764 0
92 750 797 0
-486 -507 -517 0
394 636 -726 0
-41 -89 -92 0
129 239 630 0
-504 -526 -663 0
-120 342 -453 0
-156 397 -404 0
-144 -547 -620 0
-77 -230 -482 0
-106 -331 738 0
-29 -78 -772 0
60 -197 -592 0
15 -98 427 0
51 318 709 0
-77 486 -526 0
287 384 401 0
302 -750 768 0
225 512 559 0
-365 445 -776 0
207 -717 -755 0
-308 -610 678 0
87 -213 -737 0
-192 -532 649 0
586 605 -621 0
207 -372 387 0
-234 -487 503 0
95 -321 -716 0
-107 -181 295 0
-73 -162 300 0
-338 653 672 0
-114 -236 -363 0
-348 408 -463 0
92 427 605 0
-431 -614 740 0
-106 563 777 0
294 332 553 0
-2 484 -774 0
15 -281 -729 0
-132 183 -482 0
60 -487 -676 0
-302 590 591 0
317 -676 -694 0
59 -443 796 0
141 -334 -613 0
281 399 -555 0
-362 374 785 0
-149 471 -756 0
95 652 -797 0
-318 328 -438 0
-213 239 329 0
-382 -648 678 0
-114 617 -793 0
248 -525 627 0
-117 218 -337 0
-49 170 -303 0
132 168 391 0
-320 -406 -751 0
-83 -436 798 0
515 -642 -735 0
-392 605 -768 0
-110 376 -410 0
-173 -244 -253 0
403 -440 557 0
-134 -285 624 0
-326 -337 -410 0
-196 -361 -380 0
80 137 -546 0
-138 687 743 0
204 227 236 0
336 359 -594 0
77 -753 798 0
-146 311 -585 0
223 -313 731 0
-586 588 -702 0
237 -368 624 0
372 464 -619 0
26 84 -104 0
-38 -419 708 0
557 574 -799 0
-208 -333 740 0
-274 373 703 0
-311 445 -660 0
-345 485 492 0
29 353 647 0
43 -86 482 0
-127 -299 -567 0
-25 67 -773 0
7 183 -283 0
-268 364 -581 0
124 -383 439 0
307 -313 389 0
-213 710 -746 0
315 -317 -648 0
342 -561 762 0
-130 -435 -646 0
221 282 -766 0
383 494 -677 0
207 -437 -786 0
-177 -385 420 0
-95 374 -559 0
-328 417 435 0
32 44 447 0
-66 482 787 0
78 -130 -411 0
-13 360 704 0
-203 360 685 0
-171 -516 546 0
36 48 -424 0
-72 -393 -705 0
43 -347 -511 0
463 -537 786 0
98 139 598 0
-399 -418 610 0
-336 585 751 0
277 -684 -745 0
313 327 -783 0
547 625 -682 0
-459 589 776 0
42 353 542 0
-8 530 -584 0
-223 -396 453 0
189 -400 543 0
-114 282 548 0
456 523 714 0
-196 354 446 0
392 709 726 0
-163 -179 770 0
34 -55 755 0
8 306 783 0
350 723 740 0
-317 373 447 0
-254 -527 -633 0
37 400 454 0
198 -676 741 0
-165 -296 589 0
133 337 751 0
-542 618 685 0
390 544 -585 0
-111 -112 -507 0
334 -579 616 0
110 -398 662 0
-121 245 690 0
-22 -154 739 0
-20 -572 -744 0
278 -595 -783 0
-208 -229 356 0
550 554 730 0
161 -675 713 0
203 249 -407 0
34 218 631 0
-289 520 649 0
175 608 659 0
-52 145 -253 0
112 -191 565 0
317 -419 526 0
305 -354 755 0
-466 -668 -788 0
216 -345 -756 0
122 -444 572 0
-219 -625 696 0
-218 403 430 0
-641 659 766 0
-264 -558 705 0
-270 378 -492 0
-494 -498 707 0
-186 -246 481 0
38 81 -214 0
-36 -142 -227 0
411 -622 757 0
6 257 -451 0
-49 108 -626 0
-45 -583 -681 0
206 -508 794 0
-9 415 -596 0
158 -295 604 0
-519 671 797 0
409 -552 -553 0
-69 208 -327 0
436 -679 -759 0
-66 324 599 0
207 -443 -715 0
-298 326 -690 0
-117 334 -617 0
177 -226 -747 0
38 -136 -734 0
68 -175 -652 0
12 209 -366 0
30 144 -574 0
176 228 666 0
228 -425 616 0
33 -133 660 0
180 -264 559 0
226 607 -669 0
279 -503 -717 0
406 -526 528 0
65 279 -637 0
200 317 -779 0
-10 99 -750 0
-382 635 699 0
-260 360 -628 0
-700 703 -728 0
-509 -589 659 0
219 430 471 0
-73 282 418 0
545 594 698 0
-4 157 572 0
-126 -476 -496 0
-31 327 596 0
642 658 777 0
248 -284 -679 0
101 -465 733 0
-96 -512 554 0
-589 -707 718 0
-164 229 407 0
75 180 508 0
-167 -317 -467 0
270 529 644 0
120 -205 -576 0
-181 -312 465 0
229 268 733 0
-53 365 -389 0
246 545 -616 0
422 448 496 0
-30 277 -771 0
-142 730 -735 0
-29 364 393 0
293 688 773 0
82 -238 571 0
-346 -497 -767 0
-298 343 753 0
128 -218 783 0
-134 151 235 0
-289 347 -768 0
-69 -165 -166 0
73 -140 365 0
437 -570 670 0
313 521 -611 0
415 -527 -718 0
-238 -490 747 0
-190 -701 740 0
-60 -262 -338 0
442 492 666 0
-400 -515 -540 0
-43 370 -793 0
-161 326 410 0
133 -344 -482 0
-181 -304 353 0
-83 568 -748 0
30 222 -466 0
194 310 -316 0
-488 572 -605 0
-170 -612 665 0
231 416 593 0
-199 -600 -788 0
-209 -460 -714 0
-181 -449 688 0
-107 -348 633 0
-677 739 751 0
-20 48 -757 0
380 633 -749 0
192 307 569 0
-351 517 -654 0
-245 483 728 0
-428 454 699 0
402 729 777 0
-113 -430 650 0
-13 -212 654 0
308 -453 763 0
-55 309 -393 0
-56 128 728 0
-463 639 650 0
-436 450 671 0
308 -567 697 0
186 -270 -517 0
-18 97 754 0
199 650 759 0
-44 -290 583 0
57 59 -618 0
125 -595 679 0
-39 157 -795 0
-108 -199 703 0
111 -178 180 0
-123 136 383 0
-151 -224 286 0
139 -213 716 0
194 -256 -355 0
-205 -449 -722 0
42 207 779 0
223 -403 770 0
-306 -310 -421 0
43 -217 -229 0
75 285 453 0
222 -401 -429 0
363 497 565 0
-71 -476 -611 0
110 714 771 0
-313 474 729 0
133 260 -490 0
-151 289 -667 0
344 -546 702 0
-131 218 310 0
176 -230 287 0
5 185 -666 0
-346 -621 -782 0
-525 -574 -713 0
-115 206 -468 0
67 137 160 0
-298 387 -555 0
-3 -495 -682 0
-152 195 736 0
-90 -152 285 0
-496 -682 742 0
73 -165 -762 0
-252 -407 416 0
167 -626 -642 0
415 590 699 0
-78 -288 738 0
224 355 405 0
426 -604 768 0
-310 -556 -622 0
-128 296 -478 0
-572 587 589 0
-322 681 -687 0
162 -737 773 0
42 411 735 0
7 121 -704 0
-331 337 586 0
-38 -204 -682 0
308 -737 -742 0
8 -479 -664 0
-516 -685 -758 0
254 690 794 0
-125 -341 383 0
-98 292 402 0
-449 729 -775 0
268 753 799 0
-216 520 -611 0
215 -258 -540 0
159 583 764 0
321 396 -800 0
120 426 444 0
-587 -688 -731 0
-437 -560 719 0
-119 162 534 0
-78 -192 366 0
501 -577 661 0
445 536 583 0
32 677 -693 0
-138 141 -453 0
-29 242 -327 0
-269 -540 -649 0
513 674 -714 0
-13 558 703 0
45 -148 605 0
220 313 475 0
-103 -396 -474 0
330 -430 -467 0
22 -203 -798 0
-9 -110 487 0
39 256 -381 0
191 -310 520 0
-6 500 -758 0
-237 -304 408 0
126 -340 624 0
-75 -288 542 0
-161 564 620 0
-17 563 -653 0
424 644 -704 0
167 -554 555 0
99 -166 629 0
-61 312 381 0
-351 722 775 0
30 -176 220 0
-37 215 -440 0
-210 539 -748 0
-83 494 -714 0
-284 661 -689 0
-256 -470 -645 0
114 528 -700 0
405 482 535 0
496 -534 -698 0
-24 -551 -567 0
182 282 287 0
286 -475 580 0
467 551 645 0
260 310 519 0
-145 -225 411 0
-67 148 230 0
483 486 512 0
143 165 -534 0
-263 -295 682 0
-351 537 -757 0
137 524 535 0
-232 373 731 0
74 170 -776 0
-194 -413 -452 0
-201 -438 553 0
74 -108 296 0
-313 -340 593 0
367 -437 726 0
243 291 -781 0
129 393 -628 0
-21 489 787 0
-12 57 660 0
-364 488 523 0
285 -658 693 0
71 158 -357 0
-140 224 381 0
-403 -425 -545 0
-24 -101 748 0
9 -615 621 0
-99 203 666 0
4 159 735 0
171 609 -795 0
-121 177 -331 0
21 367 -486 0
-24 -96 -240 0
138 -595 718 0
165 -211 786 0
-234 -266 -730 0
218 427 -733 0
113 463 -765 0
-150 -463 761 0
-226 -439 -582 0
47 -64 -341 0
-161 -299 704 0
335 530 -798 0
-114 -246 -795 0
-30 -31 643 0
72 -330 -693 0
-89 183 503 0
-198 -207 354 0
257 280 -590 0
-372 425 -710 0
-233 -234 308 0
162 421 764 0
24 -297 -330 0
-58 170 796 0
-21 101 -371 0
100 294 -736 0
-371 -492 -503 0
-347 580 -673 0
97 -642 -682 0
279 -391 -644 0
-24 371 -765 0
283 685 -771 0
-101 -299 -742 0
423 -483 790 0
-81 -762 -784 0
203 -376 401 0
342 449 -498 0
-24 156 -453 0
-35 491 766 0
-135 -264 -416 0
-115 279 287 0
-199 -287 524 0
240 607 763 0
109 643 685 0
-298 -504 654 0
315 -348 -512 0
-212 -305 -460 0
-5 28 191 0
-204 -649 795 0
316 524 -618 0
-59 226 -729 0
-36 384 -388 0
76 -298 590 0
237 726 776 0
252 -392 -631 0
182 -369 769 0
169 -207 638 0
-321 -407 -732 0
331 -411 -697 0
-76 467 770 0
4 -425 556 0
-272 421 -435 0
-223 266 -380 0
300 642 753 0
40 -740 782 0
218 -448 -475 0
-195 519 -556 0
-223 -328 -338 0
-161 -432 -613 0
-193 -382 -609 0
74 202 -285 0
-20 192 -230 0
69 -362 747 0
-16 -110 -769 0
-79 259 552 0
-130 -402 -486 0
-30 273 -504 0
90 130 209 0
359 377 -707 0
254 527 654 0
-182 -413 512 0
-260 -527 -545 0
149 -327 542 0
-350 -520 -622 0
-126 -216 376 0
372 -437 608 0
67 -204 694 0
701 -719 733 0
-40 512 -746 0
105 128 355 0
193 389 410 0
55 -66 321 0
-337 404 706 0
241 -702 -765 0
249 576 -680 0
318 -541 -613 0
-63 157 234 0
-221 442 -620 0
-63 431 716 0
214 -318 796 0
402 -499 561 0
365 -438 -791 0
42 113 528 0
254 -426 685 0
-79 284 666 0
48 165 -210 0
-38 -112 -755 0
186 532 635 0
-63 -701 -782 0
-91 195 691 0
-174 -299 608 0
-220 222 -742 0
-173 405 -711 0
150 382 -758 0
530 -600 -760 0
157 547 -639 0
130 -182 -743 0
168 -549 685 0
-9 -413 460 0
374 508 511 0
478 595 661 0
261 486 -795 0
-300 396 657 0
-308 -519 753 0
-8 81 -536 0
140 250 730 0
-185 -187 -528 0
356 465 -690 0
-43 -114 -316 0
166 -336 686 0
85 -259 380 0
-111 260 -385 0
10 -351 -525 0
34 295 -584 0
-12 -278 574 0
73 -199 -757 0
58 137 -622 0
343 511 -590 0
-338 -441 -451 0
242 -616 624 0
112 332 606 0
-116 -359 671 0
67 460 -690 0
1 -294 768 0
91 371 -743 0
360 475 -479 0
-331 728 -760 0
-691 -711 -742 0
452 503 -597 0
1 752 -761 0
-49 306 -519 0
-333 465 718 0
8 39 180 0
-133 497 771 0
-126 231 529 0
286 -482 756 0
76 -173 -281 0
143 277 733 0
-94 -302 306 0
-194 -610 -670 0
-13 185 -194 0
-14 -666 -724 0
-138 -223 -308 0
-287 -335 350 0
-185 -433 647 0
87 -527 -711 0
-453 -654 785 0
-504 -559 -708 0
-1 11 -531 0
-231 476 -662 0
501 669 -753 0
284 343 -655 0
104 692 -751 0
-92 -229 -403 0
-85 413 625 0
128 228 -719 0
108 -319 744 0
18 -107 -377 0
114 408 518 0
151 -335 603 0
340 -542 -674 0
-43 -612 -645 0
-620 -674 730 0
264 -543 -637 0
220 313 -738 0
-330 -445 753 0
-131 637 727 0
-536 705 763 0
-26 78 132 0
-42 67 -201 0
-153 -671 757 0
357 386 443 0
36 -283 364 0
-292 338 599 0
-9 49 -463 0
-384 493 -781 0
42 -78 -250 0
10 214 643 0
258 398 -733 0
123 -296 790 0
79 -140 220 0
39 -87 590 0
230 -596 -750 0
97 -174 -746 0
280 534 -790 0
131 -583 -734 0
362 -461 682 0
-200 389 709 0
-267 -521 735 0
92 271 -424 0
-33 -352 -800 0
-192 -236 -417 0
254 334 647 0
-33 -591 629 0
-307 529 631 0
51 -264 -301 0
317 437 738 0
655 -717 771 0
-37 -315 -542 0
186 -291 441 0
-55 369 -725 0
29 38 146 0
-49 103 586 0
292 -559 -660 0
308 616 -702 0
-286 326 -684 0
-261 326 -433 0
-448 614 -711 0
-231 491 753 0
3 95 497 0
75 -355 757 0
-54 -350 491 0
224 -508 699 0
691 -754 758 0
-187 723 -746 0
446 496 -639 0
-160 501 695 0
-198 -466 -704 0
-316 -544 -762 0
-92 232 479 0
360 501 -766 0
-231 -761 777 0
-184 293 -417 0
27 128 -592 0
402 -622 -635 0
386 -518 -627 0
-234 -367 -661 0
-202 413 -483 0
288 -426 701 0
-84 287 368 0
-280 -326 522 0
-196 -286 -373 0
-146 -178 -446 0
-62 306 -604 0
305 396 -719 0
-317 -365 -741 0
56 425 693 0
-128 -136 -311 0
313 -416 598 0
-575 -712 -784 0
-405 -558 628 0
-61 509 518 0
80 -136 440 0
173 193 -444 0
527 -745 747 0
-172 636 -794 0
-119 -339 765 0
185 -189 548 0
8 -592 776 0
-57 617 768 0
-294 553 -592 0
284 -305 424 0
-285 591 -733 0
129 316 -442 0
386 397 769 0
309 688 772 0
461 491 679 0
-67 580 -774 0
306 -663 681 0
554 -691 800 0
553 -596 693 0
-744 764 -779 0
-210 -350 655 0
-441 -485 575 0
-371 -513 517 0
103 -343 -690 0
43 112 -666 0
-266 -501 532 0
218 -446 -740 0
-40 590 668 0
-541 -686 -709 0
21 135 654 0
110 215 489 0
-370 -520 -546 0
-105 689 740 0
123 -734 -739 0
-43 -288 499 0
363 -379 -617 0
-442 711 -749 0
-93 -230 -613 0
-224 -259 645 0
345 -432 -798 0
-13 -41 342 0
42 232 588 0
240 603 653 0
106 -184 702 0
104 128 -755 0
28 285 -452 0
85 734 -740 0
-52 348 386 0
81 229 423 0
-14 -181 742 0
-5 384 598 0
311 383 -503 0
29 404 528 0
273 346 -796 0
145 -309 -371 0
-428 463 -764 0
99 -483 -668 0
-135 -139 -482 0
-342 -506 -513 0
-18 239 397 0
-140 -303 374 0
108 -354 431 0
-308 545 -644 0
70 230 -673 0
108 -653 -697 0
-83 -413 -576 0
113 544 -582 0
255 555 721 0
325 339 -473 0
-182 229 -620 0
1 -508 -774 0
211 -279 -331 0
124 406 526 0
172 406 -459 0
-70 -435 -473 0
322 544 615 0
-164 -495 -612 0
-352 -697 -731 0
-111 -505 789 0
95 -440 -466 0
272 -347 -627 0
-57 69 483 0
-149 170 -339 0
-158 -378 -392 0
256 -319 600 0
-61 488 670 0
106 556 705 0
-381 -545 702 0
608 -742 761 0
-120 -309 342 0
234 -580 764 0
-103 378 -529 0
57 -367 457 0
-225 345 618 0
-210 309 597 0
144 338 -771 0
-377 -478 -618 0
-65 142 -568 0
-350 -602 -667 0
37 116 -269 0
139 374 -786 0
-166 361 -691 0
-192 368 625 0
-57 181 -656 0
236 -339 -761 0
-423 -583 -717 0
-14 -155 452 0
-256 -478 -670 0
82 385 -770 0
19 -647 721 0
-66 567 -784 0
-53 415 -572 0
-501 -553 -674 0
-100 338 741 0
141 250 541 0
-198 -606 -702 0
-586 628 -779 0
-203 433 -507 0
-151 -197 602 0
-240 -605 761 0
-106 -658 778 0
161 236 732 0
-318 428 709 0
-49 229 -259 0
-508 -693 738 0
-36 -59 709 0
596 621 638 0
-427 -590 -713 0
546 633 -746 0
-120 -558 800 0
-390 522 596 0
-170 -481 741 0
342 -425 -559 0
-138 329 -478 0
539 651 720 0
344 -349 -583 0
168 424 440 0
93 142 -339 0
187 -434 -442 0
-376 385 625 0
-108 -202 622 0
339 342 591 0
63 -288 -554 0
-229 -284 731 0
121 -226 -416 0
-294 -573 -758 0
-72 440 684 0
-152 252 561 0
-176 618 643 0
184 -457 510 0
105 112 311 0
142 -453 -557 0
68 533 654 0
126 206 420 0
-28 -300 708 0
-147 174 -360 0
236 -367 711 0
322 -543 -640 0
134 -327 -453 0
166 -387 633 0
132 700 -791 0
224 -363 -534 0
-60 -241 -687 0
-70 241 -447 0
21 738 744 0
-60 364 375 0
90 171 253 0
219 485 -598 0
-485 -623 629 0
-137 294 -582 0
172 464 -744 0
197 200 -257 0
70 -313 407 0
-147 554 733 0
-25 648 -684 0
159 -323 -501 0
198 -661 -706 0
69 272 -382 0
90 -265 -481 0
98 -521 -622 0
-385 -439 -578 0
175 199 541 0
-238 499 -630 0
-35 -350 706 0
27 262 -674 0
-150 336 427 0
17 -484 -729 0
-28 32 -731 0
-159 -162 -624 0
136 252 -659 0
-224 -414 -714 0
-282 -300 -309 0
150 -266 -540 0
303 -492 -667 0
147 -479 -655 0
109 -378 -490 0
274 -547 -762 0
388 392 -729 0
62 -128 -510 0
336 -378 -777 0
144 495 744 0
57 343 -473 0
-397 -705 -710 0
31 -205 -317 0
251 -458 571 0
145 -283 -546 0
43 99 242 0
-149 654 719 0
33 317 683 0
456 499 509 0
-70 621 669 0
-274 -310 573 0
616 661 775 0
-75 -165 614 0
364 770 798 0
-270 478 566 0
-15 -215 -398 0
174 461 705 0
-173 529 701 0
9 -438 779 0
107 -614 654 0
392 399 -759 0
47 -192 -300 0
-2 352 -716 0
-439 -626 773 0
-303 -410 -657 0
-270 358 688 0
227 537 -794 0
-79 523 -798 0
-158 -614 -800 0
251 478 -499 0
345 -647 648 0
210 285 -519 0
84 632 -680 0
216 -274 -742 0
107 448 -637 0
41 232 794 0
-158 -290 -590 0
172 -271 405 0
-385 -406 -624 0
-40 273 -774 0
-465 -499 -744 0
-616 -736 -742 0
312 -319 651 0
-337 460 641 0
-49 -394 576 0
-137 -545 670 0
-289 -372 425 0
73 -181 -790 0
-584 602 -636 0
-7 203 345 0
64 205 731 0
103 335 365 0
223 318 524 0
-224 314 -751 0
-328 507 547 0
17 -338 610 0
446 692 795 0
-127 -233 754 0
349 -482 777 0
-151 245 558 0
68 168 -500 0
60 283 724 0
-146 519 535 0
-124 -126 350 0
369 486 675 0
-48 -413 -753 0
-122 -256 -719 0
-208 -474 641 0
-332 575 789 0
158 -334 -566 0
-242 -261 443 0
-64 -634 -708 0
147 -235 489 0
-569 637 -720 0
69 -143 -508 0
-4 59 772 0
57 -401 -785 0
-16 -122 -382 0
159 513 -733 0
46 693 776 0
-416 499 -616 0
-146 -707 762 0
-242 -292 -452 0
-122 246 -427 0
307 646 761 0
-292 -300 -472 0
272 419 758 0
-385 -450 -785 0
121 245 -402 0
-6 -280 695 0
-39 269 381 0
-217 -261 710 0
-499 -688 -707 0
18 -144 -164 0
-17 667 -737 0
445 517 -769 0
231 -254 537 0
56 438 509 0
-80 -455 689 0
-242 -438 -668 0
358 -432 -644 0
216 -534 -652 0
-540 549 697 0
-46 177 -329 0
-301 435 766 0
636 -647 664 0
129 -208 726 0
245 280 663 0
-113 398 -637 0
88 499 738 0
-302 -409 496 0
-485 -593 604 0
-5 -237 629 0
-156 608 725 0
458 -620 640 0
-254 -360 -424 0
116 580 -712 0
49 352 -370 0
-197 272 -333 0
-206 -730 785 0
-85 102 514 0
35 377 -508 0
-35 -473 -560 0
-341 -485 683 0
57 704 -706 0
-178 -187 317 0
-230 253 -362 0
-395 -510 -722 0
83 371 595 0
-606 -716 749 0
375 -476 627 0
439 -491 714 0
-127 -332 686 0
-39 69 -342 0
-87 -422 -537 0
29 168 434 0
-359 -525 -605 0
362 -640 785 0
-708 762 -773 0
28 277 746 0
-153 -666 753 0
-154 485 -642 0
-271 685 749 0
681 -737 -771 0
60 -158 -494 0
703 725 -766 0
-55 -265 -690 0
47 267 -707 0
284 -509 513 0
36 367 733 0
-351 602 -627 0
-69 -241 437 0
46 67 438 0
8 -526 -604 0
-43 -741 -769 0
229 -471 751 0
-142 490 -764 0
-124 -713 751 0
-288 -393 638 0
-14 -336 -605 0
-37 245 -623 0
15 502 636 0
-77 -193 -203 0
-46 349 -756 0
-120 500 656 0
140 -463 -487 0
-25 155 636 0
-473 -556 789 0
6 648 -736 0
56 616 639 0
21 -252 -338 0
278 545 -583 0
150 266 -623 0
73 -124 469 0
423 712 -783 0
-5 14 -510 0
-134 675 775 0
-63 -218 401 0
76 220 -314 0
-345 -668 757 0
367 -573 -745 0
-112 115 346 0
-2 128 -310 0
403 -418 -793 0
-21 -726 757 0
-194 269 -583 0
118 354 447 0
175 377 655 0
122 -247 493 0
308 449 -609 0
7 117 633 0
79 -80 -101 0
218 310 775 0
14 -25 763 0
487 568 -756 0
8 243 679 0
84 342 -417 0
71 503 748 0
30 168 569 0
-496 544 776 0
397 514 639 0
196 -262 -376 0
118 121 -534 0
575 -591 620 0
-219 381 -590 0
-158 174 -373 0
-38 58 362 0
-42 726 -796 0
82 301 -611 0
158 632 -716 0
-153 170 226 0
71 -501 -798 0
-43 -695 730 0
-124 148 352 0
-7 145 -277 0
-138 184 309 0
88 -472 611 0
-51 -545 -568 0
373 -436 -527 0
135 212 440 0
-142 -251 385 0
-29 148 -422 0
108 160 -761 0
-121 -315 383 0
22 172 -460 0
-28 218 -547 0
-83 537 608 0
-86 -200 -345 0
-60 -394 610 0
-158 -169 380 0
-166 -255 600 0
85 321 683 0
-105 -426 510 0
154 -311 342 0
-23 265 -528 0
-82 -86 181 0
118 345 788 0
-307 -323 -470 0
468 -511 538 0
-302 458 530 0
37 -101 -690 0
-268 481 -498 0
227 299 -651 0
208 240 768 0
439 608 -707 0
-474 526 -583 0
-340 -426 -575 0
118 -172 -574 0
-63 525 669 0
-53 -129 -522 0
26 125 412 0
267 376 494 0
68 420 747 0
-335 476 -762 0
-169 -197 -317 0
283 299 750 0
-278 426 785 0
-286 720 769 0
-225 -451 496 0
-76 -325 -666 0
-5 134 621 0
-255 -538 -651 0
-183 268 -646 0
-303 -473 -664 0
-304 -340 -396 0
-123 -269 775 0
-207 -421 580 0
9 195 -298 0
288 -364 -746 0
-16 65 751 0
-365 -410 -458 0
-580 599 761 0
406 509 -610 0
172 -644 674 0
-368 384 -514 0
-74 -665 775 0
-364 371 -417 0
23 -171 -787 0
-35 -363 409 0
-39 450 -720 0
32 -313 608 0
-566 -621 -754 0
-37 127 538 0
336 -592 -684 0
209 399 -480 0
99 115 415 0
139 -630 715 0
134 187 510 0
-5 -318 -586 0
151 166 605 0
109 -243 372 0
247 759 -762 0
422 437 -486 0
41 185 284 0
-61 -677 -702 0
11 -610 751 0
309 -324 -502 0
-11 -316 -715 0
-53 565 642 0
261 -268 468 0
159 -534 667 0
159 -365 -653 0
-397 -652 655 0
-64 -645 694 0
-55 -255 568 0
373 661 -675 0
12 -60 173 0
-27 -349 504 0
7 205 -715 0
489 490 564 0
-404 -443 543 0
151 213 -374 0
-474 631 -668 0
38 -64 241 0
-79 -113 -592 0
-87 242 -532 0
86 -677 761 0
-440 -626 -702 0
-145 -231 -493 0
-16 74 -82 0
48 -130 -434 0
-434 -454 465 0
312 505 768 0
-56 353 -463 0
-50 -52 -658 0
-218 -470 -595 0
230 518 725 0
-107 370 785 0
-46 301 470 0
-166 485 510 0
-27 125 188 0
138 -611 -784 0
-525 601 -687 0
-15 267 335 0
147 -220 -410 0
-250 544 692 0
-49 209 -400 0
-605 -655 -780 0
-102 -282 518 0
417 718 -756 0
-80 -212 -449 0
223 -452 687 0
-31 569 577 0
91 -269 480 0
-517 -752 -775 0
137 696 739 0
-133 399 770 0
103 -141 390 0
-708 -755 -795 0
-332 403 586 0
-9 -480 788 0
-53 -85 -639 0
338 -595 797 0
-452 613 725 0
-50 86 353 0
-26 357 -541 0
514 688 -775 0
164 -303 345 0
-444 491 612 0
-396 505 -756 0
599 708 754 0
-30 -460 -475 0
-339 -494 -665 0
-198 219 -315 0
-306 -526 -637 0
-329 460 614 0
-8 274 -798 0
124 181 547 0
-208 480 -595 0
226 383 -792 0
-185 -554 -656 0
401 -468 -505 0
157 -326 441 0
207 263 -317 0
426 719 778 0
26 -156 424 0
-503 607 -661 0
58 -76 459 0
-397 -443 452 0
454 567 -607 0
-489 -593 611 0
-48 -473 -692 0
-30 -200 -514 0
112 179 799 0
344 396 509 0
65 138 -338 0
431 -614 -704 0
-182 215 760 0
30 277 675 0
-64 -92 105 0
-197 -204 -778 0
118 243 696 0
-154 -362 725 0
185 -407 662 0
-96 415 480 0
478 -714 734 0
128 547 -718 0
-438 -543 641 0
-142 -160 -526 0
-43 -57 -551 0
-164 -406 -714 0
190 558 -603 0
-145 600 -669 0
-442 521 595 0
-67 328 -660 0
223 443 -626 0
-363 547 734 0
421 480 770 0
-295 -459 755 0
89 -267 610 0
285 476 544 0
487 568 623 0
-196 296 -482 0
277 280 655 0
-98 624 -753 0
249 -307 -491 0
-51 -75 -788 0
32 -142 242 0
221 -440 532 0
-355 -373 583 0
-140 394 -445 0
-293 -626 700 0
-10 131 572 0
515 -614 787 0
192 247 427 0
-282 418 -442 0
-530 733 762 0
260 -357 -362 0
-182 336 491 0
106 363 436 0
-248 267 455 0
222 532 654 0
539 -563 -607 0
509 637 -799 0
-153 647 664 0
-118 -257 -466 0
-6 -247 -281 0
-26 -101 621 0
-86 372 711 0
43 -448 785 0
-30 275 340 0
-232 -317 -691 0
169 646 -647 0
-127 320 -753 0
150 -635 -671 0
-208 -214 -587 0
223 -610 629 0
229 709 715 0
51 -576 689 0
202 -531 -675 0
286 -340 432 0
-28 -377 -596 0
223 287 645 0
-149 -290 -531 0
31 685 770 0
231 322 604 0
-245 -498 -521 0
-151 495 -589 0
147 607 732 0
298 361 -594 0
74 353 464 0
680 711 -746 0
-159 573 706 0
1 -353 639 0
368 504 -588 0
452 -726 743 0
31 -264 430 0
395 -498 -726 0
-370 -497 -795 0
176 317 -349 0
-419 461 645 0
-545 666 703 0
263 348 540 0
124 -157 -217 0
-236 283 -512 0
33 214 -587 0
-53 99 655 0
-265 -522 -774 0
319 556 636 0
512 744 791 0
59 -60 480 0
406 463 599 0
335 468 703 0
197 -248 579 0
-32 114 621 0
106 254 -624 0
292 -435 -669 0
416 -507 793 0
13 -258 -550 0
172 174 -709 0
-298 -327 557 0
-128 239 469 0
118 -233 -599 0
83 206 445 0
135 -189 -543 0
224 -641 776 0
130 -385 -719 0
-213 -423 756 0
-166 -181 -209 0
332 -514 536 0
-140 169 -723 0
-208 251 -377 0
-58 191 -562 0
23 365 577 0
24 350 -503 0
425 -450 457 0
185 243 759 0
-5 -616 -684 0
-371 380 687 0
-172 -345 -728 0
-237 -242 -320 0
152 -579 759 0
26 94 205 0
-46 -749 -765 0
-419 -425 -721 0
-26 -297 -798 0
335 346 -425 0
-4 202 -551 0
-484 -499 685 0
4 -53 -405 0
-313 -325 -751 0
203 -438 472 0
66 -466 787 0
723 -756 766 0
16 -466 597 0
91 -233 467 0
-44 257 665 0
-49 279 547 0
188 247 506 0
-21 41 255 0
585 675 -726 0
142 -677 754 0
-104 431 -575 0
-681 -692 -745 0
-195 -403 -717 0
228 -481 518 0
34 -336 711 0
-146 517 791 0
-2 -216 259 0
103 -170 681 0
-251 -429 -612 0
-403 -503 698 0
350 584 800 0
89 153 -254 0
-428 -573 -736 0
61 251 -643 0
134 -194 529 0
-188 -418 -676 0
-182 -440 -740 0
286 -583 -622 0
-101 -359 530 0
-178 -694 -737 0
-174 339 -615 0
-53 -349 -372 0
-113 213 -303 0
-437 -510 683 0
183 -473 739 0
473 533 -542 0
283 -537 -624 0
-231 399 486 0
385 -714 -750 0
-355 -373 741 0
-139 262 -318 0
254 -299 -306 0
152 223 467 0
-113 322 -711 0
-22 47 -154 0
-227 -385 -478 0
-57 -307 448 0
202 -339 -531 0
77 206 486 0
364 672 800 0
-159 -170 -285 0
-578 -649 768 0
-261 273 358 0
39 267 441 0
119 -248 391 0
-315 428 -444 0
321 499 722 0
73 -478 -678 0
-16 303 609 0
174 213 -474 0
218 392 -790 0
-157 -351 -373 0
-270 425 618 0
639 -678 -772 0
361 -733 -745 0
-222 -478 667 0
53 335 -391 0
211 631 -747 0
-70 -153 -203 0
-419 -446 576 0
239 -392 622 0
39 -40 -97 0
-318 -548 -636 0
192 -573 761 0
-165 -261 708 0
-24 549 -788 0
-103 -229 293 0
-40 287 -433 0
-31 -130 -736 0
160 234 674 0
176 -211 721 0
-226 -500 -552 0
433 -447 -454 0
-199 218 -387 0
-47 467 683 0
559 -630 -743 0
-223 489 624 0
3 123 -772 0
66 413 782 0
119 451 796 0
-232 237 749 0
151 -266 340 0
-184 449 697 0
-89 216 607 0
197 -526 -612 0
-109 -290 -586 0
-2 -8 -751 0
-130 196 793 0
59 99 -571 0
337 468 -687 0
179 -292 -747 0
-487 -629 704 0
-212 -268 -410 0
-146 -175 -659 0
99 392 687 0
128 -171 -675 0
-52 -274 694 0
43 111 310 0
76 93 -319 0
-151 -439 797 0
323 432 -481 0
577 738 767 0
-184 739 752 0
-148 214 273 0
-208 596 613 0
-254 -321 -659 0
170 342 -756 0
92 260 -715 0
-89 -181 -366 0
5 -22 -90 0
-456 599 -669 0
529 554 -633 0
16 79 -736 0
206 -408 418 0
-317 -526 -663 0
-163 -378 -428 0
-32 -519 -550 0
-309 -402 693 0
-463 -594 668 0
149 -291 -336 0
-317 466 -551 0
-515 683 -796 0
-459 -641 721 0
410 423 -517 0
1 -453 613 0
101 346 -620 0
-188 238 -263 0
114 -421 718 0
-247 -523 -754 0
-381 -645 775 0
-101 732 -748 0
-207 -649 781 0
37 115 -176 0
274 -293 508 0
-184 348 680 0
-283 340 -522 0
73 259 598 0
38 -88 -429 0
56 -95 -496 0
-48 476 524 0
-399 -611 -689 0
379 -487 -584 0
262 -293 -602 0
232 658 785 0
265 459 717 0
241 -426 -571 0
-223 -338 403 0
-73 -380 685 0
-558 -631 688 0
-78 238 -487 0
280 -355 -455 0
46 -156 223 0
386 441 638 0
329 -522 675 0
486 -694 701 0
-169 -182 -493 0
316 -378 796 0
-178 -237 639 0
223 -502 738 0
121 594 796 0
341 678 795 0
-232 345 -714 0
-219 -242 -321 0
-141 392 712 0
405 691 757 0
-221 -401 780 0
123 140 -235 0
-343 449 672 0
91 186 -258 0
441 -632 -768 0
237 -374 767 0
-313 644 -774 0
523 558 -794 0
85 -286 -335 0
30 43 528 0
-83 134 656 0
187 -523 545 0
-174 644 -685 0
-57 596 -752 0
-140 572 -574 0
-117 -357 -416 0
449 -489 -568 0
14 50 -152 0
42 -177 -687 0
275 -555 616 0
-51 493 754 0
-648 -653 750 0
223 455 -509 0
48 -502 -658 0
-2 487 705 0
74 189 729 0
-274 -492 719 0
115 -525 566 0
2 -562 -619 0
9 -39 737 0
699 706 -775 0
405 475 590 0
148 -197 -736 0
-46 -193 702 0
367 -372 784 0
314 -603 789 0
-316 -473 530 0
97 274 -704 0
394 -445 495 0
-94 -331 757 0
311 -527 -558 0
94 100 174 0
294 -411 574 0
-119 -294 452 0
-271 -395 -544 0
-606 -747 -766 0
45 116 274 0
150 -582 741 0
161 192 -554 0
106 339 435 0
-166 -194 -720 0
-244 -786 798 0
80 -89 166 0
-46 539 -746 0
-31 52 -147 0
193 -212 709 0
-12 -331 -664 0
-451 571 760 0
-264 308 -355 0
544 548 -731 0
77 -254 -738 0
-32 -37 -379 0
-68 473 710 0
-54 589 -603 0
116 433 668 0
-244 -639 672 0
-71 -284 -638 0
279 -287 -369 0
-29 106 -760 0
8 33 -267 0
61 109 688 0
-204 -675 -790 0
163 451 -593 0
262 329 760 0
-95 298 384 0
-410 751 -799 0
-371 -465 523 0
144 439 -732 0
-20 81 -244 0
130 345 -666 0
-95 236 367 0
-604 -695 710 0
-143 -151 -572 0
142 -628 791 0
100 150 -290 0
257 309 -385 0
-6 -307 -341 0
25 -406 -530 0
-260 567 -711 0
-1 -16 689 0
100 235 -380 0
127 189 456 0
20 -538 705 0
289 529 577 0
-12 203 -695 0
66 346 -727 0
-324 -516 -569 0
190 423 -727 0
222 668 748 0
-213 -255 -316 0
438 508 580 0
-46 699 -745 0
-21 346 -360 0
155 311 -331 0
-364 669 792 0
-214 -639 -784 0
109 -568 -635 0
-188 -296 -747 0
-207 -388 -634 0
-521 547 -578 0
-307 310 390 0
-263 -480 -594 0
-385 -416 733 0
-50 -269 348 0
-580 -715 749 0
-56 273 -393 0
-54 -642 -707 0
-286 -509 -702 0
-45 -192 450 0
551 558 771 0
335 373 -424 0
408 -612 653 0
-157 -487 690 0
-308 -390 659 0
-127 330 382 0
81 -437 -683 0
326 463 516 0
-66 -363 674 0
-177 -315 471 0
-64 193 385 0
-463 -670 -693 0
-226 -650 -719 0
-231 -285 314 0
43 -261 -647 0
-16 596 -619 0
49 201 235 0
-437 507 -579 0
53 376 533 0
69 -538 570 0
139 436 565 0
-382 448 484 0
18 -226 -300 0
-295 -450 721 0
389 -510 797 0
294 460 469 0
-233 282 -541 0
-377 386 784 0
105 338 509 0
147 419 -527 0
186 640 -695 0
80 -409 769 0
96 -257 -395 0
99 -515 597 0
148 -338 451 0
21 -598 616 0
19 617 -722 0
-281 522 590 0
-153 497 541 0
-10 557 561 0
94 166 451 0
-17 -90 340 0
-404 -481 486 0
-81 380 791 0
121 473 550 0
-210 658 -760 0
68 303 -309 0
-158 325 749 0
124 -163 569 0
-3 -294 356 0
377 468 569 0
-106 426 -701 0
-49 415 -745 0
48 214 -474 0
-31 267 613 0
386 -573 -722 0
-138 -308 536 0
-172 454 -487 0
134 -407 494 0
-73 -286 -759 0
-25 -526 -784 0
512 552 -795 0
425 -513 643 0
7 272 -634 0
42 94 485 0
174 -458 -629 0
-69 507 620 0
-395 -663 792 0
-316 -511 -684 0
-111 -258 -292 0
-344 -525 591 0
-425 607 641 0
292 387 774 0
8 -14 -560 0
33 -270 -452 0
-369 -634 669 0
-147 -164 527 0
115 268 706 0
467 -743 775 0
-664 -778 -782 0
144 281 -488 0
145 176 -318 0
-511 657 -697 0
-69 -234 -461 0
1 222 -668 0
-336 624 -654 0
41 -64 -121 0
-202 643 701 0
558 -572 -678 0
-474 555 596 0
-72 -212 -386 0
-77 256 -552 0
281 542 746 0
7 -392 -414 0
-226 340 -367 0
-323 -417 624 0
187 -193 -198 0
526 -616 696 0
-84 535 540 0
97 -188 218 0
-409 -780 -792 0
514 533 738 0
-501 639 -718 0
-32 276 -766 0
56 -111 232 0
-600 757 775 0
304 -453 515 0
70 429 678 0
-34 173 497 0
-288 -351 -788 0
72 443 542 0
117 -408 756 0
-250 -379 602 0
518 544 -569 0
51 157 -778 0
196 -755 -783 0
-49 512 -614 0
413 496 655 0
-102 -688 -710 0
-127 283 654 0
22 -79 -444 0
30 107 -260 0
159 283 -492 0
-377 392 639 0
-201 512 -633 0
192 203 -794 0
-457 -473 655 0
106 -221 -478 0
6 387 -484 0
-364 475 619 0
-165 -181 -302 0
-158 -377 -655 0
-27 -412 685 0
-175 -189 665 0
248 -487 544 0
134 390 -668 0
258 -453 788 0
-158 406 -530 0
-296 336 769 0
312 494 720 0
-216 -228 408 0
-416 495 748 0
-181 268 -409 0
125 277 -768 0
267 335 -424 0
271 -369 578 0
310 412 413 0
-279 480 715 0
4 72 621 0
568 -618 -657 0
-460 639 649 0
-78 471 -641 0
-447 -679 707 0
490 545 620 0
-36 117 260 0
-85 139 194 0
-201 -214 -713 0
119 -509 -785 0
22 354 -594 0
-290 -326 460 0
-46 -557 639 0
-352 -355 683 0
-10 -363 471 0
95 159 -415 0
157 241 304 0
31 -341 651 0
77 121 412 0
217 -444 -546 0
392 533 582 0
-131 -165 -507 0
181 379 757 0
208 566 627 0
-190 556 -565 0
-213 238 -579 0
-31 180 -225 0
261 642 784 0
93 255 275 0
-77 -389 539 0
-108 315 -328 0
311 604 761 0
-16 -136 -153 0
161 386 -447 0
-239 -454 608 0
344 572 -613 0
-217 -360 517 0
-167 358 584 0
-237 359 682 0
223 668 735 0
-73 157 164 0
27 -68 -472 0
-342 692 -782 0
109 501 662 0
118 489 -735 0
-81 426 704 0
224 -451 -501 0
40 405 425 0
10 20 -436 0
-283 -494 793 0
-32 -609 708 0
202 -221 -340 0
-3 -83 480 0
4 94 652 0
79 -502 614 0
207 -447 -451 0
394 588 -671 0
-254 -625 -764 0
38 -660 711 0
-64 159 503 0
-23 -248 584 0
-24 98 -770 0
78 375 423 0
254 -467 707 0
156 224 -443 0
33 549 -760 0
196 -641 712 0
399 488 795 0
132 246 -411 0
-98 -104 299 0
202 301 427 0
233 439 665 0
53 -372 -504 0
-117 -283 -306 0
1 511 -588 0
94 -125 -344 0
-444 616 789 0
301 -633 -702 0
-62 143 333 0
-368 549 667 0
85 -709 734 0
-151 555 -560 0
13 30 -360 0
95 504 519 0
-31 -413 432 0
251 384 493 0
80 -345 -615 0
-43 -108 -797 0
-329 -559 -698 0
-488 -618 -708 0
124 211 430 0
348 373 -542 0
49 -124 563 0
44 180 227 0
-348 -475 724 0
-27 -518 794 0
-63 -678 789 0
-25 522 698 0
247 543 766 0
-317 -451 540 0
-16 -164 719 0
162 -260 615 0
460 620 -713 0
-210 -352 525 0
507 -620 -710 0
-145 -166 -201 0
214 -495 -788 0
-541 688 753 0
355 -390 521 0
-41 190 -530 0
-184 -586 -795 0
-400 -603 -724 0
13 340 347 0
230 -471 -613 0
172 -254 -632 0
600 733 -736 0
233 484 536 0
-284 -327 -349 0
109 299 507 0
-539 639 -646 0
486 571 -642 0
-606 -741 800 0
275 404 -543 0
389 -530 -735 0
239 -329 -558 0
474 -487 635 0
-223 274 528 0
412 -627 669 0
-236 -413 -725 0
-50 -512 -757 0
302 709 -760 0
-402 414 486 0
42 171 -568 0
-150 -235 -261 0
-85 107 345 0
-73 -270 -598 0
247 261 -403 0
281 -409 708 0
276 -471 622 0
369 -471 500 0
-89 -495 -592 0
-168 254 310 0
-266 -388 499 0
-159 517 652 0
83 319 -446 0
264 -421 628 0
-106 306 -494 0
-33 39 458 0
-67 -77 -613 0
-275 349 681 0
-502 776 800 0
-353 367 605 0
376 471 613 0
-80 105 -588 0
-148 -315 -600 0
-5 91 334 0
307 321 479 0
320 694 -761 0
411 528 -564 0
56 -395 668 0
-291 -426 -686 0
67 -72 414 0
-137 406 545 0
-203 -284 618 0
-103 -222 -620 0
-374 612 -648 0
128 430 -520 0
73 -436 -565 0
287 -446 -719 0
-95 569 -768 0
-29 134 -671 0
-147 509 -757 0
166 -360 734 0
-184 -288 338 0
-60 -327 481 0
-166 449 -565 0
-51 469 -736 0
376 -386 -612 0
308 -572 589 0
474 -510 772 0
1 -420 -648 0
-622 683 780 0
-293 658 -700 0
-60 410 437 0
-287 -527 -745 0
114 -178 506 0
41 529 641 0
-89 741 794 0
216 607 682 0
3 -303 -548 0
597 -715 770 0
166 453 -463 0
-29 244 790 0
-171 -289 -363 0
-151 -694 750 0
-51 -554 757 0
-15 451 -720 0
134 366 769 0
-172 479 497 0
-455 468 -675 0
113 -455 -732 0
259 668 -740 0
-149 -160 246 0
154 471 669 0
9 206 -743 0
-8 -475 712 0
-37 -111 219 0
218 -635 -768 0
-362 -445 -578 0
403 -593 717 0
111 679 748 0
256 543 -573 0
289 -370 -633 0
-109 -245 406 0
-155 186 -640 0
142 224 -536 0
-120 -549 571 0
341 707 -787 0
114 -449 624 0
-232 -272 538 0
29 83 415 0
-162 -349 650 0
34 192 -760 0
98 199 370 0
-66 -97 -641 0
407 -611 673 0
-379 412 421 0
308 642 -741 0
-423 -457 775 0
149 385 649 0
84 105 -400 0
-78 -115 -567 0
-3 -15 -121 0
122 420 753 0
384 -435 -726 0
-170 -197 -478 0
-94 387 498 0
72 -130 524 0
-159 214 692 0
394 -577 703 0
-90 766 -777 0
-339 -353 409 0
-289 -722 772 0
415 632 -665 0
-212 414 671 0
-2 52 127 0
39 -42 342 0
-410 -433 771 0
-519 -728 772 0
63 586 -593 0
404 506 735 0
250 -332 401 0
270 535 755 0
94 -379 565 0
-75 509 -565 0
-381 388 730 0
416 -505 -673 0
151 321 449 0
186 276 -437 0
-69 -231 545 0
-306 464 536 0
-355 423 595 0
-3 -28 311 0
97 -105 755 0
49 -364 794 0
-94 -119 281 0
206 -327 700 0
58 -299 474 0
-563 -571 724 0
-47 -137 -404 0
-275 732 800 0
-260 684 704 0
117 -572 -779 0
-46 178 -437 0
-318 421 575 0
46 -108 548 0
137 -341 -351 0
-23 -97 -784 0
-178 -445 -564 0
111 224 -532 0
-223 -585 679 0
25 427 525 0
273 -456 603 0
254 -484 -654 0
344 496 782 0
-100 450 -457 0
-213 223 -456 0
-16 -548 -728 0
-417 756 -795 0
-11 -184 -672 0
-75 310 -439 0
-34 -482 -557 0
137 -175 616 0
26 -249 -273 0
252 -539 -676 0
286 509 797 0
-137 -470 578 0
-166 594 -785 0
-288 -634 727 0
404 -434 -782 0
109 429 -518 0
-45 215 599 0
16 -152 -699 0
286 -287 -684 0
-538 -598 -726 0
-149 -234 526 0
746 -788 -790 0
96 -241 -776 0
197 -682 749 0
187 -288 607 0
-86 335 718 0
-241 710 738 0
44 214 502 0
-16 -730 732 0
-156 697 712 0
-348 490 528 0
-165 428 -794 0
-529 -631 798 0
-175 -221 -792 0
327 430 480 0
-296 -482 -794 0
454 -589 677 0
-325 331 430 0
-114 323 713 0
-611 -662 -709 0
34 -141 -186 0
179 236 -742 0
555 674 -683 0
231 306 535 0
156 203 -413 0
440 -630 -730 0
220 -507 -544 0
162 777 -782 0
107 345 -671 0
-529 -670 -722 0
225 -319 717 0
309 -398 603 0
-411 586 760 0
-52 85 -221 0
-206 -297 751 0
-307 647 770 0
-83 -347 -682 0
-158 218 798 0
-52 -149 -619 0
280 -420 631 0
-615 748 -758 0
-94 -264 527 0
536 -725 753 0
-544 -551 -774 0
309 364 800 0
337 -567 -609 0
-247 -352 462 0
-10 523 738 0
-188 219 -372 0
-162 224 -642 0
110 508 543 0
-15 -68 -738 0
-268 444 -665 0
-143 -221 407 0
32 -480 -592 0
237 -389 686 0
103 -682 789 0
-43 153 626 0
-78 -364 -507 0
-225 -263 600 0
-126 -520 710 0
-251 452 557 0
-246 646 652 0
44 -57 -106 0
25 -476 -584 0
-87 -481 565 0
215 264 -688 0
11 -399 -590 0
45 140 -490 0
16 -618 -749 0
305 311 392 0
-103 -273 -496 0
-352 406 776 0
-39 603 -637 0
397 -581 734 0
-140 364 -433 0
-154 -296 757 0
-437 -619 684 0
129 -408 -702 0
-552 -696 -762 0
302 -455 -696 0
17 281 -798 0
195 262 -637 0
59 181 302 0
-106 246 -476 0
345 -394 -547 0
36 48 221 0
709 -728 -733 0
-297 673 677 0
173 -324 492 0
172 -329 -462 0
-34 407 730 0
-170 545 761 0
330 -357 -695 0
36 -66 624 0
-394 -430 -676 0
189 203 -236 0
138 597 -747 0
-109 -414 417 0
-114 -455 669 0
496 539 703 0
147 -158 -638 0
79 -253 -574 0
-486 -569 -690 0
-393 -511 788 0
-125 -489 679 0
245 -418 476 0
111 -223 -659 0
-25 491 -569 0
538 673 -710 0
149 -358 699 0
-133 -280 -530 0
590 652 -676 0
-214 -685 -698 0
-574 703 -710 0
-271 479 -772 0
-211 215 271 0
194 223 335 0
72 -92 -283 0
130 666 755 0
208 -542 558 0
45 -142 -635 0
-221 -287 374 0
-249 -575 770 0
42 359 -362 0
408 -414 -584 0
88 424 -629 0
188 492 702 0
232 283 317 0
58 541 -632 0
-748 753 765 0
30 356 -393 0
31 108 -675 0
-194 226 389 0
-614 -732 734 0
-107 202 -423 0
76 293 483 0
-437 -456 764 0
135 304 709 0
118 -677 736 0
-40 -412 535 0
-272 382 711 0
173 -302 -471 0
-67 -105 -443 0
-103 256 303 0
-268 537 -732 0
71 -355 -614 0
265 -526 -535 0
344 -709 756 0
-134 -165 -635 0
-54 -235 339 0
170 -260 -749 0
-122 -137 567 0
-46 212 551 0
-15 -111 690 0
450 -548 -606 0
308 -480 -633 0
-662 -770 791 0
-13 432 -444 0
32 -458 -755 0
-262 -522 -743 0
-125 579 -762 0
66 -475 601 0
-123 -477 -728 0
-295 495 728 0
70 -224 -784 0
323 -628 -747 0
-102 291 297 0
137 638 748 0
182 -677 -743 0
-163 249 479 0
61 64 -605 0
440 -685 -756 0
296 547 -607 0
-130 404 -621 0
133 233 -321 0
-276 -314 -669 0
398 -609 657 0
-154 -699 729 0
-589 -623 -629 0
183 184 -572 0
-58 563 -766 0
71 347 762 0
11 -72 -692 0
-35 -52 146 0
-333 414 -473 0
-6 207 -578 0
-197 -596 -629 0
-92 -289 542 0
-254 557 -587 0
27 -306 752 0
15 448 -500 0
90 578 595 0
-86 -168 -296 0
146 479 -716 0
93 616 746 0
209 285 -505 0
431 610 618 0
135 177 -783 0
-330 578 -666 0
-226 -728 753 0
-148 -469 609 0
312 -520 -787 0
-200 433 -513 0
156 -496 583 0
145 200 673 0
-518 616 -722 0
-377 -592 657 0
-426 681 -718 0
-206 -369 741 0
28 -76 -305 0
-296 -579 736 0
129 155 -166 0
158 534 735 0
124 -355 600 0
86 253 726 0
-264 -345 -754 0
3 369 -754 0
217 -302 553 0
17 -419 420 0
-151 -353 772 0
215 -268 635 0
-42 667 -793 0
-486 -599 705 0
-219 -377 422 0
110 -122 205 0
256 -329 611 0
27 735 -737 0
-106 -570 -710 0
-121 259 752 0
17 -106 291 0
-160 259 725 0
317 -739 -744 0
38 -541 -606 0
-269 331 -779 0
-269 -494 -659 0
294 -302 -555 0
-123 -128 659 0
370 -446 470 0
79 129 644 0
-6 357 -502 0
-153 -494 669 0
-279 -488 -575 0
-404 484 741 0
155 642 773 0
258 294 -655 0
120 273 733 0
-566 -690 -707 0
44 -275 -482 0
30 344 -541 0
-147 -208 209 0
-364 -677 770 0
-156 238 -418 0
348 -537 758 0
-158 327 -765 0
-54 -164 759 0
81 -132 380 0
229 -481 548 0
81 85 188 0
-20 -507 -765 0
470 634 795 0
238 718 -770 0
57 -71 569 0
27 -351 -372 0
488 -522 -678 0
545 560 -749 0
-21 127 -208 0
-26 -270 720 0
-24 -693 714 0
116 174 213 0
-176 -427 495 0
1 169 -636 0
253 635 684 0
21 -25 487 0
88 -574 634 0
19 -261 -627 0
119 396 531 0
-342 430 -732 0
97 135 244 0
80 175 -794 0
230 -759 -769 0
-183 -424 549 0
-246 304 -558 0
206 294 674 0
22 -334 -689 0
486 -560 631 0
-44 726 763 0
311 401 -694 0
-24 -343 778 0
-240 -443 -550 0
-168 -188 -765 0
332 483 700 0
-41 62 410 0
52 276 -411 0
-326 -381 -645 0
58 551 -758 0
170 -199 442 0
192 -342 -359 0
2 -575 -609 0
496 -596 659 0
662 761 800 0
363 612 781 0
-15 298 -303 0
155 276 -440 0
-93 -252 -488 0
29 180 193 0
149 493 700 0
90 -120 -283 0
531 602 661 0
504 569 710 0
-52 153 -541 0
104 128 -273 0
43 170 -559 0
43 496 -575 0
-685 -714 730 0
-256 -541 -746 0
-200 -399 -615 0
-114 -127 -797 0
-298 -417 457 0
-323 -356 -683 0
43 -233 512 0
-81 -142 -236 0
242 -264 701 0
-320 410 604 0
-138 -274 360 0
-397 -541 -764 0
-347 386 -765 0
22 -344 593 0
-284 314 -737 0
253 434 488 0
355 416 -765 0
-114 -129 -336 0
-131 302 368 0
473 727 -757 0
-706 769 786 0
22 315 535 0
88 -349 -431 0
609 788 798 0
-223 288 -715 0
281 -440 445 0
185 -413 570 0
165 679 749 0
150 -567 -724 0
45 183 -551 0
-471 688 704 0
-38 -303 687 0
109 607 -697 0
470 514 -732 0
44 -367 531 0
178 565 735 0
157 182 471 0
-57 152 534 0
-7 505 -731 0
-531 590 779 0
43 269 716 0
40 85 -174 0
-180 256 -599 0
-31 -474 650 0
485 -735 -788 0
15 -100 757 0
-75 540 -710 0
-37 -420 -678 0
-41 -442 654 0
160 -563 -625 0
238 258 -263 0
-397 -501 -544 0
-234 250 274 0
-466 546 -733 0
-398 -586 -750 0
382 -581 -764 0
181 -196 693 0
-618 665 -752 0
20 -40 653 0
-278 422 671 0
-98 283 331 0
213 503 -517 0
-24 -279 479 0
127 -380 -713 0
81 -487 -795 0
36 371 494 0
-96 367 -638 0
166 -295 -326 0
328 435 677 0
123 -180 -462 0
-16 133 -547 0
-377 -549 626 0
323 492 -735 0
38 -170 396 0
-175 -227 332 0
308 759 -781 0
-88 290 -707 0
367 -456 674 0
-186 -282 -646 0
36 296 585 0
71 425 -627 0
-21 -284 -409 0
195 284 -520 0
-185 364 608 0
-94 220 650 0
-364 594 605 0
-492 671 673 0
185 645 -800 0
106 -292 -491 0
-200 -415 -591 0
-183 -187 -667 0
18 91 -421 0
-106 422 566 0
574 712 -716 0
226 265 373 0
-205 -482 695 0
-14 -269 573 0
-164 -410 -527 0
210 -639 -704 0
-58 -375 -636 0
-322 -345 -768 0
180 -185 366 0
-105 -339 -635 0
-66 375 -646 0
-164 -691 769 0
-171 -237 764 0
21 -206 -236 0
30 -336 -665 0
-283 -590 -766 0
192 -539 -781 0
289 355 520 0
213 230 -746 0
-61 616 651 0
99 -340 760 0
-340 -474 480 0
390 -413 550 0
-275 279 622 0
230 -496 -792 0
26 368 -623 0
198 -454 -765 0
165 407 680 0
253 545 -551 0
-111 419 696 0
291 728 -741 0
-463 -749 -795 0
-42 -166 297 0
50 111 -299 0
-78 101 695 0
337 452 469 0
61 -460 -582 0
63 -237 -301 0
-291 394 -532 0
422 -547 718 0
-71 -95 -626 0
-324 -392 666 0
-332 377 -518 0
-115 -567 704 0
-4 89 764 0
60 406 -458 0
47 -386 721 0
-284 749 785 0
323 430 563 0
-432 565 -710 0
203 -647 -797 0
-173 378 547 0
-42 -362 480 0
-16 329 407 0
38 -722 -761 0
-169 324 -705 0
-105 -215 407 0
51 -98 -188 0
-161 208 572 0
-132 465 651 0
258 -567 595 0
94 -300 -347 0
-118 -381 -595 0
376 394 750 0
199 597 598 0
-126 -358 -453 0
-241 592 644 0
592 -747 791 0
445 569 571 0
11 -300 -736 0
-299 -385 546 0
-358 413 716 0
-56 243 -753 0
165 -236 531 0
-418 -524 662 0
117 -168 550 0
-584 661 680 0
42 287 -463 0
207 -650 -651 0
134 -543 737 0
-314 -509 -647 0
-325 -579 738 0
-17 -225 -708 0
-349 588 -708 0
-320 694 727 0
-581 637 -752 0
-4 79 -639 0
448 634 -770 0
-241 -415 560 0
30 -37 -317 0
-463 -679 739 0
-235 -565 -761 0
-28 -478 -533 0
20 412 -758 0
-548 555 728 0
450 545 -585 0
22 434 -633 0
-295 -405 412 0
-123 -259 -609 0
269 484 -532 0
-175 332 771 0
-188 439 520 0
98 -176 571 0
399 532 -708 0
34 347 365 0
236 451 698 0
-166 -237 -507 0
-141 -362 727 0
355 -478 580 0
-280 293 366 0
200 418 -436 0
-648 682 -700 0
21 381 -388 0
-325 -472 -683 0
-305 -367 546 0
381 -508 -636 0
-185 -364 668 0
193 -489 -549 0
247 290 -453 0
233 -531 609 0
-151 262 518 0
164 -472 -489 0
226 -620 710 0
-341 489 -590 0
-471 -484 -572 0
-104 506 589 0
-47 450 -499 0
8 92 646 0
139 196 484 0
-202 -411 767 0
-186 187 -658 0
20 -432 597 0
-537 -682 703 0
350 -369 -389 0
-60 381 596 0
-96 -321 -642 0
171 -478 -748 0
66 239 419 0
126 -394 492 0
-64 306 458 0
-81 -475 -623 0
239 572 -642 0
25 252 524 0
434 460 791 0
341 -361 -515 0
-226 -444 -651 0
-17 52 237 0
-120 -354 -786 0
16 -82 -201 0
-61 -159 218 0
138 623 -697 0
139 -149 -486 0
-4 -207 328 0
-14 -399 -477 0
-24 -230 278 0
-181 -302 -380 0
-318 -348 625 0
-55 405 497 0
536 -615 -714 0
-117 355 791 0
-229 -735 -743 0
118 -547 -606 0
190 629 -785 0
-66 -370 428 0
-196 204 -415 0
123 -135 -293 0
73 -230 236 0
-95 307 -667 0
-95 126 -727 0
-329 428 567 0
-25 -60 179 0
288 -445 583 0
185 278 607 0
422 -475 530 0
-139 -640 -730 0
61 256 -263 0
-271 -486 717 0
75 -503 -769 0
-520 -706 795 0
-115 260 763 0
-123 -506 680 0
448 453 695 0
-273 -624 627 0
123 315 375 0
-600 -642 -784 0
-127 169 183 0
-79 137 -377 0
529 -551 708 0
-145 419 -549 0
50 192 600 0
-379 -607 767 0
6 9 422 0
-288 -388 703 0
-172 -191 712 0
459 -740 759 0
-274 553 -675 0
-85 -716 798 0
159 -212 -681 0
67 143 -170 0
256 362 523 0
454 499 -664 0
181 -356 750 0
63 -369 -427 0
-62 170 794 0
152 628 723 0
-520 -531 -600 0
-362 -583 790 0
305 -565 -632 0
-45 100 -388 0
-233 570 -705 0
149 190 -572 0
51 -351 -515 0
360 -409 657 0
-5 -477 -658 0
18 -285 -757 0
21 467 739 0
420 -547 -735 0
142 369 -586 0
-66 -470 721 0
13 20 -369 0
-79 624 -661 0
-213 -289 -367 0
213 252 -304 0
189 197 -432 0
-228 -699 -703 0
79 -233 -356 0
-518 570 623 0
-9 -283 -459 0
357 -653 674 0
213 487 579 0
-16 -340 681 0
-41 -624 724 0
461 -602 683 0
-430 761 -788 0
55 264 -594 0
-298 515 -704 0
-33 127 -639 0
-198 -445 -609 0
-261 273 -391 0
-144 -542 -775 0
344 494 -669 0
218 568 -590 0
-235 497 778 0
-192 -197 764 0
-84 -471 743 0
-114 -769 -776 0
38 -368 548 0
522 -700 -732 0
-275 -372 -643 0
-287 -610 731 0
385 -612 615 0
8 -44 86 0
-145 -148 -486 0
-194 531 575 0
-111 197 -518 0
20 391 -443 0
-163 437 526 0
-10 -422 -594 0
145 -279 533 0
133 158 -729 0
-69 -492 -709 0
32 -431 -671 0
13 -436 -551 0
245 -440 576 0
670 -773 -791 0
-37 196 562 0
-34 -545 -556 0
-146 -358 618 0
249 -677 -794 0
50 -167 -604 0
-73 191 371 0
14 418 -770 0
233 337 -723 0
5 -433 -614 0
421 656 -698 0
609 -638 770 0
-15 412 690 0
44 135 -528 0
380 502 -790 0
693 -696 781 0
230 621 701 0
-135 498 571 0
-60 91 -496 0
-40 512 558 0
44 62 556 0
162 -563 -793 0
512 530 -757 0
213 -227 495 0
141 -631 670 0
152 -521 -691 0
-313 379 -785 0
197 366 -505 0
81 -321 413 0
485 639 682 0
-216 285 687 0
-445 537 576 0
-249 557 -654 0
-558 -650 747 0
143 -514 597 0
-403 744 -786 0
62 -152 389 0
-176 421 -573 0
-353 476 -751 0
17 -99 513 0
-474 544 -705 0
-195 358 -534 0
-275 -336 -471 0
-395 465 -681 0
153 561 -650 0
-368 -575 -617 0
-211 552 687 0
625 687 -707 0
1 205 -428 0
65 -619 671 0
166 558 -776 0
56 672 -676 0
-98 -114 -343 0
399 -514 728 0
-376 -422 765 0
126 318 -465 0
-101 -208 516 0
429 -447 549 0
297 -374 -711 0
432 491 -519 0
-560 -601 741 0
-94 97 776 0
-195 600 664 0
-545 680 690 0
-142 255 -426 0
40 124 695 0
53 -169 -351 0
-347 -447 600 0
-245 -304 -582 0
-6 -308 -572 0
-351 -610 744 0
390 573 786 0
-120 227 -260 0
-522 -558 733 0
-619 662 -690 0
281 499 776 0
27 -208 -292 0
-236 -419 -593 0
97 426 614 0
76 -320 -539 0
380 -434 -592 0
-223 -383 -559 0
241 -295 764 0
-8 25 -124 0
-520 547 -561 0
353 -383 -694 0
-706 719 -768 0
257 -618 -754 0
-77 -188 370 0
112 239 539 0
243 345 443 0
-29 53 635 0
354 -440 764 0
-60 83 707 0
266 -275 531 0
42 495 -642 0
87 196 -326 0
51 685 -798 0
-462 -498 687 0
