c Generated Phase 2 structural correctness benchmark
c family=pigeonhole_exact1
c seed=23004
c noise_percent=100
c hidden=false
c ground_truth=UNSATISFIABLE
p cnf 29 68
-1 -2 0
-1 -3 0
-2 -3 0
1 2 3 0
-4 -5 0
-4 -6 0
-5 -6 0
4 5 6 0
-7 -8 0
-7 -9 0
-8 -9 0
7 8 9 0
-10 -11 0
-10 -12 0
-11 -12 0
10 11 12 0
-1 -4 0
-1 -7 0
-1 -10 0
-4 -7 0
-4 -10 0
-7 -10 0
-2 -5 0
-2 -8 0
-2 -11 0
-5 -8 0
-5 -11 0
-8 -11 0
-3 -6 0
-3 -9 0
-3 -12 0
-6 -9 0
-6 -12 0
-9 -12 0
15 22 27 0
-13 -14 27 0
13 20 -28 0
-16 24 26 0
17 -26 27 0
-13 -16 28 0
13 17 19 0
-21 23 -29 0
-15 -17 29 0
-15 21 25 0
15 25 27 0
13 -14 18 0
16 17 25 0
-17 19 24 0
14 18 24 0
-17 -24 25 0
-13 15 20 0
-14 -25 28 0
14 -15 21 0
17 20 21 0
19 -21 26 0
-14 19 -21 0
-18 -24 25 0
-13 -16 -22 0
-15 19 -28 0
17 -21 -28 0
18 23 -27 0
-13 28 -29 0
-16 19 26 0
-18 -24 -26 0
-21 22 29 0
13 22 -26 0
-14 -22 26 0
-23 -26 27 0
