c Generated Phase 2 structural correctness benchmark
c family=exact_r_allocation
c seed=23009
c noise_percent=200
c hidden=false
c ground_truth=UNSATISFIABLE
p cnf 75 180
-1 -2 -3 0
-1 -2 -4 0
-1 -2 -5 0
-1 -3 -4 0
-1 -3 -5 0
-1 -4 -5 0
-2 -3 -4 0
-2 -3 -5 0
-2 -4 -5 0
-3 -4 -5 0
1 2 3 4 0
1 2 3 5 0
1 2 4 5 0
1 3 4 5 0
2 3 4 5 0
-6 -7 -8 0
-6 -7 -9 0
-6 -7 -10 0
-6 -8 -9 0
-6 -8 -10 0
-6 -9 -10 0
-7 -8 -9 0
-7 -8 -10 0
-7 -9 -10 0
-8 -9 -10 0
6 7 8 9 0
6 7 8 10 0
6 7 9 10 0
6 8 9 10 0
7 8 9 10 0
-11 -12 -13 0
-11 -12 -14 0
-11 -12 -15 0
-11 -13 -14 0
-11 -13 -15 0
-11 -14 -15 0
-12 -13 -14 0
-12 -13 -15 0
-12 -14 -15 0
-13 -14 -15 0
11 12 13 14 0
11 12 13 15 0
11 12 14 15 0
11 13 14 15 0
12 13 14 15 0
-1 -6 0
-1 -11 0
-6 -11 0
-2 -7 0
-2 -12 0
-7 -12 0
-3 -8 0
-3 -13 0
-8 -13 0
-4 -9 0
-4 -14 0
-9 -14 0
-5 -10 0
-5 -15 0
-10 -15 0
-16 33 -36 0
-22 -44 53 0
-21 56 74 0
-38 -65 -68 0
21 39 67 0
20 -28 32 0
20 -24 71 0
24 69 -73 0
16 61 62 0
24 27 39 0
34 -58 -71 0
-18 65 -74 0
58 -63 -69 0
32 43 69 0
-26 27 -69 0
16 -58 -68 0
18 51 61 0
-21 -49 -73 0
18 49 -60 0
26 35 -60 0
17 -29 -71 0
20 61 -67 0
-24 -39 -43 0
-22 -24 66 0
-21 41 68 0
30 -36 -64 0
-21 -60 66 0
-36 40 69 0
18 -41 -44 0
43 -47 48 0
-34 -58 -73 0
-38 59 -75 0
27 -35 60 0
20 -25 33 0
-16 -41 -69 0
-25 -29 39 0
-34 -48 -57 0
-33 -50 -57 0
-21 -47 68 0
19 -43 65 0
19 -31 -50 0
-39 -44 61 0
33 66 -74 0
18 -28 -41 0
-51 -56 63 0
-38 46 -54 0
41 55 75 0
17 -31 63 0
30 33 70 0
-34 -43 -75 0
18 -21 56 0
18 28 70 0
-16 46 -65 0
-33 -48 63 0
51 58 -72 0
-50 63 -75 0
-45 -49 -51 0
-25 73 -75 0
-19 -64 68 0
-62 64 -72 0
25 -36 -59 0
-32 47 -48 0
20 38 54 0
16 35 -46 0
-26 -30 -55 0
32 -46 -67 0
24 41 -69 0
21 24 -41 0
35 -69 74 0
-31 47 -50 0
-18 -30 60 0
-37 43 -65 0
37 -49 -61 0
-41 -42 43 0
-29 -53 -70 0
-18 52 -64 0
-26 -60 73 0
29 57 71 0
29 63 -68 0
24 48 -54 0
28 34 -68 0
23 49 69 0
16 27 -28 0
-27 -33 -74 0
-57 -59 -61 0
39 -41 57 0
-33 55 75 0
-27 -60 -72 0
46 -49 72 0
31 44 72 0
-21 46 -49 0
18 -44 47 0
-48 -64 -74 0
-16 -36 -38 0
39 -55 61 0
36 49 62 0
-50 65 75 0
-30 47 -57 0
-61 -67 -71 0
28 -34 35 0
-25 -42 -75 0
-39 54 66 0
-26 31 -46 0
16 -33 57 0
41 -47 -49 0
31 46 71 0
-40 48 -51 0
46 -60 -64 0
-48 51 -72 0
-41 42 72 0
-37 -47 75 0
31 -37 -70 0
22 -34 54 0
-55 -62 70 0
22 -49 59 0
21 -39 43 0
-36 39 56 0
-19 -31 48 0
35 46 -61 0
36 -42 59 0
