c Generated Phase 2 structural correctness benchmark
c family=bipartite_matching
c seed=23013
c noise_percent=200
c hidden=false
c ground_truth=SATISFIABLE
p cnf 20 36
-1 -2 0
1 2 0
-3 -4 0
3 4 0
-5 -6 0
5 6 0
-7 -8 0
7 8 0
-1 -3 0
-2 -4 0
-5 -7 0
-6 -8 0
13 -17 -20 0
-12 13 -20 0
-13 -16 -19 0
9 -10 -15 0
-10 -14 16 0
10 -11 -20 0
12 -13 -19 0
10 11 -20 0
-9 10 19 0
9 -10 -18 0
-14 17 -19 0
9 17 -20 0
-10 -16 17 0
-13 14 17 0
-10 -13 20 0
-11 -13 -20 0
-12 13 -16 0
-9 -12 -18 0
-9 11 -16 0
10 12 -20 0
-11 12 -17 0
10 -13 15 0
12 17 -19 0
9 10 -16 0
