c Generated Phase 2 structural correctness benchmark
c family=overlapping_hall_violation
c seed=23016
c noise_percent=100
c hidden=false
c ground_truth=UNSATISFIABLE
p cnf 19 36
-1 -2 0
1 2 0
-3 -4 0
3 4 0
-5 -6 0
5 6 0
-7 -8 0
7 8 0
-9 -10 0
9 10 0
-1 -3 0
-1 -5 0
-3 -5 0
-2 -4 0
-2 -6 0
-4 -6 0
-7 -9 0
-8 -10 0
-12 16 19 0
-13 -15 -16 0
12 -13 -16 0
-16 17 -18 0
11 -12 -16 0
-11 -14 18 0
12 16 17 0
11 -15 -16 0
12 13 -19 0
12 -14 19 0
12 14 -15 0
-13 15 18 0
13 -17 -19 0
11 13 -19 0
-12 16 -17 0
14 -18 19 0
11 -15 -19 0
-15 -16 -18 0
