c Generated Phase 2 structural correctness benchmark
c family=satisfiable_capacity_control
c seed=23019
c noise_percent=50
c hidden=false
c ground_truth=SATISFIABLE
p cnf 20 42
-1 -2 0
-1 -3 0
-2 -3 0
1 2 3 0
-4 -5 0
-4 -6 0
-5 -6 0
4 5 6 0
-7 -8 0
-7 -9 0
-8 -9 0
7 8 9 0
-10 -11 0
-10 -12 0
-11 -12 0
10 11 12 0
-1 -4 -7 0
-1 -4 -10 0
-1 -7 -10 0
-4 -7 -10 0
-2 -5 -8 0
-2 -5 -11 0
-2 -8 -11 0
-5 -8 -11 0
-3 -6 -9 0
-3 -6 -12 0
-3 -9 -12 0
-6 -9 -12 0
-14 -15 -17 0
13 16 19 0
14 16 20 0
-13 14 -15 0
14 -17 -20 0
-16 19 20 0
-16 17 20 0
13 16 17 0
13 -15 18 0
-13 -14 19 0
15 17 19 0
-15 18 -20 0
-14 15 -18 0
-16 19 -20 0
