c Generated Phase 2 structural correctness benchmark
c family=capacity_violation
c seed=23023
c noise_percent=50
c hidden=false
c ground_truth=UNSATISFIABLE
p cnf 18 45
-1 -2 0
1 2 0
-3 -4 0
3 4 0
-5 -6 0
5 6 0
-7 -8 0
7 8 0
-9 -10 0
9 10 0
-1 -3 -5 0
-1 -3 -7 0
-1 -3 -9 0
-1 -5 -7 0
-1 -5 -9 0
-1 -7 -9 0
-3 -5 -7 0
-3 -5 -9 0
-3 -7 -9 0
-5 -7 -9 0
-2 -4 -6 0
-2 -4 -8 0
-2 -4 -10 0
-2 -6 -8 0
-2 -6 -10 0
-2 -8 -10 0
-4 -6 -8 0
-4 -6 -10 0
-4 -8 -10 0
-6 -8 -10 0
-15 16 -18 0
-11 -15 18 0
-11 12 15 0
-12 -15 -18 0
15 17 18 0
12 16 -18 0
11 14 -17 0
-12 14 -16 0
13 14 -15 0
11 -13 18 0
-12 -13 16 0
-13 14 17 0
12 16 18 0
12 14 15 0
11 15 17 0
