c Phase 3 generated performance instance
c family=exact_r_allocation
c scale=7
c variant=default
c noise_percent=0
c expected=UNSATISFIABLE
p cnf 28 210
-1 -2 -3 0
-1 -2 -4 0
-1 -2 -5 0
-1 -2 -6 0
-1 -2 -7 0
-1 -3 -4 0
-1 -3 -5 0
-1 -3 -6 0
-1 -3 -7 0
-1 -4 -5 0
-1 -4 -6 0
-1 -4 -7 0
-1 -5 -6 0
-1 -5 -7 0
-1 -6 -7 0
-2 -3 -4 0
-2 -3 -5 0
-2 -3 -6 0
-2 -3 -7 0
-2 -4 -5 0
-2 -4 -6 0
-2 -4 -7 0
-2 -5 -6 0
-2 -5 -7 0
-2 -6 -7 0
-3 -4 -5 0
-3 -4 -6 0
-3 -4 -7 0
-3 -5 -6 0
-3 -5 -7 0
-3 -6 -7 0
-4 -5 -6 0
-4 -5 -7 0
-4 -6 -7 0
-5 -6 -7 0
1 2 3 4 5 6 0
1 2 3 4 5 7 0
1 2 3 4 6 7 0
1 2 3 5 6 7 0
1 2 4 5 6 7 0
1 3 4 5 6 7 0
2 3 4 5 6 7 0
-8 -9 -10 0
-8 -9 -11 0
-8 -9 -12 0
-8 -9 -13 0
-8 -9 -14 0
-8 -10 -11 0
-8 -10 -12 0
-8 -10 -13 0
-8 -10 -14 0
-8 -11 -12 0
-8 -11 -13 0
-8 -11 -14 0
-8 -12 -13 0
-8 -12 -14 0
-8 -13 -14 0
-9 -10 -11 0
-9 -10 -12 0
-9 -10 -13 0
-9 -10 -14 0
-9 -11 -12 0
-9 -11 -13 0
-9 -11 -14 0
-9 -12 -13 0
-9 -12 -14 0
-9 -13 -14 0
-10 -11 -12 0
-10 -11 -13 0
-10 -11 -14 0
-10 -12 -13 0
-10 -12 -14 0
-10 -13 -14 0
-11 -12 -13 0
-11 -12 -14 0
-11 -13 -14 0
-12 -13 -14 0
8 9 10 11 12 13 0
8 9 10 11 12 14 0
8 9 10 11 13 14 0
8 9 10 12 13 14 0
8 9 11 12 13 14 0
8 10 11 12 13 14 0
9 10 11 12 13 14 0
-15 -16 -17 0
-15 -16 -18 0
-15 -16 -19 0
-15 -16 -20 0
-15 -16 -21 0
-15 -17 -18 0
-15 -17 -19 0
-15 -17 -20 0
-15 -17 -21 0
-15 -18 -19 0
-15 -18 -20 0
-15 -18 -21 0
-15 -19 -20 0
-15 -19 -21 0
-15 -20 -21 0
-16 -17 -18 0
-16 -17 -19 0
-16 -17 -20 0
-16 -17 -21 0
-16 -18 -19 0
-16 -18 -20 0
-16 -18 -21 0
-16 -19 -20 0
-16 -19 -21 0
-16 -20 -21 0
-17 -18 -19 0
-17 -18 -20 0
-17 -18 -21 0
-17 -19 -20 0
-17 -19 -21 0
-17 -20 -21 0
-18 -19 -20 0
-18 -19 -21 0
-18 -20 -21 0
-19 -20 -21 0
15 16 17 18 19 20 0
15 16 17 18 19 21 0
15 16 17 18 20 21 0
15 16 17 19 20 21 0
15 16 18 19 20 21 0
15 17 18 19 20 21 0
16 17 18 19 20 21 0
-22 -23 -24 0
-22 -23 -25 0
-22 -23 -26 0
-22 -23 -27 0
-22 -23 -28 0
-22 -24 -25 0
-22 -24 -26 0
-22 -24 -27 0
-22 -24 -28 0
-22 -25 -26 0
-22 -25 -27 0
-22 -25 -28 0
-22 -26 -27 0
-22 -26 -28 0
-22 -27 -28 0
-23 -24 -25 0
-23 -24 -26 0
-23 -24 -27 0
-23 -24 -28 0
-23 -25 -26 0
-23 -25 -27 0
-23 -25 -28 0
-23 -26 -27 0
-23 -26 -28 0
-23 -27 -28 0
-24 -25 -26 0
-24 -25 -27 0
-24 -25 -28 0
-24 -26 -27 0
-24 -26 -28 0
-24 -27 -28 0
-25 -26 -27 0
-25 -26 -28 0
-25 -27 -28 0
-26 -27 -28 0
22 23 24 25 26 27 0
22 23 24 25 26 28 0
22 23 24 25 27 28 0
22 23 24 26 27 28 0
22 23 25 26 27 28 0
22 24 25 26 27 28 0
23 24 25 26 27 28 0
-1 -8 0
-1 -15 0
-1 -22 0
-8 -15 0
-8 -22 0
-15 -22 0
-2 -9 0
-2 -16 0
-2 -23 0
-9 -16 0
-9 -23 0
-16 -23 0
-3 -10 0
-3 -17 0
-3 -24 0
-10 -17 0
-10 -24 0
-17 -24 0
-4 -11 0
-4 -18 0
-4 -25 0
-11 -18 0
-11 -25 0
-18 -25 0
-5 -12 0
-5 -19 0
-5 -26 0
-12 -19 0
-12 -26 0
-19 -26 0
-6 -13 0
-6 -20 0
-6 -27 0
-13 -20 0
-13 -27 0
-20 -27 0
-7 -14 0
-7 -21 0
-7 -28 0
-14 -21 0
-14 -28 0
-21 -28 0
