c Phase 3 generated performance instance
c family=exact_r_allocation
c scale=9
c variant=default
c noise_percent=0
c expected=UNSATISFIABLE
p cnf 45 555
-1 -2 -3 0
-1 -2 -4 0
-1 -2 -5 0
-1 -2 -6 0
-1 -2 -7 0
-1 -2 -8 0
-1 -2 -9 0
-1 -3 -4 0
-1 -3 -5 0
-1 -3 -6 0
-1 -3 -7 0
-1 -3 -8 0
-1 -3 -9 0
-1 -4 -5 0
-1 -4 -6 0
-1 -4 -7 0
-1 -4 -8 0
-1 -4 -9 0
-1 -5 -6 0
-1 -5 -7 0
-1 -5 -8 0
-1 -5 -9 0
-1 -6 -7 0
-1 -6 -8 0
-1 -6 -9 0
-1 -7 -8 0
-1 -7 -9 0
-1 -8 -9 0
-2 -3 -4 0
-2 -3 -5 0
-2 -3 -6 0
-2 -3 -7 0
-2 -3 -8 0
-2 -3 -9 0
-2 -4 -5 0
-2 -4 -6 0
-2 -4 -7 0
-2 -4 -8 0
-2 -4 -9 0
-2 -5 -6 0
-2 -5 -7 0
-2 -5 -8 0
-2 -5 -9 0
-2 -6 -7 0
-2 -6 -8 0
-2 -6 -9 0
-2 -7 -8 0
-2 -7 -9 0
-2 -8 -9 0
-3 -4 -5 0
-3 -4 -6 0
-3 -4 -7 0
-3 -4 -8 0
-3 -4 -9 0
-3 -5 -6 0
-3 -5 -7 0
-3 -5 -8 0
-3 -5 -9 0
-3 -6 -7 0
-3 -6 -8 0
-3 -6 -9 0
-3 -7 -8 0
-3 -7 -9 0
-3 -8 -9 0
-4 -5 -6 0
-4 -5 -7 0
-4 -5 -8 0
-4 -5 -9 0
-4 -6 -7 0
-4 -6 -8 0
-4 -6 -9 0
-4 -7 -8 0
-4 -7 -9 0
-4 -8 -9 0
-5 -6 -7 0
-5 -6 -8 0
-5 -6 -9 0
-5 -7 -8 0
-5 -7 -9 0
-5 -8 -9 0
-6 -7 -8 0
-6 -7 -9 0
-6 -8 -9 0
-7 -8 -9 0
1 2 3 4 5 6 7 8 0
1 2 3 4 5 6 7 9 0
1 2 3 4 5 6 8 9 0
1 2 3 4 5 7 8 9 0
1 2 3 4 6 7 8 9 0
1 2 3 5 6 7 8 9 0
1 2 4 5 6 7 8 9 0
1 3 4 5 6 7 8 9 0
2 3 4 5 6 7 8 9 0
-10 -11 -12 0
-10 -11 -13 0
-10 -11 -14 0
-10 -11 -15 0
-10 -11 -16 0
-10 -11 -17 0
-10 -11 -18 0
-10 -12 -13 0
-10 -12 -14 0
-10 -12 -15 0
-10 -12 -16 0
-10 -12 -17 0
-10 -12 -18 0
-10 -13 -14 0
-10 -13 -15 0
-10 -13 -16 0
-10 -13 -17 0
-10 -13 -18 0
-10 -14 -15 0
-10 -14 -16 0
-10 -14 -17 0
-10 -14 -18 0
-10 -15 -16 0
-10 -15 -17 0
-10 -15 -18 0
-10 -16 -17 0
-10 -16 -18 0
-10 -17 -18 0
-11 -12 -13 0
-11 -12 -14 0
-11 -12 -15 0
-11 -12 -16 0
-11 -12 -17 0
-11 -12 -18 0
-11 -13 -14 0
-11 -13 -15 0
-11 -13 -16 0
-11 -13 -17 0
-11 -13 -18 0
-11 -14 -15 0
-11 -14 -16 0
-11 -14 -17 0
-11 -14 -18 0
-11 -15 -16 0
-11 -15 -17 0
-11 -15 -18 0
-11 -16 -17 0
-11 -16 -18 0
-11 -17 -18 0
-12 -13 -14 0
-12 -13 -15 0
-12 -13 -16 0
-12 -13 -17 0
-12 -13 -18 0
-12 -14 -15 0
-12 -14 -16 0
-12 -14 -17 0
-12 -14 -18 0
-12 -15 -16 0
-12 -15 -17 0
-12 -15 -18 0
-12 -16 -17 0
-12 -16 -18 0
-12 -17 -18 0
-13 -14 -15 0
-13 -14 -16 0
-13 -14 -17 0
-13 -14 -18 0
-13 -15 -16 0
-13 -15 -17 0
-13 -15 -18 0
-13 -16 -17 0
-13 -16 -18 0
-13 -17 -18 0
-14 -15 -16 0
-14 -15 -17 0
-14 -15 -18 0
-14 -16 -17 0
-14 -16 -18 0
-14 -17 -18 0
-15 -16 -17 0
-15 -16 -18 0
-15 -17 -18 0
-16 -17 -18 0
10 11 12 13 14 15 16 17 0
10 11 12 13 14 15 16 18 0
10 11 12 13 14 15 17 18 0
10 11 12 13 14 16 17 18 0
10 11 12 13 15 16 17 18 0
10 11 12 14 15 16 17 18 0
10 11 13 14 15 16 17 18 0
10 12 13 14 15 16 17 18 0
11 12 13 14 15 16 17 18 0
-19 -20 -21 0
-19 -20 -22 0
-19 -20 -23 0
-19 -20 -24 0
-19 -20 -25 0
-19 -20 -26 0
-19 -20 -27 0
-19 -21 -22 0
-19 -21 -23 0
-19 -21 -24 0
-19 -21 -25 0
-19 -21 -26 0
-19 -21 -27 0
-19 -22 -23 0
-19 -22 -24 0
-19 -22 -25 0
-19 -22 -26 0
-19 -22 -27 0
-19 -23 -24 0
-19 -23 -25 0
-19 -23 -26 0
-19 -23 -27 0
-19 -24 -25 0
-19 -24 -26 0
-19 -24 -27 0
-19 -25 -26 0
-19 -25 -27 0
-19 -26 -27 0
-20 -21 -22 0
-20 -21 -23 0
-20 -21 -24 0
-20 -21 -25 0
-20 -21 -26 0
-20 -21 -27 0
-20 -22 -23 0
-20 -22 -24 0
-20 -22 -25 0
-20 -22 -26 0
-20 -22 -27 0
-20 -23 -24 0
-20 -23 -25 0
-20 -23 -26 0
-20 -23 -27 0
-20 -24 -25 0
-20 -24 -26 0
-20 -24 -27 0
-20 -25 -26 0
-20 -25 -27 0
-20 -26 -27 0
-21 -22 -23 0
-21 -22 -24 0
-21 -22 -25 0
-21 -22 -26 0
-21 -22 -27 0
-21 -23 -24 0
-21 -23 -25 0
-21 -23 -26 0
-21 -23 -27 0
-21 -24 -25 0
-21 -24 -26 0
-21 -24 -27 0
-21 -25 -26 0
-21 -25 -27 0
-21 -26 -27 0
-22 -23 -24 0
-22 -23 -25 0
-22 -23 -26 0
-22 -23 -27 0
-22 -24 -25 0
-22 -24 -26 0
-22 -24 -27 0
-22 -25 -26 0
-22 -25 -27 0
-22 -26 -27 0
-23 -24 -25 0
-23 -24 -26 0
-23 -24 -27 0
-23 -25 -26 0
-23 -25 -27 0
-23 -26 -27 0
-24 -25 -26 0
-24 -25 -27 0
-24 -26 -27 0
-25 -26 -27 0
19 20 21 22 23 24 25 26 0
19 20 21 22 23 24 25 27 0
19 20 21 22 23 24 26 27 0
19 20 21 22 23 25 26 27 0
19 20 21 22 24 25 26 27 0
19 20 21 23 24 25 26 27 0
19 20 22 23 24 25 26 27 0
19 21 22 23 24 25 26 27 0
20 21 22 23 24 25 26 27 0
-28 -29 -30 0
-28 -29 -31 0
-28 -29 -32 0
-28 -29 -33 0
-28 -29 -34 0
-28 -29 -35 0
-28 -29 -36 0
-28 -30 -31 0
-28 -30 -32 0
-28 -30 -33 0
-28 -30 -34 0
-28 -30 -35 0
-28 -30 -36 0
-28 -31 -32 0
-28 -31 -33 0
-28 -31 -34 0
-28 -31 -35 0
-28 -31 -36 0
-28 -32 -33 0
-28 -32 -34 0
-28 -32 -35 0
-28 -32 -36 0
-28 -33 -34 0
-28 -33 -35 0
-28 -33 -36 0
-28 -34 -35 0
-28 -34 -36 0
-28 -35 -36 0
-29 -30 -31 0
-29 -30 -32 0
-29 -30 -33 0
-29 -30 -34 0
-29 -30 -35 0
-29 -30 -36 0
-29 -31 -32 0
-29 -31 -33 0
-29 -31 -34 0
-29 -31 -35 0
-29 -31 -36 0
-29 -32 -33 0
-29 -32 -34 0
-29 -32 -35 0
-29 -32 -36 0
-29 -33 -34 0
-29 -33 -35 0
-29 -33 -36 0
-29 -34 -35 0
-29 -34 -36 0
-29 -35 -36 0
-30 -31 -32 0
-30 -31 -33 0
-30 -31 -34 0
-30 -31 -35 0
-30 -31 -36 0
-30 -32 -33 0
-30 -32 -34 0
-30 -32 -35 0
-30 -32 -36 0
-30 -33 -34 0
-30 -33 -35 0
-30 -33 -36 0
-30 -34 -35 0
-30 -34 -36 0
-30 -35 -36 0
-31 -32 -33 0
-31 -32 -34 0
-31 -32 -35 0
-31 -32 -36 0
-31 -33 -34 0
-31 -33 -35 0
-31 -33 -36 0
-31 -34 -35 0
-31 -34 -36 0
-31 -35 -36 0
-32 -33 -34 0
-32 -33 -35 0
-32 -33 -36 0
-32 -34 -35 0
-32 -34 -36 0
-32 -35 -36 0
-33 -34 -35 0
-33 -34 -36 0
-33 -35 -36 0
-34 -35 -36 0
28 29 30 31 32 33 34 35 0
28 29 30 31 32 33 34 36 0
28 29 30 31 32 33 35 36 0
28 29 30 31 32 34 35 36 0
28 29 30 31 33 34 35 36 0
28 29 30 32 33 34 35 36 0
28 29 31 32 33 34 35 36 0
28 30 31 32 33 34 35 36 0
29 30 31 32 33 34 35 36 0
-37 -38 -39 0
-37 -38 -40 0
-37 -38 -41 0
-37 -38 -42 0
-37 -38 -43 0
-37 -38 -44 0
-37 -38 -45 0
-37 -39 -40 0
-37 -39 -41 0
-37 -39 -42 0
-37 -39 -43 0
-37 -39 -44 0
-37 -39 -45 0
-37 -40 -41 0
-37 -40 -42 0
-37 -40 -43 0
-37 -40 -44 0
-37 -40 -45 0
-37 -41 -42 0
-37 -41 -43 0
-37 -41 -44 0
-37 -41 -45 0
-37 -42 -43 0
-37 -42 -44 0
-37 -42 -45 0
-37 -43 -44 0
-37 -43 -45 0
-37 -44 -45 0
-38 -39 -40 0
-38 -39 -41 0
-38 -39 -42 0
-38 -39 -43 0
-38 -39 -44 0
-38 -39 -45 0
-38 -40 -41 0
-38 -40 -42 0
-38 -40 -43 0
-38 -40 -44 0
-38 -40 -45 0
-38 -41 -42 0
-38 -41 -43 0
-38 -41 -44 0
-38 -41 -45 0
-38 -42 -43 0
-38 -42 -44 0
-38 -42 -45 0
-38 -43 -44 0
-38 -43 -45 0
-38 -44 -45 0
-39 -40 -41 0
-39 -40 -42 0
-39 -40 -43 0
-39 -40 -44 0
-39 -40 -45 0
-39 -41 -42 0
-39 -41 -43 0
-39 -41 -44 0
-39 -41 -45 0
-39 -42 -43 0
-39 -42 -44 0
-39 -42 -45 0
-39 -43 -44 0
-39 -43 -45 0
-39 -44 -45 0
-40 -41 -42 0
-40 -41 -43 0
-40 -41 -44 0
-40 -41 -45 0
-40 -42 -43 0
-40 -42 -44 0
-40 -42 -45 0
-40 -43 -44 0
-40 -43 -45 0
-40 -44 -45 0
-41 -42 -43 0
-41 -42 -44 0
-41 -42 -45 0
-41 -43 -44 0
-41 -43 -45 0
-41 -44 -45 0
-42 -43 -44 0
-42 -43 -45 0
-42 -44 -45 0
-43 -44 -45 0
37 38 39 40 41 42 43 44 0
37 38 39 40 41 42 43 45 0
37 38 39 40 41 42 44 45 0
37 38 39 40 41 43 44 45 0
37 38 39 40 42 43 44 45 0
37 38 39 41 42 43 44 45 0
37 38 40 41 42 43 44 45 0
37 39 40 41 42 43 44 45 0
38 39 40 41 42 43 44 45 0
-1 -10 0
-1 -19 0
-1 -28 0
-1 -37 0
-10 -19 0
-10 -28 0
-10 -37 0
-19 -28 0
-19 -37 0
-28 -37 0
-2 -11 0
-2 -20 0
-2 -29 0
-2 -38 0
-11 -20 0
-11 -29 0
-11 -38 0
-20 -29 0
-20 -38 0
-29 -38 0
-3 -12 0
-3 -21 0
-3 -30 0
-3 -39 0
-12 -21 0
-12 -30 0
-12 -39 0
-21 -30 0
-21 -39 0
-30 -39 0
-4 -13 0
-4 -22 0
-4 -31 0
-4 -40 0
-13 -22 0
-13 -31 0
-13 -40 0
-22 -31 0
-22 -40 0
-31 -40 0
-5 -14 0
-5 -23 0
-5 -32 0
-5 -41 0
-14 -23 0
-14 -32 0
-14 -41 0
-23 -32 0
-23 -41 0
-32 -41 0
-6 -15 0
-6 -24 0
-6 -33 0
-6 -42 0
-15 -24 0
-15 -33 0
-15 -42 0
-24 -33 0
-24 -42 0
-33 -42 0
-7 -16 0
-7 -25 0
-7 -34 0
-7 -43 0
-16 -25 0
-16 -34 0
-16 -43 0
-25 -34 0
-25 -43 0
-34 -43 0
-8 -17 0
-8 -26 0
-8 -35 0
-8 -44 0
-17 -26 0
-17 -35 0
-17 -44 0
-26 -35 0
-26 -44 0
-35 -44 0
-9 -18 0
-9 -27 0
-9 -36 0
-9 -45 0
-18 -27 0
-18 -36 0
-18 -45 0
-27 -36 0
-27 -45 0
-36 -45 0
