c Phase 3 generated performance instance
c family=exact_r_allocation
c scale=13
c variant=default
c noise_percent=0
c expected=UNSATISFIABLE
p cnf 91 2366
-1 -2 -3 0
-1 -2 -4 0
-1 -2 -5 0
-1 -2 -6 0
-1 -2 -7 0
-1 -2 -8 0
-1 -2 -9 0
-1 -2 -10 0
-1 -2 -11 0
-1 -2 -12 0
-1 -2 -13 0
-1 -3 -4 0
-1 -3 -5 0
-1 -3 -6 0
-1 -3 -7 0
-1 -3 -8 0
-1 -3 -9 0
-1 -3 -10 0
-1 -3 -11 0
-1 -3 -12 0
-1 -3 -13 0
-1 -4 -5 0
-1 -4 -6 0
-1 -4 -7 0
-1 -4 -8 0
-1 -4 -9 0
-1 -4 -10 0
-1 -4 -11 0
-1 -4 -12 0
-1 -4 -13 0
-1 -5 -6 0
-1 -5 -7 0
-1 -5 -8 0
-1 -5 -9 0
-1 -5 -10 0
-1 -5 -11 0
-1 -5 -12 0
-1 -5 -13 0
-1 -6 -7 0
-1 -6 -8 0
-1 -6 -9 0
-1 -6 -10 0
-1 -6 -11 0
-1 -6 -12 0
-1 -6 -13 0
-1 -7 -8 0
-1 -7 -9 0
-1 -7 -10 0
-1 -7 -11 0
-1 -7 -12 0
-1 -7 -13 0
-1 -8 -9 0
-1 -8 -10 0
-1 -8 -11 0
-1 -8 -12 0
-1 -8 -13 0
-1 -9 -10 0
-1 -9 -11 0
-1 -9 -12 0
-1 -9 -13 0
-1 -10 -11 0
-1 -10 -12 0
-1 -10 -13 0
-1 -11 -12 0
-1 -11 -13 0
-1 -12 -13 0
-2 -3 -4 0
-2 -3 -5 0
-2 -3 -6 0
-2 -3 -7 0
-2 -3 -8 0
-2 -3 -9 0
-2 -3 -10 0
-2 -3 -11 0
-2 -3 -12 0
-2 -3 -13 0
-2 -4 -5 0
-2 -4 -6 0
-2 -4 -7 0
-2 -4 -8 0
-2 -4 -9 0
-2 -4 -10 0
-2 -4 -11 0
-2 -4 -12 0
-2 -4 -13 0
-2 -5 -6 0
-2 -5 -7 0
-2 -5 -8 0
-2 -5 -9 0
-2 -5 -10 0
-2 -5 -11 0
-2 -5 -12 0
-2 -5 -13 0
-2 -6 -7 0
-2 -6 -8 0
-2 -6 -9 0
-2 -6 -10 0
-2 -6 -11 0
-2 -6 -12 0
-2 -6 -13 0
-2 -7 -8 0
-2 -7 -9 0
-2 -7 -10 0
-2 -7 -11 0
-2 -7 -12 0
-2 -7 -13 0
-2 -8 -9 0
-2 -8 -10 0
-2 -8 -11 0
-2 -8 -12 0
-2 -8 -13 0
-2 -9 -10 0
-2 -9 -11 0
-2 -9 -12 0
-2 -9 -13 0
-2 -10 -11 0
-2 -10 -12 0
-2 -10 -13 0
-2 -11 -12 0
-2 -11 -13 0
-2 -12 -13 0
-3 -4 -5 0
-3 -4 -6 0
-3 -4 -7 0
-3 -4 -8 0
-3 -4 -9 0
-3 -4 -10 0
-3 -4 -11 0
-3 -4 -12 0
-3 -4 -13 0
-3 -5 -6 0
-3 -5 -7 0
-3 -5 -8 0
-3 -5 -9 0
-3 -5 -10 0
-3 -5 -11 0
-3 -5 -12 0
-3 -5 -13 0
-3 -6 -7 0
-3 -6 -8 0
-3 -6 -9 0
-3 -6 -10 0
-3 -6 -11 0
-3 -6 -12 0
-3 -6 -13 0
-3 -7 -8 0
-3 -7 -9 0
-3 -7 -10 0
-3 -7 -11 0
-3 -7 -12 0
-3 -7 -13 0
-3 -8 -9 0
-3 -8 -10 0
-3 -8 -11 0
-3 -8 -12 0
-3 -8 -13 0
-3 -9 -10 0
-3 -9 -11 0
-3 -9 -12 0
-3 -9 -13 0
-3 -10 -11 0
-3 -10 -12 0
-3 -10 -13 0
-3 -11 -12 0
-3 -11 -13 0
-3 -12 -13 0
-4 -5 -6 0
-4 -5 -7 0
-4 -5 -8 0
-4 -5 -9 0
-4 -5 -10 0
-4 -5 -11 0
-4 -5 -12 0
-4 -5 -13 0
-4 -6 -7 0
-4 -6 -8 0
-4 -6 -9 0
-4 -6 -10 0
-4 -6 -11 0
-4 -6 -12 0
-4 -6 -13 0
-4 -7 -8 0
-4 -7 -9 0
-4 -7 -10 0
-4 -7 -11 0
-4 -7 -12 0
-4 -7 -13 0
-4 -8 -9 0
-4 -8 -10 0
-4 -8 -11 0
-4 -8 -12 0
-4 -8 -13 0
-4 -9 -10 0
-4 -9 -11 0
-4 -9 -12 0
-4 -9 -13 0
-4 -10 -11 0
-4 -10 -12 0
-4 -10 -13 0
-4 -11 -12 0
-4 -11 -13 0
-4 -12 -13 0
-5 -6 -7 0
-5 -6 -8 0
-5 -6 -9 0
-5 -6 -10 0
-5 -6 -11 0
-5 -6 -12 0
-5 -6 -13 0
-5 -7 -8 0
-5 -7 -9 0
-5 -7 -10 0
-5 -7 -11 0
-5 -7 -12 0
-5 -7 -13 0
-5 -8 -9 0
-5 -8 -10 0
-5 -8 -11 0
-5 -8 -12 0
-5 -8 -13 0
-5 -9 -10 0
-5 -9 -11 0
-5 -9 -12 0
-5 -9 -13 0
-5 -10 -11 0
-5 -10 -12 0
-5 -10 -13 0
-5 -11 -12 0
-5 -11 -13 0
-5 -12 -13 0
-6 -7 -8 0
-6 -7 -9 0
-6 -7 -10 0
-6 -7 -11 0
-6 -7 -12 0
-6 -7 -13 0
-6 -8 -9 0
-6 -8 -10 0
-6 -8 -11 0
-6 -8 -12 0
-6 -8 -13 0
-6 -9 -10 0
-6 -9 -11 0
-6 -9 -12 0
-6 -9 -13 0
-6 -10 -11 0
-6 -10 -12 0
-6 -10 -13 0
-6 -11 -12 0
-6 -11 -13 0
-6 -12 -13 0
-7 -8 -9 0
-7 -8 -10 0
-7 -8 -11 0
-7 -8 -12 0
-7 -8 -13 0
-7 -9 -10 0
-7 -9 -11 0
-7 -9 -12 0
-7 -9 -13 0
-7 -10 -11 0
-7 -10 -12 0
-7 -10 -13 0
-7 -11 -12 0
-7 -11 -13 0
-7 -12 -13 0
-8 -9 -10 0
-8 -9 -11 0
-8 -9 -12 0
-8 -9 -13 0
-8 -10 -11 0
-8 -10 -12 0
-8 -10 -13 0
-8 -11 -12 0
-8 -11 -13 0
-8 -12 -13 0
-9 -10 -11 0
-9 -10 -12 0
-9 -10 -13 0
-9 -11 -12 0
-9 -11 -13 0
-9 -12 -13 0
-10 -11 -12 0
-10 -11 -13 0
-10 -12 -13 0
-11 -12 -13 0
1 2 3 4 5 6 7 8 9 10 11 12 0
1 2 3 4 5 6 7 8 9 10 11 13 0
1 2 3 4 5 6 7 8 9 10 12 13 0
1 2 3 4 5 6 7 8 9 11 12 13 0
1 2 3 4 5 6 7 8 10 11 12 13 0
1 2 3 4 5 6 7 9 10 11 12 13 0
1 2 3 4 5 6 8 9 10 11 12 13 0
1 2 3 4 5 7 8 9 10 11 12 13 0
1 2 3 4 6 7 8 9 10 11 12 13 0
1 2 3 5 6 7 8 9 10 11 12 13 0
1 2 4 5 6 7 8 9 10 11 12 13 0
1 3 4 5 6 7 8 9 10 11 12 13 0
2 3 4 5 6 7 8 9 10 11 12 13 0
-14 -15 -16 0
-14 -15 -17 0
-14 -15 -18 0
-14 -15 -19 0
-14 -15 -20 0
-14 -15 -21 0
-14 -15 -22 0
-14 -15 -23 0
-14 -15 -24 0
-14 -15 -25 0
-14 -15 -26 0
-14 -16 -17 0
-14 -16 -18 0
-14 -16 -19 0
-14 -16 -20 0
-14 -16 -21 0
-14 -16 -22 0
-14 -16 -23 0
-14 -16 -24 0
-14 -16 -25 0
-14 -16 -26 0
-14 -17 -18 0
-14 -17 -19 0
-14 -17 -20 0
-14 -17 -21 0
-14 -17 -22 0
-14 -17 -23 0
-14 -17 -24 0
-14 -17 -25 0
-14 -17 -26 0
-14 -18 -19 0
-14 -18 -20 0
-14 -18 -21 0
-14 -18 -22 0
-14 -18 -23 0
-14 -18 -24 0
-14 -18 -25 0
-14 -18 -26 0
-14 -19 -20 0
-14 -19 -21 0
-14 -19 -22 0
-14 -19 -23 0
-14 -19 -24 0
-14 -19 -25 0
-14 -19 -26 0
-14 -20 -21 0
-14 -20 -22 0
-14 -20 -23 0
-14 -20 -24 0
-14 -20 -25 0
-14 -20 -26 0
-14 -21 -22 0
-14 -21 -23 0
-14 -21 -24 0
-14 -21 -25 0
-14 -21 -26 0
-14 -22 -23 0
-14 -22 -24 0
-14 -22 -25 0
-14 -22 -26 0
-14 -23 -24 0
-14 -23 -25 0
-14 -23 -26 0
-14 -24 -25 0
-14 -24 -26 0
-14 -25 -26 0
-15 -16 -17 0
-15 -16 -18 0
-15 -16 -19 0
-15 -16 -20 0
-15 -16 -21 0
-15 -16 -22 0
-15 -16 -23 0
-15 -16 -24 0
-15 -16 -25 0
-15 -16 -26 0
-15 -17 -18 0
-15 -17 -19 0
-15 -17 -20 0
-15 -17 -21 0
-15 -17 -22 0
-15 -17 -23 0
-15 -17 -24 0
-15 -17 -25 0
-15 -17 -26 0
-15 -18 -19 0
-15 -18 -20 0
-15 -18 -21 0
-15 -18 -22 0
-15 -18 -23 0
-15 -18 -24 0
-15 -18 -25 0
-15 -18 -26 0
-15 -19 -20 0
-15 -19 -21 0
-15 -19 -22 0
-15 -19 -23 0
-15 -19 -24 0
-15 -19 -25 0
-15 -19 -26 0
-15 -20 -21 0
-15 -20 -22 0
-15 -20 -23 0
-15 -20 -24 0
-15 -20 -25 0
-15 -20 -26 0
-15 -21 -22 0
-15 -21 -23 0
-15 -21 -24 0
-15 -21 -25 0
-15 -21 -26 0
-15 -22 -23 0
-15 -22 -24 0
-15 -22 -25 0
-15 -22 -26 0
-15 -23 -24 0
-15 -23 -25 0
-15 -23 -26 0
-15 -24 -25 0
-15 -24 -26 0
-15 -25 -26 0
-16 -17 -18 0
-16 -17 -19 0
-16 -17 -20 0
-16 -17 -21 0
-16 -17 -22 0
-16 -17 -23 0
-16 -17 -24 0
-16 -17 -25 0
-16 -17 -26 0
-16 -18 -19 0
-16 -18 -20 0
-16 -18 -21 0
-16 -18 -22 0
-16 -18 -23 0
-16 -18 -24 0
-16 -18 -25 0
-16 -18 -26 0
-16 -19 -20 0
-16 -19 -21 0
-16 -19 -22 0
-16 -19 -23 0
-16 -19 -24 0
-16 -19 -25 0
-16 -19 -26 0
-16 -20 -21 0
-16 -20 -22 0
-16 -20 -23 0
-16 -20 -24 0
-16 -20 -25 0
-16 -20 -26 0
-16 -21 -22 0
-16 -21 -23 0
-16 -21 -24 0
-16 -21 -25 0
-16 -21 -26 0
-16 -22 -23 0
-16 -22 -24 0
-16 -22 -25 0
-16 -22 -26 0
-16 -23 -24 0
-16 -23 -25 0
-16 -23 -26 0
-16 -24 -25 0
-16 -24 -26 0
-16 -25 -26 0
-17 -18 -19 0
-17 -18 -20 0
-17 -18 -21 0
-17 -18 -22 0
-17 -18 -23 0
-17 -18 -24 0
-17 -18 -25 0
-17 -18 -26 0
-17 -19 -20 0
-17 -19 -21 0
-17 -19 -22 0
-17 -19 -23 0
-17 -19 -24 0
-17 -19 -25 0
-17 -19 -26 0
-17 -20 -21 0
-17 -20 -22 0
-17 -20 -23 0
-17 -20 -24 0
-17 -20 -25 0
-17 -20 -26 0
-17 -21 -22 0
-17 -21 -23 0
-17 -21 -24 0
-17 -21 -25 0
-17 -21 -26 0
-17 -22 -23 0
-17 -22 -24 0
-17 -22 -25 0
-17 -22 -26 0
-17 -23 -24 0
-17 -23 -25 0
-17 -23 -26 0
-17 -24 -25 0
-17 -24 -26 0
-17 -25 -26 0
-18 -19 -20 0
-18 -19 -21 0
-18 -19 -22 0
-18 -19 -23 0
-18 -19 -24 0
-18 -19 -25 0
-18 -19 -26 0
-18 -20 -21 0
-18 -20 -22 0
-18 -20 -23 0
-18 -20 -24 0
-18 -20 -25 0
-18 -20 -26 0
-18 -21 -22 0
-18 -21 -23 0
-18 -21 -24 0
-18 -21 -25 0
-18 -21 -26 0
-18 -22 -23 0
-18 -22 -24 0
-18 -22 -25 0
-18 -22 -26 0
-18 -23 -24 0
-18 -23 -25 0
-18 -23 -26 0
-18 -24 -25 0
-18 -24 -26 0
-18 -25 -26 0
-19 -20 -21 0
-19 -20 -22 0
-19 -20 -23 0
-19 -20 -24 0
-19 -20 -25 0
-19 -20 -26 0
-19 -21 -22 0
-19 -21 -23 0
-19 -21 -24 0
-19 -21 -25 0
-19 -21 -26 0
-19 -22 -23 0
-19 -22 -24 0
-19 -22 -25 0
-19 -22 -26 0
-19 -23 -24 0
-19 -23 -25 0
-19 -23 -26 0
-19 -24 -25 0
-19 -24 -26 0
-19 -25 -26 0
-20 -21 -22 0
-20 -21 -23 0
-20 -21 -24 0
-20 -21 -25 0
-20 -21 -26 0
-20 -22 -23 0
-20 -22 -24 0
-20 -22 -25 0
-20 -22 -26 0
-20 -23 -24 0
-20 -23 -25 0
-20 -23 -26 0
-20 -24 -25 0
-20 -24 -26 0
-20 -25 -26 0
-21 -22 -23 0
-21 -22 -24 0
-21 -22 -25 0
-21 -22 -26 0
-21 -23 -24 0
-21 -23 -25 0
-21 -23 -26 0
-21 -24 -25 0
-21 -24 -26 0
-21 -25 -26 0
-22 -23 -24 0
-22 -23 -25 0
-22 -23 -26 0
-22 -24 -25 0
-22 -24 -26 0
-22 -25 -26 0
-23 -24 -25 0
-23 -24 -26 0
-23 -25 -26 0
-24 -25 -26 0
14 15 16 17 18 19 20 21 22 23 24 25 0
14 15 16 17 18 19 20 21 22 23 24 26 0
14 15 16 17 18 19 20 21 22 23 25 26 0
14 15 16 17 18 19 20 21 22 24 25 26 0
14 15 16 17 18 19 20 21 23 24 25 26 0
14 15 16 17 18 19 20 22 23 24 25 26 0
14 15 16 17 18 19 21 22 23 24 25 26 0
14 15 16 17 18 20 21 22 23 24 25 26 0
14 15 16 17 19 20 21 22 23 24 25 26 0
14 15 16 18 19 20 21 22 23 24 25 26 0
14 15 17 18 19 20 21 22 23 24 25 26 0
14 16 17 18 19 20 21 22 23 24 25 26 0
15 16 17 18 19 20 21 22 23 24 25 26 0
-27 -28 -29 0
-27 -28 -30 0
-27 -28 -31 0
-27 -28 -32 0
-27 -28 -33 0
-27 -28 -34 0
-27 -28 -35 0
-27 -28 -36 0
-27 -28 -37 0
-27 -28 -38 0
-27 -28 -39 0
-27 -29 -30 0
-27 -29 -31 0
-27 -29 -32 0
-27 -29 -33 0
-27 -29 -34 0
-27 -29 -35 0
-27 -29 -36 0
-27 -29 -37 0
-27 -29 -38 0
-27 -29 -39 0
-27 -30 -31 0
-27 -30 -32 0
-27 -30 -33 0
-27 -30 -34 0
-27 -30 -35 0
-27 -30 -36 0
-27 -30 -37 0
-27 -30 -38 0
-27 -30 -39 0
-27 -31 -32 0
-27 -31 -33 0
-27 -31 -34 0
-27 -31 -35 0
-27 -31 -36 0
-27 -31 -37 0
-27 -31 -38 0
-27 -31 -39 0
-27 -32 -33 0
-27 -32 -34 0
-27 -32 -35 0
-27 -32 -36 0
-27 -32 -37 0
-27 -32 -38 0
-27 -32 -39 0
-27 -33 -34 0
-27 -33 -35 0
-27 -33 -36 0
-27 -33 -37 0
-27 -33 -38 0
-27 -33 -39 0
-27 -34 -35 0
-27 -34 -36 0
-27 -34 -37 0
-27 -34 -38 0
-27 -34 -39 0
-27 -35 -36 0
-27 -35 -37 0
-27 -35 -38 0
-27 -35 -39 0
-27 -36 -37 0
-27 -36 -38 0
-27 -36 -39 0
-27 -37 -38 0
-27 -37 -39 0
-27 -38 -39 0
-28 -29 -30 0
-28 -29 -31 0
-28 -29 -32 0
-28 -29 -33 0
-28 -29 -34 0
-28 -29 -35 0
-28 -29 -36 0
-28 -29 -37 0
-28 -29 -38 0
-28 -29 -39 0
-28 -30 -31 0
-28 -30 -32 0
-28 -30 -33 0
-28 -30 -34 0
-28 -30 -35 0
-28 -30 -36 0
-28 -30 -37 0
-28 -30 -38 0
-28 -30 -39 0
-28 -31 -32 0
-28 -31 -33 0
-28 -31 -34 0
-28 -31 -35 0
-28 -31 -36 0
-28 -31 -37 0
-28 -31 -38 0
-28 -31 -39 0
-28 -32 -33 0
-28 -32 -34 0
-28 -32 -35 0
-28 -32 -36 0
-28 -32 -37 0
-28 -32 -38 0
-28 -32 -39 0
-28 -33 -34 0
-28 -33 -35 0
-28 -33 -36 0
-28 -33 -37 0
-28 -33 -38 0
-28 -33 -39 0
-28 -34 -35 0
-28 -34 -36 0
-28 -34 -37 0
-28 -34 -38 0
-28 -34 -39 0
-28 -35 -36 0
-28 -35 -37 0
-28 -35 -38 0
-28 -35 -39 0
-28 -36 -37 0
-28 -36 -38 0
-28 -36 -39 0
-28 -37 -38 0
-28 -37 -39 0
-28 -38 -39 0
-29 -30 -31 0
-29 -30 -32 0
-29 -30 -33 0
-29 -30 -34 0
-29 -30 -35 0
-29 -30 -36 0
-29 -30 -37 0
-29 -30 -38 0
-29 -30 -39 0
-29 -31 -32 0
-29 -31 -33 0
-29 -31 -34 0
-29 -31 -35 0
-29 -31 -36 0
-29 -31 -37 0
-29 -31 -38 0
-29 -31 -39 0
-29 -32 -33 0
-29 -32 -34 0
-29 -32 -35 0
-29 -32 -36 0
-29 -32 -37 0
-29 -32 -38 0
-29 -32 -39 0
-29 -33 -34 0
-29 -33 -35 0
-29 -33 -36 0
-29 -33 -37 0
-29 -33 -38 0
-29 -33 -39 0
-29 -34 -35 0
-29 -34 -36 0
-29 -34 -37 0
-29 -34 -38 0
-29 -34 -39 0
-29 -35 -36 0
-29 -35 -37 0
-29 -35 -38 0
-29 -35 -39 0
-29 -36 -37 0
-29 -36 -38 0
-29 -36 -39 0
-29 -37 -38 0
-29 -37 -39 0
-29 -38 -39 0
-30 -31 -32 0
-30 -31 -33 0
-30 -31 -34 0
-30 -31 -35 0
-30 -31 -36 0
-30 -31 -37 0
-30 -31 -38 0
-30 -31 -39 0
-30 -32 -33 0
-30 -32 -34 0
-30 -32 -35 0
-30 -32 -36 0
-30 -32 -37 0
-30 -32 -38 0
-30 -32 -39 0
-30 -33 -34 0
-30 -33 -35 0
-30 -33 -36 0
-30 -33 -37 0
-30 -33 -38 0
-30 -33 -39 0
-30 -34 -35 0
-30 -34 -36 0
-30 -34 -37 0
-30 -34 -38 0
-30 -34 -39 0
-30 -35 -36 0
-30 -35 -37 0
-30 -35 -38 0
-30 -35 -39 0
-30 -36 -37 0
-30 -36 -38 0
-30 -36 -39 0
-30 -37 -38 0
-30 -37 -39 0
-30 -38 -39 0
-31 -32 -33 0
-31 -32 -34 0
-31 -32 -35 0
-31 -32 -36 0
-31 -32 -37 0
-31 -32 -38 0
-31 -32 -39 0
-31 -33 -34 0
-31 -33 -35 0
-31 -33 -36 0
-31 -33 -37 0
-31 -33 -38 0
-31 -33 -39 0
-31 -34 -35 0
-31 -34 -36 0
-31 -34 -37 0
-31 -34 -38 0
-31 -34 -39 0
-31 -35 -36 0
-31 -35 -37 0
-31 -35 -38 0
-31 -35 -39 0
-31 -36 -37 0
-31 -36 -38 0
-31 -36 -39 0
-31 -37 -38 0
-31 -37 -39 0
-31 -38 -39 0
-32 -33 -34 0
-32 -33 -35 0
-32 -33 -36 0
-32 -33 -37 0
-32 -33 -38 0
-32 -33 -39 0
-32 -34 -35 0
-32 -34 -36 0
-32 -34 -37 0
-32 -34 -38 0
-32 -34 -39 0
-32 -35 -36 0
-32 -35 -37 0
-32 -35 -38 0
-32 -35 -39 0
-32 -36 -37 0
-32 -36 -38 0
-32 -36 -39 0
-32 -37 -38 0
-32 -37 -39 0
-32 -38 -39 0
-33 -34 -35 0
-33 -34 -36 0
-33 -34 -37 0
-33 -34 -38 0
-33 -34 -39 0
-33 -35 -36 0
-33 -35 -37 0
-33 -35 -38 0
-33 -35 -39 0
-33 -36 -37 0
-33 -36 -38 0
-33 -36 -39 0
-33 -37 -38 0
-33 -37 -39 0
-33 -38 -39 0
-34 -35 -36 0
-34 -35 -37 0
-34 -35 -38 0
-34 -35 -39 0
-34 -36 -37 0
-34 -36 -38 0
-34 -36 -39 0
-34 -37 -38 0
-34 -37 -39 0
-34 -38 -39 0
-35 -36 -37 0
-35 -36 -38 0
-35 -36 -39 0
-35 -37 -38 0
-35 -37 -39 0
-35 -38 -39 0
-36 -37 -38 0
-36 -37 -39 0
-36 -38 -39 0
-37 -38 -39 0
27 28 29 30 31 32 33 34 35 36 37 38 0
27 28 29 30 31 32 33 34 35 36 37 39 0
27 28 29 30 31 32 33 34 35 36 38 39 0
27 28 29 30 31 32 33 34 35 37 38 39 0
27 28 29 30 31 32 33 34 36 37 38 39 0
27 28 29 30 31 32 33 35 36 37 38 39 0
27 28 29 30 31 32 34 35 36 37 38 39 0
27 28 29 30 31 33 34 35 36 37 38 39 0
27 28 29 30 32 33 34 35 36 37 38 39 0
27 28 29 31 32 33 34 35 36 37 38 39 0
27 28 30 31 32 33 34 35 36 37 38 39 0
27 29 30 31 32 33 34 35 36 37 38 39 0
28 29 30 31 32 33 34 35 36 37 38 39 0
-40 -41 -42 0
-40 -41 -43 0
-40 -41 -44 0
-40 -41 -45 0
-40 -41 -46 0
-40 -41 -47 0
-40 -41 -48 0
-40 -41 -49 0
-40 -41 -50 0
-40 -41 -51 0
-40 -41 -52 0
-40 -42 -43 0
-40 -42 -44 0
-40 -42 -45 0
-40 -42 -46 0
-40 -42 -47 0
-40 -42 -48 0
-40 -42 -49 0
-40 -42 -50 0
-40 -42 -51 0
-40 -42 -52 0
-40 -43 -44 0
-40 -43 -45 0
-40 -43 -46 0
-40 -43 -47 0
-40 -43 -48 0
-40 -43 -49 0
-40 -43 -50 0
-40 -43 -51 0
-40 -43 -52 0
-40 -44 -45 0
-40 -44 -46 0
-40 -44 -47 0
-40 -44 -48 0
-40 -44 -49 0
-40 -44 -50 0
-40 -44 -51 0
-40 -44 -52 0
-40 -45 -46 0
-40 -45 -47 0
-40 -45 -48 0
-40 -45 -49 0
-40 -45 -50 0
-40 -45 -51 0
-40 -45 -52 0
-40 -46 -47 0
-40 -46 -48 0
-40 -46 -49 0
-40 -46 -50 0
-40 -46 -51 0
-40 -46 -52 0
-40 -47 -48 0
-40 -47 -49 0
-40 -47 -50 0
-40 -47 -51 0
-40 -47 -52 0
-40 -48 -49 0
-40 -48 -50 0
-40 -48 -51 0
-40 -48 -52 0
-40 -49 -50 0
-40 -49 -51 0
-40 -49 -52 0
-40 -50 -51 0
-40 -50 -52 0
-40 -51 -52 0
-41 -42 -43 0
-41 -42 -44 0
-41 -42 -45 0
-41 -42 -46 0
-41 -42 -47 0
-41 -42 -48 0
-41 -42 -49 0
-41 -42 -50 0
-41 -42 -51 0
-41 -42 -52 0
-41 -43 -44 0
-41 -43 -45 0
-41 -43 -46 0
-41 -43 -47 0
-41 -43 -48 0
-41 -43 -49 0
-41 -43 -50 0
-41 -43 -51 0
-41 -43 -52 0
-41 -44 -45 0
-41 -44 -46 0
-41 -44 -47 0
-41 -44 -48 0
-41 -44 -49 0
-41 -44 -50 0
-41 -44 -51 0
-41 -44 -52 0
-41 -45 -46 0
-41 -45 -47 0
-41 -45 -48 0
-41 -45 -49 0
-41 -45 -50 0
-41 -45 -51 0
-41 -45 -52 0
-41 -46 -47 0
-41 -46 -48 0
-41 -46 -49 0
-41 -46 -50 0
-41 -46 -51 0
-41 -46 -52 0
-41 -47 -48 0
-41 -47 -49 0
-41 -47 -50 0
-41 -47 -51 0
-41 -47 -52 0
-41 -48 -49 0
-41 -48 -50 0
-41 -48 -51 0
-41 -48 -52 0
-41 -49 -50 0
-41 -49 -51 0
-41 -49 -52 0
-41 -50 -51 0
-41 -50 -52 0
-41 -51 -52 0
-42 -43 -44 0
-42 -43 -45 0
-42 -43 -46 0
-42 -43 -47 0
-42 -43 -48 0
-42 -43 -49 0
-42 -43 -50 0
-42 -43 -51 0
-42 -43 -52 0
-42 -44 -45 0
-42 -44 -46 0
-42 -44 -47 0
-42 -44 -48 0
-42 -44 -49 0
-42 -44 -50 0
-42 -44 -51 0
-42 -44 -52 0
-42 -45 -46 0
-42 -45 -47 0
-42 -45 -48 0
-42 -45 -49 0
-42 -45 -50 0
-42 -45 -51 0
-42 -45 -52 0
-42 -46 -47 0
-42 -46 -48 0
-42 -46 -49 0
-42 -46 -50 0
-42 -46 -51 0
-42 -46 -52 0
-42 -47 -48 0
-42 -47 -49 0
-42 -47 -50 0
-42 -47 -51 0
-42 -47 -52 0
-42 -48 -49 0
-42 -48 -50 0
-42 -48 -51 0
-42 -48 -52 0
-42 -49 -50 0
-42 -49 -51 0
-42 -49 -52 0
-42 -50 -51 0
-42 -50 -52 0
-42 -51 -52 0
-43 -44 -45 0
-43 -44 -46 0
-43 -44 -47 0
-43 -44 -48 0
-43 -44 -49 0
-43 -44 -50 0
-43 -44 -51 0
-43 -44 -52 0
-43 -45 -46 0
-43 -45 -47 0
-43 -45 -48 0
-43 -45 -49 0
-43 -45 -50 0
-43 -45 -51 0
-43 -45 -52 0
-43 -46 -47 0
-43 -46 -48 0
-43 -46 -49 0
-43 -46 -50 0
-43 -46 -51 0
-43 -46 -52 0
-43 -47 -48 0
-43 -47 -49 0
-43 -47 -50 0
-43 -47 -51 0
-43 -47 -52 0
-43 -48 -49 0
-43 -48 -50 0
-43 -48 -51 0
-43 -48 -52 0
-43 -49 -50 0
-43 -49 -51 0
-43 -49 -52 0
-43 -50 -51 0
-43 -50 -52 0
-43 -51 -52 0
-44 -45 -46 0
-44 -45 -47 0
-44 -45 -48 0
-44 -45 -49 0
-44 -45 -50 0
-44 -45 -51 0
-44 -45 -52 0
-44 -46 -47 0
-44 -46 -48 0
-44 -46 -49 0
-44 -46 -50 0
-44 -46 -51 0
-44 -46 -52 0
-44 -47 -48 0
-44 -47 -49 0
-44 -47 -50 0
-44 -47 -51 0
-44 -47 -52 0
-44 -48 -49 0
-44 -48 -50 0
-44 -48 -51 0
-44 -48 -52 0
-44 -49 -50 0
-44 -49 -51 0
-44 -49 -52 0
-44 -50 -51 0
-44 -50 -52 0
-44 -51 -52 0
-45 -46 -47 0
-45 -46 -48 0
-45 -46 -49 0
-45 -46 -50 0
-45 -46 -51 0
-45 -46 -52 0
-45 -47 -48 0
-45 -47 -49 0
-45 -47 -50 0
-45 -47 -51 0
-45 -47 -52 0
-45 -48 -49 0
-45 -48 -50 0
-45 -48 -51 0
-45 -48 -52 0
-45 -49 -50 0
-45 -49 -51 0
-45 -49 -52 0
-45 -50 -51 0
-45 -50 -52 0
-45 -51 -52 0
-46 -47 -48 0
-46 -47 -49 0
-46 -47 -50 0
-46 -47 -51 0
-46 -47 -52 0
-46 -48 -49 0
-46 -48 -50 0
-46 -48 -51 0
-46 -48 -52 0
-46 -49 -50 0
-46 -49 -51 0
-46 -49 -52 0
-46 -50 -51 0
-46 -50 -52 0
-46 -51 -52 0
-47 -48 -49 0
-47 -48 -50 0
-47 -48 -51 0
-47 -48 -52 0
-47 -49 -50 0
-47 -49 -51 0
-47 -49 -52 0
-47 -50 -51 0
-47 -50 -52 0
-47 -51 -52 0
-48 -49 -50 0
-48 -49 -51 0
-48 -49 -52 0
-48 -50 -51 0
-48 -50 -52 0
-48 -51 -52 0
-49 -50 -51 0
-49 -50 -52 0
-49 -51 -52 0
-50 -51 -52 0
40 41 42 43 44 45 46 47 48 49 50 51 0
40 41 42 43 44 45 46 47 48 49 50 52 0
40 41 42 43 44 45 46 47 48 49 51 52 0
40 41 42 43 44 45 46 47 48 50 51 52 0
40 41 42 43 44 45 46 47 49 50 51 52 0
40 41 42 43 44 45 46 48 49 50 51 52 0
40 41 42 43 44 45 47 48 49 50 51 52 0
40 41 42 43 44 46 47 48 49 50 51 52 0
40 41 42 43 45 46 47 48 49 50 51 52 0
40 41 42 44 45 46 47 48 49 50 51 52 0
40 41 43 44 45 46 47 48 49 50 51 52 0
40 42 43 44 45 46 47 48 49 50 51 52 0
41 42 43 44 45 46 47 48 49 50 51 52 0
-53 -54 -55 0
-53 -54 -56 0
-53 -54 -57 0
-53 -54 -58 0
-53 -54 -59 0
-53 -54 -60 0
-53 -54 -61 0
-53 -54 -62 0
-53 -54 -63 0
-53 -54 -64 0
-53 -54 -65 0
-53 -55 -56 0
-53 -55 -57 0
-53 -55 -58 0
-53 -55 -59 0
-53 -55 -60 0
-53 -55 -61 0
-53 -55 -62 0
-53 -55 -63 0
-53 -55 -64 0
-53 -55 -65 0
-53 -56 -57 0
-53 -56 -58 0
-53 -56 -59 0
-53 -56 -60 0
-53 -56 -61 0
-53 -56 -62 0
-53 -56 -63 0
-53 -56 -64 0
-53 -56 -65 0
-53 -57 -58 0
-53 -57 -59 0
-53 -57 -60 0
-53 -57 -61 0
-53 -57 -62 0
-53 -57 -63 0
-53 -57 -64 0
-53 -57 -65 0
-53 -58 -59 0
-53 -58 -60 0
-53 -58 -61 0
-53 -58 -62 0
-53 -58 -63 0
-53 -58 -64 0
-53 -58 -65 0
-53 -59 -60 0
-53 -59 -61 0
-53 -59 -62 0
-53 -59 -63 0
-53 -59 -64 0
-53 -59 -65 0
-53 -60 -61 0
-53 -60 -62 0
-53 -60 -63 0
-53 -60 -64 0
-53 -60 -65 0
-53 -61 -62 0
-53 -61 -63 0
-53 -61 -64 0
-53 -61 -65 0
-53 -62 -63 0
-53 -62 -64 0
-53 -62 -65 0
-53 -63 -64 0
-53 -63 -65 0
-53 -64 -65 0
-54 -55 -56 0
-54 -55 -57 0
-54 -55 -58 0
-54 -55 -59 0
-54 -55 -60 0
-54 -55 -61 0
-54 -55 -62 0
-54 -55 -63 0
-54 -55 -64 0
-54 -55 -65 0
-54 -56 -57 0
-54 -56 -58 0
-54 -56 -59 0
-54 -56 -60 0
-54 -56 -61 0
-54 -56 -62 0
-54 -56 -63 0
-54 -56 -64 0
-54 -56 -65 0
-54 -57 -58 0
-54 -57 -59 0
-54 -57 -60 0
-54 -57 -61 0
-54 -57 -62 0
-54 -57 -63 0
-54 -57 -64 0
-54 -57 -65 0
-54 -58 -59 0
-54 -58 -60 0
-54 -58 -61 0
-54 -58 -62 0
-54 -58 -63 0
-54 -58 -64 0
-54 -58 -65 0
-54 -59 -60 0
-54 -59 -61 0
-54 -59 -62 0
-54 -59 -63 0
-54 -59 -64 0
-54 -59 -65 0
-54 -60 -61 0
-54 -60 -62 0
-54 -60 -63 0
-54 -60 -64 0
-54 -60 -65 0
-54 -61 -62 0
-54 -61 -63 0
-54 -61 -64 0
-54 -61 -65 0
-54 -62 -63 0
-54 -62 -64 0
-54 -62 -65 0
-54 -63 -64 0
-54 -63 -65 0
-54 -64 -65 0
-55 -56 -57 0
-55 -56 -58 0
-55 -56 -59 0
-55 -56 -60 0
-55 -56 -61 0
-55 -56 -62 0
-55 -56 -63 0
-55 -56 -64 0
-55 -56 -65 0
-55 -57 -58 0
-55 -57 -59 0
-55 -57 -60 0
-55 -57 -61 0
-55 -57 -62 0
-55 -57 -63 0
-55 -57 -64 0
-55 -57 -65 0
-55 -58 -59 0
-55 -58 -60 0
-55 -58 -61 0
-55 -58 -62 0
-55 -58 -63 0
-55 -58 -64 0
-55 -58 -65 0
-55 -59 -60 0
-55 -59 -61 0
-55 -59 -62 0
-55 -59 -63 0
-55 -59 -64 0
-55 -59 -65 0
-55 -60 -61 0
-55 -60 -62 0
-55 -60 -63 0
-55 -60 -64 0
-55 -60 -65 0
-55 -61 -62 0
-55 -61 -63 0
-55 -61 -64 0
-55 -61 -65 0
-55 -62 -63 0
-55 -62 -64 0
-55 -62 -65 0
-55 -63 -64 0
-55 -63 -65 0
-55 -64 -65 0
-56 -57 -58 0
-56 -57 -59 0
-56 -57 -60 0
-56 -57 -61 0
-56 -57 -62 0
-56 -57 -63 0
-56 -57 -64 0
-56 -57 -65 0
-56 -58 -59 0
-56 -58 -60 0
-56 -58 -61 0
-56 -58 -62 0
-56 -58 -63 0
-56 -58 -64 0
-56 -58 -65 0
-56 -59 -60 0
-56 -59 -61 0
-56 -59 -62 0
-56 -59 -63 0
-56 -59 -64 0
-56 -59 -65 0
-56 -60 -61 0
-56 -60 -62 0
-56 -60 -63 0
-56 -60 -64 0
-56 -60 -65 0
-56 -61 -62 0
-56 -61 -63 0
-56 -61 -64 0
-56 -61 -65 0
-56 -62 -63 0
-56 -62 -64 0
-56 -62 -65 0
-56 -63 -64 0
-56 -63 -65 0
-56 -64 -65 0
-57 -58 -59 0
-57 -58 -60 0
-57 -58 -61 0
-57 -58 -62 0
-57 -58 -63 0
-57 -58 -64 0
-57 -58 -65 0
-57 -59 -60 0
-57 -59 -61 0
-57 -59 -62 0
-57 -59 -63 0
-57 -59 -64 0
-57 -59 -65 0
-57 -60 -61 0
-57 -60 -62 0
-57 -60 -63 0
-57 -60 -64 0
-57 -60 -65 0
-57 -61 -62 0
-57 -61 -63 0
-57 -61 -64 0
-57 -61 -65 0
-57 -62 -63 0
-57 -62 -64 0
-57 -62 -65 0
-57 -63 -64 0
-57 -63 -65 0
-57 -64 -65 0
-58 -59 -60 0
-58 -59 -61 0
-58 -59 -62 0
-58 -59 -63 0
-58 -59 -64 0
-58 -59 -65 0
-58 -60 -61 0
-58 -60 -62 0
-58 -60 -63 0
-58 -60 -64 0
-58 -60 -65 0
-58 -61 -62 0
-58 -61 -63 0
-58 -61 -64 0
-58 -61 -65 0
-58 -62 -63 0
-58 -62 -64 0
-58 -62 -65 0
-58 -63 -64 0
-58 -63 -65 0
-58 -64 -65 0
-59 -60 -61 0
-59 -60 -62 0
-59 -60 -63 0
-59 -60 -64 0
-59 -60 -65 0
-59 -61 -62 0
-59 -61 -63 0
-59 -61 -64 0
-59 -61 -65 0
-59 -62 -63 0
-59 -62 -64 0
-59 -62 -65 0
-59 -63 -64 0
-59 -63 -65 0
-59 -64 -65 0
-60 -61 -62 0
-60 -61 -63 0
-60 -61 -64 0
-60 -61 -65 0
-60 -62 -63 0
-60 -62 -64 0
-60 -62 -65 0
-60 -63 -64 0
-60 -63 -65 0
-60 -64 -65 0
-61 -62 -63 0
-61 -62 -64 0
-61 -62 -65 0
-61 -63 -64 0
-61 -63 -65 0
-61 -64 -65 0
-62 -63 -64 0
-62 -63 -65 0
-62 -64 -65 0
-63 -64 -65 0
53 54 55 56 57 58 59 60 61 62 63 64 0
53 54 55 56 57 58 59 60 61 62 63 65 0
53 54 55 56 57 58 59 60 61 62 64 65 0
53 54 55 56 57 58 59 60 61 63 64 65 0
53 54 55 56 57 58 59 60 62 63 64 65 0
53 54 55 56 57 58 59 61 62 63 64 65 0
53 54 55 56 57 58 60 61 62 63 64 65 0
53 54 55 56 57 59 60 61 62 63 64 65 0
53 54 55 56 58 59 60 61 62 63 64 65 0
53 54 55 57 58 59 60 61 62 63 64 65 0
53 54 56 57 58 59 60 61 62 63 64 65 0
53 55 56 57 58 59 60 61 62 63 64 65 0
54 55 56 57 58 59 60 61 62 63 64 65 0
-66 -67 -68 0
-66 -67 -69 0
-66 -67 -70 0
-66 -67 -71 0
-66 -67 -72 0
-66 -67 -73 0
-66 -67 -74 0
-66 -67 -75 0
-66 -67 -76 0
-66 -67 -77 0
-66 -67 -78 0
-66 -68 -69 0
-66 -68 -70 0
-66 -68 -71 0
-66 -68 -72 0
-66 -68 -73 0
-66 -68 -74 0
-66 -68 -75 0
-66 -68 -76 0
-66 -68 -77 0
-66 -68 -78 0
-66 -69 -70 0
-66 -69 -71 0
-66 -69 -72 0
-66 -69 -73 0
-66 -69 -74 0
-66 -69 -75 0
-66 -69 -76 0
-66 -69 -77 0
-66 -69 -78 0
-66 -70 -71 0
-66 -70 -72 0
-66 -70 -73 0
-66 -70 -74 0
-66 -70 -75 0
-66 -70 -76 0
-66 -70 -77 0
-66 -70 -78 0
-66 -71 -72 0
-66 -71 -73 0
-66 -71 -74 0
-66 -71 -75 0
-66 -71 -76 0
-66 -71 -77 0
-66 -71 -78 0
-66 -72 -73 0
-66 -72 -74 0
-66 -72 -75 0
-66 -72 -76 0
-66 -72 -77 0
-66 -72 -78 0
-66 -73 -74 0
-66 -73 -75 0
-66 -73 -76 0
-66 -73 -77 0
-66 -73 -78 0
-66 -74 -75 0
-66 -74 -76 0
-66 -74 -77 0
-66 -74 -78 0
-66 -75 -76 0
-66 -75 -77 0
-66 -75 -78 0
-66 -76 -77 0
-66 -76 -78 0
-66 -77 -78 0
-67 -68 -69 0
-67 -68 -70 0
-67 -68 -71 0
-67 -68 -72 0
-67 -68 -73 0
-67 -68 -74 0
-67 -68 -75 0
-67 -68 -76 0
-67 -68 -77 0
-67 -68 -78 0
-67 -69 -70 0
-67 -69 -71 0
-67 -69 -72 0
-67 -69 -73 0
-67 -69 -74 0
-67 -69 -75 0
-67 -69 -76 0
-67 -69 -77 0
-67 -69 -78 0
-67 -70 -71 0
-67 -70 -72 0
-67 -70 -73 0
-67 -70 -74 0
-67 -70 -75 0
-67 -70 -76 0
-67 -70 -77 0
-67 -70 -78 0
-67 -71 -72 0
-67 -71 -73 0
-67 -71 -74 0
-67 -71 -75 0
-67 -71 -76 0
-67 -71 -77 0
-67 -71 -78 0
-67 -72 -73 0
-67 -72 -74 0
-67 -72 -75 0
-67 -72 -76 0
-67 -72 -77 0
-67 -72 -78 0
-67 -73 -74 0
-67 -73 -75 0
-67 -73 -76 0
-67 -73 -77 0
-67 -73 -78 0
-67 -74 -75 0
-67 -74 -76 0
-67 -74 -77 0
-67 -74 -78 0
-67 -75 -76 0
-67 -75 -77 0
-67 -75 -78 0
-67 -76 -77 0
-67 -76 -78 0
-67 -77 -78 0
-68 -69 -70 0
-68 -69 -71 0
-68 -69 -72 0
-68 -69 -73 0
-68 -69 -74 0
-68 -69 -75 0
-68 -69 -76 0
-68 -69 -77 0
-68 -69 -78 0
-68 -70 -71 0
-68 -70 -72 0
-68 -70 -73 0
-68 -70 -74 0
-68 -70 -75 0
-68 -70 -76 0
-68 -70 -77 0
-68 -70 -78 0
-68 -71 -72 0
-68 -71 -73 0
-68 -71 -74 0
-68 -71 -75 0
-68 -71 -76 0
-68 -71 -77 0
-68 -71 -78 0
-68 -72 -73 0
-68 -72 -74 0
-68 -72 -75 0
-68 -72 -76 0
-68 -72 -77 0
-68 -72 -78 0
-68 -73 -74 0
-68 -73 -75 0
-68 -73 -76 0
-68 -73 -77 0
-68 -73 -78 0
-68 -74 -75 0
-68 -74 -76 0
-68 -74 -77 0
-68 -74 -78 0
-68 -75 -76 0
-68 -75 -77 0
-68 -75 -78 0
-68 -76 -77 0
-68 -76 -78 0
-68 -77 -78 0
-69 -70 -71 0
-69 -70 -72 0
-69 -70 -73 0
-69 -70 -74 0
-69 -70 -75 0
-69 -70 -76 0
-69 -70 -77 0
-69 -70 -78 0
-69 -71 -72 0
-69 -71 -73 0
-69 -71 -74 0
-69 -71 -75 0
-69 -71 -76 0
-69 -71 -77 0
-69 -71 -78 0
-69 -72 -73 0
-69 -72 -74 0
-69 -72 -75 0
-69 -72 -76 0
-69 -72 -77 0
-69 -72 -78 0
-69 -73 -74 0
-69 -73 -75 0
-69 -73 -76 0
-69 -73 -77 0
-69 -73 -78 0
-69 -74 -75 0
-69 -74 -76 0
-69 -74 -77 0
-69 -74 -78 0
-69 -75 -76 0
-69 -75 -77 0
-69 -75 -78 0
-69 -76 -77 0
-69 -76 -78 0
-69 -77 -78 0
-70 -71 -72 0
-70 -71 -73 0
-70 -71 -74 0
-70 -71 -75 0
-70 -71 -76 0
-70 -71 -77 0
-70 -71 -78 0
-70 -72 -73 0
-70 -72 -74 0
-70 -72 -75 0
-70 -72 -76 0
-70 -72 -77 0
-70 -72 -78 0
-70 -73 -74 0
-70 -73 -75 0
-70 -73 -76 0
-70 -73 -77 0
-70 -73 -78 0
-70 -74 -75 0
-70 -74 -76 0
-70 -74 -77 0
-70 -74 -78 0
-70 -75 -76 0
-70 -75 -77 0
-70 -75 -78 0
-70 -76 -77 0
-70 -76 -78 0
-70 -77 -78 0
-71 -72 -73 0
-71 -72 -74 0
-71 -72 -75 0
-71 -72 -76 0
-71 -72 -77 0
-71 -72 -78 0
-71 -73 -74 0
-71 -73 -75 0
-71 -73 -76 0
-71 -73 -77 0
-71 -73 -78 0
-71 -74 -75 0
-71 -74 -76 0
-71 -74 -77 0
-71 -74 -78 0
-71 -75 -76 0
-71 -75 -77 0
-71 -75 -78 0
-71 -76 -77 0
-71 -76 -78 0
-71 -77 -78 0
-72 -73 -74 0
-72 -73 -75 0
-72 -73 -76 0
-72 -73 -77 0
-72 -73 -78 0
-72 -74 -75 0
-72 -74 -76 0
-72 -74 -77 0
-72 -74 -78 0
-72 -75 -76 0
-72 -75 -77 0
-72 -75 -78 0
-72 -76 -77 0
-72 -76 -78 0
-72 -77 -78 0
-73 -74 -75 0
-73 -74 -76 0
-73 -74 -77 0
-73 -74 -78 0
-73 -75 -76 0
-73 -75 -77 0
-73 -75 -78 0
-73 -76 -77 0
-73 -76 -78 0
-73 -77 -78 0
-74 -75 -76 0
-74 -75 -77 0
-74 -75 -78 0
-74 -76 -77 0
-74 -76 -78 0
-74 -77 -78 0
-75 -76 -77 0
-75 -76 -78 0
-75 -77 -78 0
-76 -77 -78 0
66 67 68 69 70 71 72 73 74 75 76 77 0
66 67 68 69 70 71 72 73 74 75 76 78 0
66 67 68 69 70 71 72 73 74 75 77 78 0
66 67 68 69 70 71 72 73 74 76 77 78 0
66 67 68 69 70 71 72 73 75 76 77 78 0
66 67 68 69 70 71 72 74 75 76 77 78 0
66 67 68 69 70 71 73 74 75 76 77 78 0
66 67 68 69 70 72 73 74 75 76 77 78 0
66 67 68 69 71 72 73 74 75 76 77 78 0
66 67 68 70 71 72 73 74 75 76 77 78 0
66 67 69 70 71 72 73 74 75 76 77 78 0
66 68 69 70 71 72 73 74 75 76 77 78 0
67 68 69 70 71 72 73 74 75 76 77 78 0
-79 -80 -81 0
-79 -80 -82 0
-79 -80 -83 0
-79 -80 -84 0
-79 -80 -85 0
-79 -80 -86 0
-79 -80 -87 0
-79 -80 -88 0
-79 -80 -89 0
-79 -80 -90 0
-79 -80 -91 0
-79 -81 -82 0
-79 -81 -83 0
-79 -81 -84 0
-79 -81 -85 0
-79 -81 -86 0
-79 -81 -87 0
-79 -81 -88 0
-79 -81 -89 0
-79 -81 -90 0
-79 -81 -91 0
-79 -82 -83 0
-79 -82 -84 0
-79 -82 -85 0
-79 -82 -86 0
-79 -82 -87 0
-79 -82 -88 0
-79 -82 -89 0
-79 -82 -90 0
-79 -82 -91 0
-79 -83 -84 0
-79 -83 -85 0
-79 -83 -86 0
-79 -83 -87 0
-79 -83 -88 0
-79 -83 -89 0
-79 -83 -90 0
-79 -83 -91 0
-79 -84 -85 0
-79 -84 -86 0
-79 -84 -87 0
-79 -84 -88 0
-79 -84 -89 0
-79 -84 -90 0
-79 -84 -91 0
-79 -85 -86 0
-79 -85 -87 0
-79 -85 -88 0
-79 -85 -89 0
-79 -85 -90 0
-79 -85 -91 0
-79 -86 -87 0
-79 -86 -88 0
-79 -86 -89 0
-79 -86 -90 0
-79 -86 -91 0
-79 -87 -88 0
-79 -87 -89 0
-79 -87 -90 0
-79 -87 -91 0
-79 -88 -89 0
-79 -88 -90 0
-79 -88 -91 0
-79 -89 -90 0
-79 -89 -91 0
-79 -90 -91 0
-80 -81 -82 0
-80 -81 -83 0
-80 -81 -84 0
-80 -81 -85 0
-80 -81 -86 0
-80 -81 -87 0
-80 -81 -88 0
-80 -81 -89 0
-80 -81 -90 0
-80 -81 -91 0
-80 -82 -83 0
-80 -82 -84 0
-80 -82 -85 0
-80 -82 -86 0
-80 -82 -87 0
-80 -82 -88 0
-80 -82 -89 0
-80 -82 -90 0
-80 -82 -91 0
-80 -83 -84 0
-80 -83 -85 0
-80 -83 -86 0
-80 -83 -87 0
-80 -83 -88 0
-80 -83 -89 0
-80 -83 -90 0
-80 -83 -91 0
-80 -84 -85 0
-80 -84 -86 0
-80 -84 -87 0
-80 -84 -88 0
-80 -84 -89 0
-80 -84 -90 0
-80 -84 -91 0
-80 -85 -86 0
-80 -85 -87 0
-80 -85 -88 0
-80 -85 -89 0
-80 -85 -90 0
-80 -85 -91 0
-80 -86 -87 0
-80 -86 -88 0
-80 -86 -89 0
-80 -86 -90 0
-80 -86 -91 0
-80 -87 -88 0
-80 -87 -89 0
-80 -87 -90 0
-80 -87 -91 0
-80 -88 -89 0
-80 -88 -90 0
-80 -88 -91 0
-80 -89 -90 0
-80 -89 -91 0
-80 -90 -91 0
-81 -82 -83 0
-81 -82 -84 0
-81 -82 -85 0
-81 -82 -86 0
-81 -82 -87 0
-81 -82 -88 0
-81 -82 -89 0
-81 -82 -90 0
-81 -82 -91 0
-81 -83 -84 0
-81 -83 -85 0
-81 -83 -86 0
-81 -83 -87 0
-81 -83 -88 0
-81 -83 -89 0
-81 -83 -90 0
-81 -83 -91 0
-81 -84 -85 0
-81 -84 -86 0
-81 -84 -87 0
-81 -84 -88 0
-81 -84 -89 0
-81 -84 -90 0
-81 -84 -91 0
-81 -85 -86 0
-81 -85 -87 0
-81 -85 -88 0
-81 -85 -89 0
-81 -85 -90 0
-81 -85 -91 0
-81 -86 -87 0
-81 -86 -88 0
-81 -86 -89 0
-81 -86 -90 0
-81 -86 -91 0
-81 -87 -88 0
-81 -87 -89 0
-81 -87 -90 0
-81 -87 -91 0
-81 -88 -89 0
-81 -88 -90 0
-81 -88 -91 0
-81 -89 -90 0
-81 -89 -91 0
-81 -90 -91 0
-82 -83 -84 0
-82 -83 -85 0
-82 -83 -86 0
-82 -83 -87 0
-82 -83 -88 0
-82 -83 -89 0
-82 -83 -90 0
-82 -83 -91 0
-82 -84 -85 0
-82 -84 -86 0
-82 -84 -87 0
-82 -84 -88 0
-82 -84 -89 0
-82 -84 -90 0
-82 -84 -91 0
-82 -85 -86 0
-82 -85 -87 0
-82 -85 -88 0
-82 -85 -89 0
-82 -85 -90 0
-82 -85 -91 0
-82 -86 -87 0
-82 -86 -88 0
-82 -86 -89 0
-82 -86 -90 0
-82 -86 -91 0
-82 -87 -88 0
-82 -87 -89 0
-82 -87 -90 0
-82 -87 -91 0
-82 -88 -89 0
-82 -88 -90 0
-82 -88 -91 0
-82 -89 -90 0
-82 -89 -91 0
-82 -90 -91 0
-83 -84 -85 0
-83 -84 -86 0
-83 -84 -87 0
-83 -84 -88 0
-83 -84 -89 0
-83 -84 -90 0
-83 -84 -91 0
-83 -85 -86 0
-83 -85 -87 0
-83 -85 -88 0
-83 -85 -89 0
-83 -85 -90 0
-83 -85 -91 0
-83 -86 -87 0
-83 -86 -88 0
-83 -86 -89 0
-83 -86 -90 0
-83 -86 -91 0
-83 -87 -88 0
-83 -87 -89 0
-83 -87 -90 0
-83 -87 -91 0
-83 -88 -89 0
-83 -88 -90 0
-83 -88 -91 0
-83 -89 -90 0
-83 -89 -91 0
-83 -90 -91 0
-84 -85 -86 0
-84 -85 -87 0
-84 -85 -88 0
-84 -85 -89 0
-84 -85 -90 0
-84 -85 -91 0
-84 -86 -87 0
-84 -86 -88 0
-84 -86 -89 0
-84 -86 -90 0
-84 -86 -91 0
-84 -87 -88 0
-84 -87 -89 0
-84 -87 -90 0
-84 -87 -91 0
-84 -88 -89 0
-84 -88 -90 0
-84 -88 -91 0
-84 -89 -90 0
-84 -89 -91 0
-84 -90 -91 0
-85 -86 -87 0
-85 -86 -88 0
-85 -86 -89 0
-85 -86 -90 0
-85 -86 -91 0
-85 -87 -88 0
-85 -87 -89 0
-85 -87 -90 0
-85 -87 -91 0
-85 -88 -89 0
-85 -88 -90 0
-85 -88 -91 0
-85 -89 -90 0
-85 -89 -91 0
-85 -90 -91 0
-86 -87 -88 0
-86 -87 -89 0
-86 -87 -90 0
-86 -87 -91 0
-86 -88 -89 0
-86 -88 -90 0
-86 -88 -91 0
-86 -89 -90 0
-86 -89 -91 0
-86 -90 -91 0
-87 -88 -89 0
-87 -88 -90 0
-87 -88 -91 0
-87 -89 -90 0
-87 -89 -91 0
-87 -90 -91 0
-88 -89 -90 0
-88 -89 -91 0
-88 -90 -91 0
-89 -90 -91 0
79 80 81 82 83 84 85 86 87 88 89 90 0
79 80 81 82 83 84 85 86 87 88 89 91 0
79 80 81 82 83 84 85 86 87 88 90 91 0
79 80 81 82 83 84 85 86 87 89 90 91 0
79 80 81 82 83 84 85 86 88 89 90 91 0
79 80 81 82 83 84 85 87 88 89 90 91 0
79 80 81 82 83 84 86 87 88 89 90 91 0
79 80 81 82 83 85 86 87 88 89 90 91 0
79 80 81 82 84 85 86 87 88 89 90 91 0
79 80 81 83 84 85 86 87 88 89 90 91 0
79 80 82 83 84 85 86 87 88 89 90 91 0
79 81 82 83 84 85 86 87 88 89 90 91 0
80 81 82 83 84 85 86 87 88 89 90 91 0
-1 -14 0
-1 -27 0
-1 -40 0
-1 -53 0
-1 -66 0
-1 -79 0
-14 -27 0
-14 -40 0
-14 -53 0
-14 -66 0
-14 -79 0
-27 -40 0
-27 -53 0
-27 -66 0
-27 -79 0
-40 -53 0
-40 -66 0
-40 -79 0
-53 -66 0
-53 -79 0
-66 -79 0
-2 -15 0
-2 -28 0
-2 -41 0
-2 -54 0
-2 -67 0
-2 -80 0
-15 -28 0
-15 -41 0
-15 -54 0
-15 -67 0
-15 -80 0
-28 -41 0
-28 -54 0
-28 -67 0
-28 -80 0
-41 -54 0
-41 -67 0
-41 -80 0
-54 -67 0
-54 -80 0
-67 -80 0
-3 -16 0
-3 -29 0
-3 -42 0
-3 -55 0
-3 -68 0
-3 -81 0
-16 -29 0
-16 -42 0
-16 -55 0
-16 -68 0
-16 -81 0
-29 -42 0
-29 -55 0
-29 -68 0
-29 -81 0
-42 -55 0
-42 -68 0
-42 -81 0
-55 -68 0
-55 -81 0
-68 -81 0
-4 -17 0
-4 -30 0
-4 -43 0
-4 -56 0
-4 -69 0
-4 -82 0
-17 -30 0
-17 -43 0
-17 -56 0
-17 -69 0
-17 -82 0
-30 -43 0
-30 -56 0
-30 -69 0
-30 -82 0
-43 -56 0
-43 -69 0
-43 -82 0
-56 -69 0
-56 -82 0
-69 -82 0
-5 -18 0
-5 -31 0
-5 -44 0
-5 -57 0
-5 -70 0
-5 -83 0
-18 -31 0
-18 -44 0
-18 -57 0
-18 -70 0
-18 -83 0
-31 -44 0
-31 -57 0
-31 -70 0
-31 -83 0
-44 -57 0
-44 -70 0
-44 -83 0
-57 -70 0
-57 -83 0
-70 -83 0
-6 -19 0
-6 -32 0
-6 -45 0
-6 -58 0
-6 -71 0
-6 -84 0
-19 -32 0
-19 -45 0
-19 -58 0
-19 -71 0
-19 -84 0
-32 -45 0
-32 -58 0
-32 -71 0
-32 -84 0
-45 -58 0
-45 -71 0
-45 -84 0
-58 -71 0
-58 -84 0
-71 -84 0
-7 -20 0
-7 -33 0
-7 -46 0
-7 -59 0
-7 -72 0
-7 -85 0
-20 -33 0
-20 -46 0
-20 -59 0
-20 -72 0
-20 -85 0
-33 -46 0
-33 -59 0
-33 -72 0
-33 -85 0
-46 -59 0
-46 -72 0
-46 -85 0
-59 -72 0
-59 -85 0
-72 -85 0
-8 -21 0
-8 -34 0
-8 -47 0
-8 -60 0
-8 -73 0
-8 -86 0
-21 -34 0
-21 -47 0
-21 -60 0
-21 -73 0
-21 -86 0
-34 -47 0
-34 -60 0
-34 -73 0
-34 -86 0
-47 -60 0
-47 -73 0
-47 -86 0
-60 -73 0
-60 -86 0
-73 -86 0
-9 -22 0
-9 -35 0
-9 -48 0
-9 -61 0
-9 -74 0
-9 -87 0
-22 -35 0
-22 -48 0
-22 -61 0
-22 -74 0
-22 -87 0
-35 -48 0
-35 -61 0
-35 -74 0
-35 -87 0
-48 -61 0
-48 -74 0
-48 -87 0
-61 -74 0
-61 -87 0
-74 -87 0
-10 -23 0
-10 -36 0
-10 -49 0
-10 -62 0
-10 -75 0
-10 -88 0
-23 -36 0
-23 -49 0
-23 -62 0
-23 -75 0
-23 -88 0
-36 -49 0
-36 -62 0
-36 -75 0
-36 -88 0
-49 -62 0
-49 -75 0
-49 -88 0
-62 -75 0
-62 -88 0
-75 -88 0
-11 -24 0
-11 -37 0
-11 -50 0
-11 -63 0
-11 -76 0
-11 -89 0
-24 -37 0
-24 -50 0
-24 -63 0
-24 -76 0
-24 -89 0
-37 -50 0
-37 -63 0
-37 -76 0
-37 -89 0
-50 -63 0
-50 -76 0
-50 -89 0
-63 -76 0
-63 -89 0
-76 -89 0
-12 -25 0
-12 -38 0
-12 -51 0
-12 -64 0
-12 -77 0
-12 -90 0
-25 -38 0
-25 -51 0
-25 -64 0
-25 -77 0
-25 -90 0
-38 -51 0
-38 -64 0
-38 -77 0
-38 -90 0
-51 -64 0
-51 -77 0
-51 -90 0
-64 -77 0
-64 -90 0
-77 -90 0
-13 -26 0
-13 -39 0
-13 -52 0
-13 -65 0
-13 -78 0
-13 -91 0
-26 -39 0
-26 -52 0
-26 -65 0
-26 -78 0
-26 -91 0
-39 -52 0
-39 -65 0
-39 -78 0
-39 -91 0
-52 -65 0
-52 -78 0
-52 -91 0
-65 -78 0
-65 -91 0
-78 -91 0
