c Phase 3 generated performance instance
c family=exact_r_allocation
c scale=15
c variant=default
c noise_percent=0
c expected=UNSATISFIABLE
p cnf 120 4180
-1 -2 -3 0
-1 -2 -4 0
-1 -2 -5 0
-1 -2 -6 0
-1 -2 -7 0
-1 -2 -8 0
-1 -2 -9 0
-1 -2 -10 0
-1 -2 -11 0
-1 -2 -12 0
-1 -2 -13 0
-1 -2 -14 0
-1 -2 -15 0
-1 -3 -4 0
-1 -3 -5 0
-1 -3 -6 0
-1 -3 -7 0
-1 -3 -8 0
-1 -3 -9 0
-1 -3 -10 0
-1 -3 -11 0
-1 -3 -12 0
-1 -3 -13 0
-1 -3 -14 0
-1 -3 -15 0
-1 -4 -5 0
-1 -4 -6 0
-1 -4 -7 0
-1 -4 -8 0
-1 -4 -9 0
-1 -4 -10 0
-1 -4 -11 0
-1 -4 -12 0
-1 -4 -13 0
-1 -4 -14 0
-1 -4 -15 0
-1 -5 -6 0
-1 -5 -7 0
-1 -5 -8 0
-1 -5 -9 0
-1 -5 -10 0
-1 -5 -11 0
-1 -5 -12 0
-1 -5 -13 0
-1 -5 -14 0
-1 -5 -15 0
-1 -6 -7 0
-1 -6 -8 0
-1 -6 -9 0
-1 -6 -10 0
-1 -6 -11 0
-1 -6 -12 0
-1 -6 -13 0
-1 -6 -14 0
-1 -6 -15 0
-1 -7 -8 0
-1 -7 -9 0
-1 -7 -10 0
-1 -7 -11 0
-1 -7 -12 0
-1 -7 -13 0
-1 -7 -14 0
-1 -7 -15 0
-1 -8 -9 0
-1 -8 -10 0
-1 -8 -11 0
-1 -8 -12 0
-1 -8 -13 0
-1 -8 -14 0
-1 -8 -15 0
-1 -9 -10 0
-1 -9 -11 0
-1 -9 -12 0
-1 -9 -13 0
-1 -9 -14 0
-1 -9 -15 0
-1 -10 -11 0
-1 -10 -12 0
-1 -10 -13 0
-1 -10 -14 0
-1 -10 -15 0
-1 -11 -12 0
-1 -11 -13 0
-1 -11 -14 0
-1 -11 -15 0
-1 -12 -13 0
-1 -12 -14 0
-1 -12 -15 0
-1 -13 -14 0
-1 -13 -15 0
-1 -14 -15 0
-2 -3 -4 0
-2 -3 -5 0
-2 -3 -6 0
-2 -3 -7 0
-2 -3 -8 0
-2 -3 -9 0
-2 -3 -10 0
-2 -3 -11 0
-2 -3 -12 0
-2 -3 -13 0
-2 -3 -14 0
-2 -3 -15 0
-2 -4 -5 0
-2 -4 -6 0
-2 -4 -7 0
-2 -4 -8 0
-2 -4 -9 0
-2 -4 -10 0
-2 -4 -11 0
-2 -4 -12 0
-2 -4 -13 0
-2 -4 -14 0
-2 -4 -15 0
-2 -5 -6 0
-2 -5 -7 0
-2 -5 -8 0
-2 -5 -9 0
-2 -5 -10 0
-2 -5 -11 0
-2 -5 -12 0
-2 -5 -13 0
-2 -5 -14 0
-2 -5 -15 0
-2 -6 -7 0
-2 -6 -8 0
-2 -6 -9 0
-2 -6 -10 0
-2 -6 -11 0
-2 -6 -12 0
-2 -6 -13 0
-2 -6 -14 0
-2 -6 -15 0
-2 -7 -8 0
-2 -7 -9 0
-2 -7 -10 0
-2 -7 -11 0
-2 -7 -12 0
-2 -7 -13 0
-2 -7 -14 0
-2 -7 -15 0
-2 -8 -9 0
-2 -8 -10 0
-2 -8 -11 0
-2 -8 -12 0
-2 -8 -13 0
-2 -8 -14 0
-2 -8 -15 0
-2 -9 -10 0
-2 -9 -11 0
-2 -9 -12 0
-2 -9 -13 0
-2 -9 -14 0
-2 -9 -15 0
-2 -10 -11 0
-2 -10 -12 0
-2 -10 -13 0
-2 -10 -14 0
-2 -10 -15 0
-2 -11 -12 0
-2 -11 -13 0
-2 -11 -14 0
-2 -11 -15 0
-2 -12 -13 0
-2 -12 -14 0
-2 -12 -15 0
-2 -13 -14 0
-2 -13 -15 0
-2 -14 -15 0
-3 -4 -5 0
-3 -4 -6 0
-3 -4 -7 0
-3 -4 -8 0
-3 -4 -9 0
-3 -4 -10 0
-3 -4 -11 0
-3 -4 -12 0
-3 -4 -13 0
-3 -4 -14 0
-3 -4 -15 0
-3 -5 -6 0
-3 -5 -7 0
-3 -5 -8 0
-3 -5 -9 0
-3 -5 -10 0
-3 -5 -11 0
-3 -5 -12 0
-3 -5 -13 0
-3 -5 -14 0
-3 -5 -15 0
-3 -6 -7 0
-3 -6 -8 0
-3 -6 -9 0
-3 -6 -10 0
-3 -6 -11 0
-3 -6 -12 0
-3 -6 -13 0
-3 -6 -14 0
-3 -6 -15 0
-3 -7 -8 0
-3 -7 -9 0
-3 -7 -10 0
-3 -7 -11 0
-3 -7 -12 0
-3 -7 -13 0
-3 -7 -14 0
-3 -7 -15 0
-3 -8 -9 0
-3 -8 -10 0
-3 -8 -11 0
-3 -8 -12 0
-3 -8 -13 0
-3 -8 -14 0
-3 -8 -15 0
-3 -9 -10 0
-3 -9 -11 0
-3 -9 -12 0
-3 -9 -13 0
-3 -9 -14 0
-3 -9 -15 0
-3 -10 -11 0
-3 -10 -12 0
-3 -10 -13 0
-3 -10 -14 0
-3 -10 -15 0
-3 -11 -12 0
-3 -11 -13 0
-3 -11 -14 0
-3 -11 -15 0
-3 -12 -13 0
-3 -12 -14 0
-3 -12 -15 0
-3 -13 -14 0
-3 -13 -15 0
-3 -14 -15 0
-4 -5 -6 0
-4 -5 -7 0
-4 -5 -8 0
-4 -5 -9 0
-4 -5 -10 0
-4 -5 -11 0
-4 -5 -12 0
-4 -5 -13 0
-4 -5 -14 0
-4 -5 -15 0
-4 -6 -7 0
-4 -6 -8 0
-4 -6 -9 0
-4 -6 -10 0
-4 -6 -11 0
-4 -6 -12 0
-4 -6 -13 0
-4 -6 -14 0
-4 -6 -15 0
-4 -7 -8 0
-4 -7 -9 0
-4 -7 -10 0
-4 -7 -11 0
-4 -7 -12 0
-4 -7 -13 0
-4 -7 -14 0
-4 -7 -15 0
-4 -8 -9 0
-4 -8 -10 0
-4 -8 -11 0
-4 -8 -12 0
-4 -8 -13 0
-4 -8 -14 0
-4 -8 -15 0
-4 -9 -10 0
-4 -9 -11 0
-4 -9 -12 0
-4 -9 -13 0
-4 -9 -14 0
-4 -9 -15 0
-4 -10 -11 0
-4 -10 -12 0
-4 -10 -13 0
-4 -10 -14 0
-4 -10 -15 0
-4 -11 -12 0
-4 -11 -13 0
-4 -11 -14 0
-4 -11 -15 0
-4 -12 -13 0
-4 -12 -14 0
-4 -12 -15 0
-4 -13 -14 0
-4 -13 -15 0
-4 -14 -15 0
-5 -6 -7 0
-5 -6 -8 0
-5 -6 -9 0
-5 -6 -10 0
-5 -6 -11 0
-5 -6 -12 0
-5 -6 -13 0
-5 -6 -14 0
-5 -6 -15 0
-5 -7 -8 0
-5 -7 -9 0
-5 -7 -10 0
-5 -7 -11 0
-5 -7 -12 0
-5 -7 -13 0
-5 -7 -14 0
-5 -7 -15 0
-5 -8 -9 0
-5 -8 -10 0
-5 -8 -11 0
-5 -8 -12 0
-5 -8 -13 0
-5 -8 -14 0
-5 -8 -15 0
-5 -9 -10 0
-5 -9 -11 0
-5 -9 -12 0
-5 -9 -13 0
-5 -9 -14 0
-5 -9 -15 0
-5 -10 -11 0
-5 -10 -12 0
-5 -10 -13 0
-5 -10 -14 0
-5 -10 -15 0
-5 -11 -12 0
-5 -11 -13 0
-5 -11 -14 0
-5 -11 -15 0
-5 -12 -13 0
-5 -12 -14 0
-5 -12 -15 0
-5 -13 -14 0
-5 -13 -15 0
-5 -14 -15 0
-6 -7 -8 0
-6 -7 -9 0
-6 -7 -10 0
-6 -7 -11 0
-6 -7 -12 0
-6 -7 -13 0
-6 -7 -14 0
-6 -7 -15 0
-6 -8 -9 0
-6 -8 -10 0
-6 -8 -11 0
-6 -8 -12 0
-6 -8 -13 0
-6 -8 -14 0
-6 -8 -15 0
-6 -9 -10 0
-6 -9 -11 0
-6 -9 -12 0
-6 -9 -13 0
-6 -9 -14 0
-6 -9 -15 0
-6 -10 -11 0
-6 -10 -12 0
-6 -10 -13 0
-6 -10 -14 0
-6 -10 -15 0
-6 -11 -12 0
-6 -11 -13 0
-6 -11 -14 0
-6 -11 -15 0
-6 -12 -13 0
-6 -12 -14 0
-6 -12 -15 0
-6 -13 -14 0
-6 -13 -15 0
-6 -14 -15 0
-7 -8 -9 0
-7 -8 -10 0
-7 -8 -11 0
-7 -8 -12 0
-7 -8 -13 0
-7 -8 -14 0
-7 -8 -15 0
-7 -9 -10 0
-7 -9 -11 0
-7 -9 -12 0
-7 -9 -13 0
-7 -9 -14 0
-7 -9 -15 0
-7 -10 -11 0
-7 -10 -12 0
-7 -10 -13 0
-7 -10 -14 0
-7 -10 -15 0
-7 -11 -12 0
-7 -11 -13 0
-7 -11 -14 0
-7 -11 -15 0
-7 -12 -13 0
-7 -12 -14 0
-7 -12 -15 0
-7 -13 -14 0
-7 -13 -15 0
-7 -14 -15 0
-8 -9 -10 0
-8 -9 -11 0
-8 -9 -12 0
-8 -9 -13 0
-8 -9 -14 0
-8 -9 -15 0
-8 -10 -11 0
-8 -10 -12 0
-8 -10 -13 0
-8 -10 -14 0
-8 -10 -15 0
-8 -11 -12 0
-8 -11 -13 0
-8 -11 -14 0
-8 -11 -15 0
-8 -12 -13 0
-8 -12 -14 0
-8 -12 -15 0
-8 -13 -14 0
-8 -13 -15 0
-8 -14 -15 0
-9 -10 -11 0
-9 -10 -12 0
-9 -10 -13 0
-9 -10 -14 0
-9 -10 -15 0
-9 -11 -12 0
-9 -11 -13 0
-9 -11 -14 0
-9 -11 -15 0
-9 -12 -13 0
-9 -12 -14 0
-9 -12 -15 0
-9 -13 -14 0
-9 -13 -15 0
-9 -14 -15 0
-10 -11 -12 0
-10 -11 -13 0
-10 -11 -14 0
-10 -11 -15 0
-10 -12 -13 0
-10 -12 -14 0
-10 -12 -15 0
-10 -13 -14 0
-10 -13 -15 0
-10 -14 -15 0
-11 -12 -13 0
-11 -12 -14 0
-11 -12 -15 0
-11 -13 -14 0
-11 -13 -15 0
-11 -14 -15 0
-12 -13 -14 0
-12 -13 -15 0
-12 -14 -15 0
-13 -14 -15 0
1 2 3 4 5 6 7 8 9 10 11 12 13 14 0
1 2 3 4 5 6 7 8 9 10 11 12 13 15 0
1 2 3 4 5 6 7 8 9 10 11 12 14 15 0
1 2 3 4 5 6 7 8 9 10 11 13 14 15 0
1 2 3 4 5 6 7 8 9 10 12 13 14 15 0
1 2 3 4 5 6 7 8 9 11 12 13 14 15 0
1 2 3 4 5 6 7 8 10 11 12 13 14 15 0
1 2 3 4 5 6 7 9 10 11 12 13 14 15 0
1 2 3 4 5 6 8 9 10 11 12 13 14 15 0
1 2 3 4 5 7 8 9 10 11 12 13 14 15 0
1 2 3 4 6 7 8 9 10 11 12 13 14 15 0
1 2 3 5 6 7 8 9 10 11 12 13 14 15 0
1 2 4 5 6 7 8 9 10 11 12 13 14 15 0
1 3 4 5 6 7 8 9 10 11 12 13 14 15 0
2 3 4 5 6 7 8 9 10 11 12 13 14 15 0
-16 -17 -18 0
-16 -17 -19 0
-16 -17 -20 0
-16 -17 -21 0
-16 -17 -22 0
-16 -17 -23 0
-16 -17 -24 0
-16 -17 -25 0
-16 -17 -26 0
-16 -17 -27 0
-16 -17 -28 0
-16 -17 -29 0
-16 -17 -30 0
-16 -18 -19 0
-16 -18 -20 0
-16 -18 -21 0
-16 -18 -22 0
-16 -18 -23 0
-16 -18 -24 0
-16 -18 -25 0
-16 -18 -26 0
-16 -18 -27 0
-16 -18 -28 0
-16 -18 -29 0
-16 -18 -30 0
-16 -19 -20 0
-16 -19 -21 0
-16 -19 -22 0
-16 -19 -23 0
-16 -19 -24 0
-16 -19 -25 0
-16 -19 -26 0
-16 -19 -27 0
-16 -19 -28 0
-16 -19 -29 0
-16 -19 -30 0
-16 -20 -21 0
-16 -20 -22 0
-16 -20 -23 0
-16 -20 -24 0
-16 -20 -25 0
-16 -20 -26 0
-16 -20 -27 0
-16 -20 -28 0
-16 -20 -29 0
-16 -20 -30 0
-16 -21 -22 0
-16 -21 -23 0
-16 -21 -24 0
-16 -21 -25 0
-16 -21 -26 0
-16 -21 -27 0
-16 -21 -28 0
-16 -21 -29 0
-16 -21 -30 0
-16 -22 -23 0
-16 -22 -24 0
-16 -22 -25 0
-16 -22 -26 0
-16 -22 -27 0
-16 -22 -28 0
-16 -22 -29 0
-16 -22 -30 0
-16 -23 -24 0
-16 -23 -25 0
-16 -23 -26 0
-16 -23 -27 0
-16 -23 -28 0
-16 -23 -29 0
-16 -23 -30 0
-16 -24 -25 0
-16 -24 -26 0
-16 -24 -27 0
-16 -24 -28 0
-16 -24 -29 0
-16 -24 -30 0
-16 -25 -26 0
-16 -25 -27 0
-16 -25 -28 0
-16 -25 -29 0
-16 -25 -30 0
-16 -26 -27 0
-16 -26 -28 0
-16 -26 -29 0
-16 -26 -30 0
-16 -27 -28 0
-16 -27 -29 0
-16 -27 -30 0
-16 -28 -29 0
-16 -28 -30 0
-16 -29 -30 0
-17 -18 -19 0
-17 -18 -20 0
-17 -18 -21 0
-17 -18 -22 0
-17 -18 -23 0
-17 -18 -24 0
-17 -18 -25 0
-17 -18 -26 0
-17 -18 -27 0
-17 -18 -28 0
-17 -18 -29 0
-17 -18 -30 0
-17 -19 -20 0
-17 -19 -21 0
-17 -19 -22 0
-17 -19 -23 0
-17 -19 -24 0
-17 -19 -25 0
-17 -19 -26 0
-17 -19 -27 0
-17 -19 -28 0
-17 -19 -29 0
-17 -19 -30 0
-17 -20 -21 0
-17 -20 -22 0
-17 -20 -23 0
-17 -20 -24 0
-17 -20 -25 0
-17 -20 -26 0
-17 -20 -27 0
-17 -20 -28 0
-17 -20 -29 0
-17 -20 -30 0
-17 -21 -22 0
-17 -21 -23 0
-17 -21 -24 0
-17 -21 -25 0
-17 -21 -26 0
-17 -21 -27 0
-17 -21 -28 0
-17 -21 -29 0
-17 -21 -30 0
-17 -22 -23 0
-17 -22 -24 0
-17 -22 -25 0
-17 -22 -26 0
-17 -22 -27 0
-17 -22 -28 0
-17 -22 -29 0
-17 -22 -30 0
-17 -23 -24 0
-17 -23 -25 0
-17 -23 -26 0
-17 -23 -27 0
-17 -23 -28 0
-17 -23 -29 0
-17 -23 -30 0
-17 -24 -25 0
-17 -24 -26 0
-17 -24 -27 0
-17 -24 -28 0
-17 -24 -29 0
-17 -24 -30 0
-17 -25 -26 0
-17 -25 -27 0
-17 -25 -28 0
-17 -25 -29 0
-17 -25 -30 0
-17 -26 -27 0
-17 -26 -28 0
-17 -26 -29 0
-17 -26 -30 0
-17 -27 -28 0
-17 -27 -29 0
-17 -27 -30 0
-17 -28 -29 0
-17 -28 -30 0
-17 -29 -30 0
-18 -19 -20 0
-18 -19 -21 0
-18 -19 -22 0
-18 -19 -23 0
-18 -19 -24 0
-18 -19 -25 0
-18 -19 -26 0
-18 -19 -27 0
-18 -19 -28 0
-18 -19 -29 0
-18 -19 -30 0
-18 -20 -21 0
-18 -20 -22 0
-18 -20 -23 0
-18 -20 -24 0
-18 -20 -25 0
-18 -20 -26 0
-18 -20 -27 0
-18 -20 -28 0
-18 -20 -29 0
-18 -20 -30 0
-18 -21 -22 0
-18 -21 -23 0
-18 -21 -24 0
-18 -21 -25 0
-18 -21 -26 0
-18 -21 -27 0
-18 -21 -28 0
-18 -21 -29 0
-18 -21 -30 0
-18 -22 -23 0
-18 -22 -24 0
-18 -22 -25 0
-18 -22 -26 0
-18 -22 -27 0
-18 -22 -28 0
-18 -22 -29 0
-18 -22 -30 0
-18 -23 -24 0
-18 -23 -25 0
-18 -23 -26 0
-18 -23 -27 0
-18 -23 -28 0
-18 -23 -29 0
-18 -23 -30 0
-18 -24 -25 0
-18 -24 -26 0
-18 -24 -27 0
-18 -24 -28 0
-18 -24 -29 0
-18 -24 -30 0
-18 -25 -26 0
-18 -25 -27 0
-18 -25 -28 0
-18 -25 -29 0
-18 -25 -30 0
-18 -26 -27 0
-18 -26 -28 0
-18 -26 -29 0
-18 -26 -30 0
-18 -27 -28 0
-18 -27 -29 0
-18 -27 -30 0
-18 -28 -29 0
-18 -28 -30 0
-18 -29 -30 0
-19 -20 -21 0
-19 -20 -22 0
-19 -20 -23 0
-19 -20 -24 0
-19 -20 -25 0
-19 -20 -26 0
-19 -20 -27 0
-19 -20 -28 0
-19 -20 -29 0
-19 -20 -30 0
-19 -21 -22 0
-19 -21 -23 0
-19 -21 -24 0
-19 -21 -25 0
-19 -21 -26 0
-19 -21 -27 0
-19 -21 -28 0
-19 -21 -29 0
-19 -21 -30 0
-19 -22 -23 0
-19 -22 -24 0
-19 -22 -25 0
-19 -22 -26 0
-19 -22 -27 0
-19 -22 -28 0
-19 -22 -29 0
-19 -22 -30 0
-19 -23 -24 0
-19 -23 -25 0
-19 -23 -26 0
-19 -23 -27 0
-19 -23 -28 0
-19 -23 -29 0
-19 -23 -30 0
-19 -24 -25 0
-19 -24 -26 0
-19 -24 -27 0
-19 -24 -28 0
-19 -24 -29 0
-19 -24 -30 0
-19 -25 -26 0
-19 -25 -27 0
-19 -25 -28 0
-19 -25 -29 0
-19 -25 -30 0
-19 -26 -27 0
-19 -26 -28 0
-19 -26 -29 0
-19 -26 -30 0
-19 -27 -28 0
-19 -27 -29 0
-19 -27 -30 0
-19 -28 -29 0
-19 -28 -30 0
-19 -29 -30 0
-20 -21 -22 0
-20 -21 -23 0
-20 -21 -24 0
-20 -21 -25 0
-20 -21 -26 0
-20 -21 -27 0
-20 -21 -28 0
-20 -21 -29 0
-20 -21 -30 0
-20 -22 -23 0
-20 -22 -24 0
-20 -22 -25 0
-20 -22 -26 0
-20 -22 -27 0
-20 -22 -28 0
-20 -22 -29 0
-20 -22 -30 0
-20 -23 -24 0
-20 -23 -25 0
-20 -23 -26 0
-20 -23 -27 0
-20 -23 -28 0
-20 -23 -29 0
-20 -23 -30 0
-20 -24 -25 0
-20 -24 -26 0
-20 -24 -27 0
-20 -24 -28 0
-20 -24 -29 0
-20 -24 -30 0
-20 -25 -26 0
-20 -25 -27 0
-20 -25 -28 0
-20 -25 -29 0
-20 -25 -30 0
-20 -26 -27 0
-20 -26 -28 0
-20 -26 -29 0
-20 -26 -30 0
-20 -27 -28 0
-20 -27 -29 0
-20 -27 -30 0
-20 -28 -29 0
-20 -28 -30 0
-20 -29 -30 0
-21 -22 -23 0
-21 -22 -24 0
-21 -22 -25 0
-21 -22 -26 0
-21 -22 -27 0
-21 -22 -28 0
-21 -22 -29 0
-21 -22 -30 0
-21 -23 -24 0
-21 -23 -25 0
-21 -23 -26 0
-21 -23 -27 0
-21 -23 -28 0
-21 -23 -29 0
-21 -23 -30 0
-21 -24 -25 0
-21 -24 -26 0
-21 -24 -27 0
-21 -24 -28 0
-21 -24 -29 0
-21 -24 -30 0
-21 -25 -26 0
-21 -25 -27 0
-21 -25 -28 0
-21 -25 -29 0
-21 -25 -30 0
-21 -26 -27 0
-21 -26 -28 0
-21 -26 -29 0
-21 -26 -30 0
-21 -27 -28 0
-21 -27 -29 0
-21 -27 -30 0
-21 -28 -29 0
-21 -28 -30 0
-21 -29 -30 0
-22 -23 -24 0
-22 -23 -25 0
-22 -23 -26 0
-22 -23 -27 0
-22 -23 -28 0
-22 -23 -29 0
-22 -23 -30 0
-22 -24 -25 0
-22 -24 -26 0
-22 -24 -27 0
-22 -24 -28 0
-22 -24 -29 0
-22 -24 -30 0
-22 -25 -26 0
-22 -25 -27 0
-22 -25 -28 0
-22 -25 -29 0
-22 -25 -30 0
-22 -26 -27 0
-22 -26 -28 0
-22 -26 -29 0
-22 -26 -30 0
-22 -27 -28 0
-22 -27 -29 0
-22 -27 -30 0
-22 -28 -29 0
-22 -28 -30 0
-22 -29 -30 0
-23 -24 -25 0
-23 -24 -26 0
-23 -24 -27 0
-23 -24 -28 0
-23 -24 -29 0
-23 -24 -30 0
-23 -25 -26 0
-23 -25 -27 0
-23 -25 -28 0
-23 -25 -29 0
-23 -25 -30 0
-23 -26 -27 0
-23 -26 -28 0
-23 -26 -29 0
-23 -26 -30 0
-23 -27 -28 0
-23 -27 -29 0
-23 -27 -30 0
-23 -28 -29 0
-23 -28 -30 0
-23 -29 -30 0
-24 -25 -26 0
-24 -25 -27 0
-24 -25 -28 0
-24 -25 -29 0
-24 -25 -30 0
-24 -26 -27 0
-24 -26 -28 0
-24 -26 -29 0
-24 -26 -30 0
-24 -27 -28 0
-24 -27 -29 0
-24 -27 -30 0
-24 -28 -29 0
-24 -28 -30 0
-24 -29 -30 0
-25 -26 -27 0
-25 -26 -28 0
-25 -26 -29 0
-25 -26 -30 0
-25 -27 -28 0
-25 -27 -29 0
-25 -27 -30 0
-25 -28 -29 0
-25 -28 -30 0
-25 -29 -30 0
-26 -27 -28 0
-26 -27 -29 0
-26 -27 -30 0
-26 -28 -29 0
-26 -28 -30 0
-26 -29 -30 0
-27 -28 -29 0
-27 -28 -30 0
-27 -29 -30 0
-28 -29 -30 0
16 17 18 19 20 21 22 23 24 25 26 27 28 29 0
16 17 18 19 20 21 22 23 24 25 26 27 28 30 0
16 17 18 19 20 21 22 23 24 25 26 27 29 30 0
16 17 18 19 20 21 22 23 24 25 26 28 29 30 0
16 17 18 19 20 21 22 23 24 25 27 28 29 30 0
16 17 18 19 20 21 22 23 24 26 27 28 29 30 0
16 17 18 19 20 21 22 23 25 26 27 28 29 30 0
16 17 18 19 20 21 22 24 25 26 27 28 29 30 0
16 17 18 19 20 21 23 24 25 26 27 28 29 30 0
16 17 18 19 20 22 23 24 25 26 27 28 29 30 0
16 17 18 19 21 22 23 24 25 26 27 28 29 30 0
16 17 18 20 21 22 23 24 25 26 27 28 29 30 0
16 17 19 20 21 22 23 24 25 26 27 28 29 30 0
16 18 19 20 21 22 23 24 25 26 27 28 29 30 0
17 18 19 20 21 22 23 24 25 26 27 28 29 30 0
-31 -32 -33 0
-31 -32 -34 0
-31 -32 -35 0
-31 -32 -36 0
-31 -32 -37 0
-31 -32 -38 0
-31 -32 -39 0
-31 -32 -40 0
-31 -32 -41 0
-31 -32 -42 0
-31 -32 -43 0
-31 -32 -44 0
-31 -32 -45 0
-31 -33 -34 0
-31 -33 -35 0
-31 -33 -36 0
-31 -33 -37 0
-31 -33 -38 0
-31 -33 -39 0
-31 -33 -40 0
-31 -33 -41 0
-31 -33 -42 0
-31 -33 -43 0
-31 -33 -44 0
-31 -33 -45 0
-31 -34 -35 0
-31 -34 -36 0
-31 -34 -37 0
-31 -34 -38 0
-31 -34 -39 0
-31 -34 -40 0
-31 -34 -41 0
-31 -34 -42 0
-31 -34 -43 0
-31 -34 -44 0
-31 -34 -45 0
-31 -35 -36 0
-31 -35 -37 0
-31 -35 -38 0
-31 -35 -39 0
-31 -35 -40 0
-31 -35 -41 0
-31 -35 -42 0
-31 -35 -43 0
-31 -35 -44 0
-31 -35 -45 0
-31 -36 -37 0
-31 -36 -38 0
-31 -36 -39 0
-31 -36 -40 0
-31 -36 -41 0
-31 -36 -42 0
-31 -36 -43 0
-31 -36 -44 0
-31 -36 -45 0
-31 -37 -38 0
-31 -37 -39 0
-31 -37 -40 0
-31 -37 -41 0
-31 -37 -42 0
-31 -37 -43 0
-31 -37 -44 0
-31 -37 -45 0
-31 -38 -39 0
-31 -38 -40 0
-31 -38 -41 0
-31 -38 -42 0
-31 -38 -43 0
-31 -38 -44 0
-31 -38 -45 0
-31 -39 -40 0
-31 -39 -41 0
-31 -39 -42 0
-31 -39 -43 0
-31 -39 -44 0
-31 -39 -45 0
-31 -40 -41 0
-31 -40 -42 0
-31 -40 -43 0
-31 -40 -44 0
-31 -40 -45 0
-31 -41 -42 0
-31 -41 -43 0
-31 -41 -44 0
-31 -41 -45 0
-31 -42 -43 0
-31 -42 -44 0
-31 -42 -45 0
-31 -43 -44 0
-31 -43 -45 0
-31 -44 -45 0
-32 -33 -34 0
-32 -33 -35 0
-32 -33 -36 0
-32 -33 -37 0
-32 -33 -38 0
-32 -33 -39 0
-32 -33 -40 0
-32 -33 -41 0
-32 -33 -42 0
-32 -33 -43 0
-32 -33 -44 0
-32 -33 -45 0
-32 -34 -35 0
-32 -34 -36 0
-32 -34 -37 0
-32 -34 -38 0
-32 -34 -39 0
-32 -34 -40 0
-32 -34 -41 0
-32 -34 -42 0
-32 -34 -43 0
-32 -34 -44 0
-32 -34 -45 0
-32 -35 -36 0
-32 -35 -37 0
-32 -35 -38 0
-32 -35 -39 0
-32 -35 -40 0
-32 -35 -41 0
-32 -35 -42 0
-32 -35 -43 0
-32 -35 -44 0
-32 -35 -45 0
-32 -36 -37 0
-32 -36 -38 0
-32 -36 -39 0
-32 -36 -40 0
-32 -36 -41 0
-32 -36 -42 0
-32 -36 -43 0
-32 -36 -44 0
-32 -36 -45 0
-32 -37 -38 0
-32 -37 -39 0
-32 -37 -40 0
-32 -37 -41 0
-32 -37 -42 0
-32 -37 -43 0
-32 -37 -44 0
-32 -37 -45 0
-32 -38 -39 0
-32 -38 -40 0
-32 -38 -41 0
-32 -38 -42 0
-32 -38 -43 0
-32 -38 -44 0
-32 -38 -45 0
-32 -39 -40 0
-32 -39 -41 0
-32 -39 -42 0
-32 -39 -43 0
-32 -39 -44 0
-32 -39 -45 0
-32 -40 -41 0
-32 -40 -42 0
-32 -40 -43 0
-32 -40 -44 0
-32 -40 -45 0
-32 -41 -42 0
-32 -41 -43 0
-32 -41 -44 0
-32 -41 -45 0
-32 -42 -43 0
-32 -42 -44 0
-32 -42 -45 0
-32 -43 -44 0
-32 -43 -45 0
-32 -44 -45 0
-33 -34 -35 0
-33 -34 -36 0
-33 -34 -37 0
-33 -34 -38 0
-33 -34 -39 0
-33 -34 -40 0
-33 -34 -41 0
-33 -34 -42 0
-33 -34 -43 0
-33 -34 -44 0
-33 -34 -45 0
-33 -35 -36 0
-33 -35 -37 0
-33 -35 -38 0
-33 -35 -39 0
-33 -35 -40 0
-33 -35 -41 0
-33 -35 -42 0
-33 -35 -43 0
-33 -35 -44 0
-33 -35 -45 0
-33 -36 -37 0
-33 -36 -38 0
-33 -36 -39 0
-33 -36 -40 0
-33 -36 -41 0
-33 -36 -42 0
-33 -36 -43 0
-33 -36 -44 0
-33 -36 -45 0
-33 -37 -38 0
-33 -37 -39 0
-33 -37 -40 0
-33 -37 -41 0
-33 -37 -42 0
-33 -37 -43 0
-33 -37 -44 0
-33 -37 -45 0
-33 -38 -39 0
-33 -38 -40 0
-33 -38 -41 0
-33 -38 -42 0
-33 -38 -43 0
-33 -38 -44 0
-33 -38 -45 0
-33 -39 -40 0
-33 -39 -41 0
-33 -39 -42 0
-33 -39 -43 0
-33 -39 -44 0
-33 -39 -45 0
-33 -40 -41 0
-33 -40 -42 0
-33 -40 -43 0
-33 -40 -44 0
-33 -40 -45 0
-33 -41 -42 0
-33 -41 -43 0
-33 -41 -44 0
-33 -41 -45 0
-33 -42 -43 0
-33 -42 -44 0
-33 -42 -45 0
-33 -43 -44 0
-33 -43 -45 0
-33 -44 -45 0
-34 -35 -36 0
-34 -35 -37 0
-34 -35 -38 0
-34 -35 -39 0
-34 -35 -40 0
-34 -35 -41 0
-34 -35 -42 0
-34 -35 -43 0
-34 -35 -44 0
-34 -35 -45 0
-34 -36 -37 0
-34 -36 -38 0
-34 -36 -39 0
-34 -36 -40 0
-34 -36 -41 0
-34 -36 -42 0
-34 -36 -43 0
-34 -36 -44 0
-34 -36 -45 0
-34 -37 -38 0
-34 -37 -39 0
-34 -37 -40 0
-34 -37 -41 0
-34 -37 -42 0
-34 -37 -43 0
-34 -37 -44 0
-34 -37 -45 0
-34 -38 -39 0
-34 -38 -40 0
-34 -38 -41 0
-34 -38 -42 0
-34 -38 -43 0
-34 -38 -44 0
-34 -38 -45 0
-34 -39 -40 0
-34 -39 -41 0
-34 -39 -42 0
-34 -39 -43 0
-34 -39 -44 0
-34 -39 -45 0
-34 -40 -41 0
-34 -40 -42 0
-34 -40 -43 0
-34 -40 -44 0
-34 -40 -45 0
-34 -41 -42 0
-34 -41 -43 0
-34 -41 -44 0
-34 -41 -45 0
-34 -42 -43 0
-34 -42 -44 0
-34 -42 -45 0
-34 -43 -44 0
-34 -43 -45 0
-34 -44 -45 0
-35 -36 -37 0
-35 -36 -38 0
-35 -36 -39 0
-35 -36 -40 0
-35 -36 -41 0
-35 -36 -42 0
-35 -36 -43 0
-35 -36 -44 0
-35 -36 -45 0
-35 -37 -38 0
-35 -37 -39 0
-35 -37 -40 0
-35 -37 -41 0
-35 -37 -42 0
-35 -37 -43 0
-35 -37 -44 0
-35 -37 -45 0
-35 -38 -39 0
-35 -38 -40 0
-35 -38 -41 0
-35 -38 -42 0
-35 -38 -43 0
-35 -38 -44 0
-35 -38 -45 0
-35 -39 -40 0
-35 -39 -41 0
-35 -39 -42 0
-35 -39 -43 0
-35 -39 -44 0
-35 -39 -45 0
-35 -40 -41 0
-35 -40 -42 0
-35 -40 -43 0
-35 -40 -44 0
-35 -40 -45 0
-35 -41 -42 0
-35 -41 -43 0
-35 -41 -44 0
-35 -41 -45 0
-35 -42 -43 0
-35 -42 -44 0
-35 -42 -45 0
-35 -43 -44 0
-35 -43 -45 0
-35 -44 -45 0
-36 -37 -38 0
-36 -37 -39 0
-36 -37 -40 0
-36 -37 -41 0
-36 -37 -42 0
-36 -37 -43 0
-36 -37 -44 0
-36 -37 -45 0
-36 -38 -39 0
-36 -38 -40 0
-36 -38 -41 0
-36 -38 -42 0
-36 -38 -43 0
-36 -38 -44 0
-36 -38 -45 0
-36 -39 -40 0
-36 -39 -41 0
-36 -39 -42 0
-36 -39 -43 0
-36 -39 -44 0
-36 -39 -45 0
-36 -40 -41 0
-36 -40 -42 0
-36 -40 -43 0
-36 -40 -44 0
-36 -40 -45 0
-36 -41 -42 0
-36 -41 -43 0
-36 -41 -44 0
-36 -41 -45 0
-36 -42 -43 0
-36 -42 -44 0
-36 -42 -45 0
-36 -43 -44 0
-36 -43 -45 0
-36 -44 -45 0
-37 -38 -39 0
-37 -38 -40 0
-37 -38 -41 0
-37 -38 -42 0
-37 -38 -43 0
-37 -38 -44 0
-37 -38 -45 0
-37 -39 -40 0
-37 -39 -41 0
-37 -39 -42 0
-37 -39 -43 0
-37 -39 -44 0
-37 -39 -45 0
-37 -40 -41 0
-37 -40 -42 0
-37 -40 -43 0
-37 -40 -44 0
-37 -40 -45 0
-37 -41 -42 0
-37 -41 -43 0
-37 -41 -44 0
-37 -41 -45 0
-37 -42 -43 0
-37 -42 -44 0
-37 -42 -45 0
-37 -43 -44 0
-37 -43 -45 0
-37 -44 -45 0
-38 -39 -40 0
-38 -39 -41 0
-38 -39 -42 0
-38 -39 -43 0
-38 -39 -44 0
-38 -39 -45 0
-38 -40 -41 0
-38 -40 -42 0
-38 -40 -43 0
-38 -40 -44 0
-38 -40 -45 0
-38 -41 -42 0
-38 -41 -43 0
-38 -41 -44 0
-38 -41 -45 0
-38 -42 -43 0
-38 -42 -44 0
-38 -42 -45 0
-38 -43 -44 0
-38 -43 -45 0
-38 -44 -45 0
-39 -40 -41 0
-39 -40 -42 0
-39 -40 -43 0
-39 -40 -44 0
-39 -40 -45 0
-39 -41 -42 0
-39 -41 -43 0
-39 -41 -44 0
-39 -41 -45 0
-39 -42 -43 0
-39 -42 -44 0
-39 -42 -45 0
-39 -43 -44 0
-39 -43 -45 0
-39 -44 -45 0
-40 -41 -42 0
-40 -41 -43 0
-40 -41 -44 0
-40 -41 -45 0
-40 -42 -43 0
-40 -42 -44 0
-40 -42 -45 0
-40 -43 -44 0
-40 -43 -45 0
-40 -44 -45 0
-41 -42 -43 0
-41 -42 -44 0
-41 -42 -45 0
-41 -43 -44 0
-41 -43 -45 0
-41 -44 -45 0
-42 -43 -44 0
-42 -43 -45 0
-42 -44 -45 0
-43 -44 -45 0
31 32 33 34 35 36 37 38 39 40 41 42 43 44 0
31 32 33 34 35 36 37 38 39 40 41 42 43 45 0
31 32 33 34 35 36 37 38 39 40 41 42 44 45 0
31 32 33 34 35 36 37 38 39 40 41 43 44 45 0
31 32 33 34 35 36 37 38 39 40 42 43 44 45 0
31 32 33 34 35 36 37 38 39 41 42 43 44 45 0
31 32 33 34 35 36 37 38 40 41 42 43 44 45 0
31 32 33 34 35 36 37 39 40 41 42 43 44 45 0
31 32 33 34 35 36 38 39 40 41 42 43 44 45 0
31 32 33 34 35 37 38 39 40 41 42 43 44 45 0
31 32 33 34 36 37 38 39 40 41 42 43 44 45 0
31 32 33 35 36 37 38 39 40 41 42 43 44 45 0
31 32 34 35 36 37 38 39 40 41 42 43 44 45 0
31 33 34 35 36 37 38 39 40 41 42 43 44 45 0
32 33 34 35 36 37 38 39 40 41 42 43 44 45 0
-46 -47 -48 0
-46 -47 -49 0
-46 -47 -50 0
-46 -47 -51 0
-46 -47 -52 0
-46 -47 -53 0
-46 -47 -54 0
-46 -47 -55 0
-46 -47 -56 0
-46 -47 -57 0
-46 -47 -58 0
-46 -47 -59 0
-46 -47 -60 0
-46 -48 -49 0
-46 -48 -50 0
-46 -48 -51 0
-46 -48 -52 0
-46 -48 -53 0
-46 -48 -54 0
-46 -48 -55 0
-46 -48 -56 0
-46 -48 -57 0
-46 -48 -58 0
-46 -48 -59 0
-46 -48 -60 0
-46 -49 -50 0
-46 -49 -51 0
-46 -49 -52 0
-46 -49 -53 0
-46 -49 -54 0
-46 -49 -55 0
-46 -49 -56 0
-46 -49 -57 0
-46 -49 -58 0
-46 -49 -59 0
-46 -49 -60 0
-46 -50 -51 0
-46 -50 -52 0
-46 -50 -53 0
-46 -50 -54 0
-46 -50 -55 0
-46 -50 -56 0
-46 -50 -57 0
-46 -50 -58 0
-46 -50 -59 0
-46 -50 -60 0
-46 -51 -52 0
-46 -51 -53 0
-46 -51 -54 0
-46 -51 -55 0
-46 -51 -56 0
-46 -51 -57 0
-46 -51 -58 0
-46 -51 -59 0
-46 -51 -60 0
-46 -52 -53 0
-46 -52 -54 0
-46 -52 -55 0
-46 -52 -56 0
-46 -52 -57 0
-46 -52 -58 0
-46 -52 -59 0
-46 -52 -60 0
-46 -53 -54 0
-46 -53 -55 0
-46 -53 -56 0
-46 -53 -57 0
-46 -53 -58 0
-46 -53 -59 0
-46 -53 -60 0
-46 -54 -55 0
-46 -54 -56 0
-46 -54 -57 0
-46 -54 -58 0
-46 -54 -59 0
-46 -54 -60 0
-46 -55 -56 0
-46 -55 -57 0
-46 -55 -58 0
-46 -55 -59 0
-46 -55 -60 0
-46 -56 -57 0
-46 -56 -58 0
-46 -56 -59 0
-46 -56 -60 0
-46 -57 -58 0
-46 -57 -59 0
-46 -57 -60 0
-46 -58 -59 0
-46 -58 -60 0
-46 -59 -60 0
-47 -48 -49 0
-47 -48 -50 0
-47 -48 -51 0
-47 -48 -52 0
-47 -48 -53 0
-47 -48 -54 0
-47 -48 -55 0
-47 -48 -56 0
-47 -48 -57 0
-47 -48 -58 0
-47 -48 -59 0
-47 -48 -60 0
-47 -49 -50 0
-47 -49 -51 0
-47 -49 -52 0
-47 -49 -53 0
-47 -49 -54 0
-47 -49 -55 0
-47 -49 -56 0
-47 -49 -57 0
-47 -49 -58 0
-47 -49 -59 0
-47 -49 -60 0
-47 -50 -51 0
-47 -50 -52 0
-47 -50 -53 0
-47 -50 -54 0
-47 -50 -55 0
-47 -50 -56 0
-47 -50 -57 0
-47 -50 -58 0
-47 -50 -59 0
-47 -50 -60 0
-47 -51 -52 0
-47 -51 -53 0
-47 -51 -54 0
-47 -51 -55 0
-47 -51 -56 0
-47 -51 -57 0
-47 -51 -58 0
-47 -51 -59 0
-47 -51 -60 0
-47 -52 -53 0
-47 -52 -54 0
-47 -52 -55 0
-47 -52 -56 0
-47 -52 -57 0
-47 -52 -58 0
-47 -52 -59 0
-47 -52 -60 0
-47 -53 -54 0
-47 -53 -55 0
-47 -53 -56 0
-47 -53 -57 0
-47 -53 -58 0
-47 -53 -59 0
-47 -53 -60 0
-47 -54 -55 0
-47 -54 -56 0
-47 -54 -57 0
-47 -54 -58 0
-47 -54 -59 0
-47 -54 -60 0
-47 -55 -56 0
-47 -55 -57 0
-47 -55 -58 0
-47 -55 -59 0
-47 -55 -60 0
-47 -56 -57 0
-47 -56 -58 0
-47 -56 -59 0
-47 -56 -60 0
-47 -57 -58 0
-47 -57 -59 0
-47 -57 -60 0
-47 -58 -59 0
-47 -58 -60 0
-47 -59 -60 0
-48 -49 -50 0
-48 -49 -51 0
-48 -49 -52 0
-48 -49 -53 0
-48 -49 -54 0
-48 -49 -55 0
-48 -49 -56 0
-48 -49 -57 0
-48 -49 -58 0
-48 -49 -59 0
-48 -49 -60 0
-48 -50 -51 0
-48 -50 -52 0
-48 -50 -53 0
-48 -50 -54 0
-48 -50 -55 0
-48 -50 -56 0
-48 -50 -57 0
-48 -50 -58 0
-48 -50 -59 0
-48 -50 -60 0
-48 -51 -52 0
-48 -51 -53 0
-48 -51 -54 0
-48 -51 -55 0
-48 -51 -56 0
-48 -51 -57 0
-48 -51 -58 0
-48 -51 -59 0
-48 -51 -60 0
-48 -52 -53 0
-48 -52 -54 0
-48 -52 -55 0
-48 -52 -56 0
-48 -52 -57 0
-48 -52 -58 0
-48 -52 -59 0
-48 -52 -60 0
-48 -53 -54 0
-48 -53 -55 0
-48 -53 -56 0
-48 -53 -57 0
-48 -53 -58 0
-48 -53 -59 0
-48 -53 -60 0
-48 -54 -55 0
-48 -54 -56 0
-48 -54 -57 0
-48 -54 -58 0
-48 -54 -59 0
-48 -54 -60 0
-48 -55 -56 0
-48 -55 -57 0
-48 -55 -58 0
-48 -55 -59 0
-48 -55 -60 0
-48 -56 -57 0
-48 -56 -58 0
-48 -56 -59 0
-48 -56 -60 0
-48 -57 -58 0
-48 -57 -59 0
-48 -57 -60 0
-48 -58 -59 0
-48 -58 -60 0
-48 -59 -60 0
-49 -50 -51 0
-49 -50 -52 0
-49 -50 -53 0
-49 -50 -54 0
-49 -50 -55 0
-49 -50 -56 0
-49 -50 -57 0
-49 -50 -58 0
-49 -50 -59 0
-49 -50 -60 0
-49 -51 -52 0
-49 -51 -53 0
-49 -51 -54 0
-49 -51 -55 0
-49 -51 -56 0
-49 -51 -57 0
-49 -51 -58 0
-49 -51 -59 0
-49 -51 -60 0
-49 -52 -53 0
-49 -52 -54 0
-49 -52 -55 0
-49 -52 -56 0
-49 -52 -57 0
-49 -52 -58 0
-49 -52 -59 0
-49 -52 -60 0
-49 -53 -54 0
-49 -53 -55 0
-49 -53 -56 0
-49 -53 -57 0
-49 -53 -58 0
-49 -53 -59 0
-49 -53 -60 0
-49 -54 -55 0
-49 -54 -56 0
-49 -54 -57 0
-49 -54 -58 0
-49 -54 -59 0
-49 -54 -60 0
-49 -55 -56 0
-49 -55 -57 0
-49 -55 -58 0
-49 -55 -59 0
-49 -55 -60 0
-49 -56 -57 0
-49 -56 -58 0
-49 -56 -59 0
-49 -56 -60 0
-49 -57 -58 0
-49 -57 -59 0
-49 -57 -60 0
-49 -58 -59 0
-49 -58 -60 0
-49 -59 -60 0
-50 -51 -52 0
-50 -51 -53 0
-50 -51 -54 0
-50 -51 -55 0
-50 -51 -56 0
-50 -51 -57 0
-50 -51 -58 0
-50 -51 -59 0
-50 -51 -60 0
-50 -52 -53 0
-50 -52 -54 0
-50 -52 -55 0
-50 -52 -56 0
-50 -52 -57 0
-50 -52 -58 0
-50 -52 -59 0
-50 -52 -60 0
-50 -53 -54 0
-50 -53 -55 0
-50 -53 -56 0
-50 -53 -57 0
-50 -53 -58 0
-50 -53 -59 0
-50 -53 -60 0
-50 -54 -55 0
-50 -54 -56 0
-50 -54 -57 0
-50 -54 -58 0
-50 -54 -59 0
-50 -54 -60 0
-50 -55 -56 0
-50 -55 -57 0
-50 -55 -58 0
-50 -55 -59 0
-50 -55 -60 0
-50 -56 -57 0
-50 -56 -58 0
-50 -56 -59 0
-50 -56 -60 0
-50 -57 -58 0
-50 -57 -59 0
-50 -57 -60 0
-50 -58 -59 0
-50 -58 -60 0
-50 -59 -60 0
-51 -52 -53 0
-51 -52 -54 0
-51 -52 -55 0
-51 -52 -56 0
-51 -52 -57 0
-51 -52 -58 0
-51 -52 -59 0
-51 -52 -60 0
-51 -53 -54 0
-51 -53 -55 0
-51 -53 -56 0
-51 -53 -57 0
-51 -53 -58 0
-51 -53 -59 0
-51 -53 -60 0
-51 -54 -55 0
-51 -54 -56 0
-51 -54 -57 0
-51 -54 -58 0
-51 -54 -59 0
-51 -54 -60 0
-51 -55 -56 0
-51 -55 -57 0
-51 -55 -58 0
-51 -55 -59 0
-51 -55 -60 0
-51 -56 -57 0
-51 -56 -58 0
-51 -56 -59 0
-51 -56 -60 0
-51 -57 -58 0
-51 -57 -59 0
-51 -57 -60 0
-51 -58 -59 0
-51 -58 -60 0
-51 -59 -60 0
-52 -53 -54 0
-52 -53 -55 0
-52 -53 -56 0
-52 -53 -57 0
-52 -53 -58 0
-52 -53 -59 0
-52 -53 -60 0
-52 -54 -55 0
-52 -54 -56 0
-52 -54 -57 0
-52 -54 -58 0
-52 -54 -59 0
-52 -54 -60 0
-52 -55 -56 0
-52 -55 -57 0
-52 -55 -58 0
-52 -55 -59 0
-52 -55 -60 0
-52 -56 -57 0
-52 -56 -58 0
-52 -56 -59 0
-52 -56 -60 0
-52 -57 -58 0
-52 -57 -59 0
-52 -57 -60 0
-52 -58 -59 0
-52 -58 -60 0
-52 -59 -60 0
-53 -54 -55 0
-53 -54 -56 0
-53 -54 -57 0
-53 -54 -58 0
-53 -54 -59 0
-53 -54 -60 0
-53 -55 -56 0
-53 -55 -57 0
-53 -55 -58 0
-53 -55 -59 0
-53 -55 -60 0
-53 -56 -57 0
-53 -56 -58 0
-53 -56 -59 0
-53 -56 -60 0
-53 -57 -58 0
-53 -57 -59 0
-53 -57 -60 0
-53 -58 -59 0
-53 -58 -60 0
-53 -59 -60 0
-54 -55 -56 0
-54 -55 -57 0
-54 -55 -58 0
-54 -55 -59 0
-54 -55 -60 0
-54 -56 -57 0
-54 -56 -58 0
-54 -56 -59 0
-54 -56 -60 0
-54 -57 -58 0
-54 -57 -59 0
-54 -57 -60 0
-54 -58 -59 0
-54 -58 -60 0
-54 -59 -60 0
-55 -56 -57 0
-55 -56 -58 0
-55 -56 -59 0
-55 -56 -60 0
-55 -57 -58 0
-55 -57 -59 0
-55 -57 -60 0
-55 -58 -59 0
-55 -58 -60 0
-55 -59 -60 0
-56 -57 -58 0
-56 -57 -59 0
-56 -57 -60 0
-56 -58 -59 0
-56 -58 -60 0
-56 -59 -60 0
-57 -58 -59 0
-57 -58 -60 0
-57 -59 -60 0
-58 -59 -60 0
46 47 48 49 50 51 52 53 54 55 56 57 58 59 0
46 47 48 49 50 51 52 53 54 55 56 57 58 60 0
46 47 48 49 50 51 52 53 54 55 56 57 59 60 0
46 47 48 49 50 51 52 53 54 55 56 58 59 60 0
46 47 48 49 50 51 52 53 54 55 57 58 59 60 0
46 47 48 49 50 51 52 53 54 56 57 58 59 60 0
46 47 48 49 50 51 52 53 55 56 57 58 59 60 0
46 47 48 49 50 51 52 54 55 56 57 58 59 60 0
46 47 48 49 50 51 53 54 55 56 57 58 59 60 0
46 47 48 49 50 52 53 54 55 56 57 58 59 60 0
46 47 48 49 51 52 53 54 55 56 57 58 59 60 0
46 47 48 50 51 52 53 54 55 56 57 58 59 60 0
46 47 49 50 51 52 53 54 55 56 57 58 59 60 0
46 48 49 50 51 52 53 54 55 56 57 58 59 60 0
47 48 49 50 51 52 53 54 55 56 57 58 59 60 0
-61 -62 -63 0
-61 -62 -64 0
-61 -62 -65 0
-61 -62 -66 0
-61 -62 -67 0
-61 -62 -68 0
-61 -62 -69 0
-61 -62 -70 0
-61 -62 -71 0
-61 -62 -72 0
-61 -62 -73 0
-61 -62 -74 0
-61 -62 -75 0
-61 -63 -64 0
-61 -63 -65 0
-61 -63 -66 0
-61 -63 -67 0
-61 -63 -68 0
-61 -63 -69 0
-61 -63 -70 0
-61 -63 -71 0
-61 -63 -72 0
-61 -63 -73 0
-61 -63 -74 0
-61 -63 -75 0
-61 -64 -65 0
-61 -64 -66 0
-61 -64 -67 0
-61 -64 -68 0
-61 -64 -69 0
-61 -64 -70 0
-61 -64 -71 0
-61 -64 -72 0
-61 -64 -73 0
-61 -64 -74 0
-61 -64 -75 0
-61 -65 -66 0
-61 -65 -67 0
-61 -65 -68 0
-61 -65 -69 0
-61 -65 -70 0
-61 -65 -71 0
-61 -65 -72 0
-61 -65 -73 0
-61 -65 -74 0
-61 -65 -75 0
-61 -66 -67 0
-61 -66 -68 0
-61 -66 -69 0
-61 -66 -70 0
-61 -66 -71 0
-61 -66 -72 0
-61 -66 -73 0
-61 -66 -74 0
-61 -66 -75 0
-61 -67 -68 0
-61 -67 -69 0
-61 -67 -70 0
-61 -67 -71 0
-61 -67 -72 0
-61 -67 -73 0
-61 -67 -74 0
-61 -67 -75 0
-61 -68 -69 0
-61 -68 -70 0
-61 -68 -71 0
-61 -68 -72 0
-61 -68 -73 0
-61 -68 -74 0
-61 -68 -75 0
-61 -69 -70 0
-61 -69 -71 0
-61 -69 -72 0
-61 -69 -73 0
-61 -69 -74 0
-61 -69 -75 0
-61 -70 -71 0
-61 -70 -72 0
-61 -70 -73 0
-61 -70 -74 0
-61 -70 -75 0
-61 -71 -72 0
-61 -71 -73 0
-61 -71 -74 0
-61 -71 -75 0
-61 -72 -73 0
-61 -72 -74 0
-61 -72 -75 0
-61 -73 -74 0
-61 -73 -75 0
-61 -74 -75 0
-62 -63 -64 0
-62 -63 -65 0
-62 -63 -66 0
-62 -63 -67 0
-62 -63 -68 0
-62 -63 -69 0
-62 -63 -70 0
-62 -63 -71 0
-62 -63 -72 0
-62 -63 -73 0
-62 -63 -74 0
-62 -63 -75 0
-62 -64 -65 0
-62 -64 -66 0
-62 -64 -67 0
-62 -64 -68 0
-62 -64 -69 0
-62 -64 -70 0
-62 -64 -71 0
-62 -64 -72 0
-62 -64 -73 0
-62 -64 -74 0
-62 -64 -75 0
-62 -65 -66 0
-62 -65 -67 0
-62 -65 -68 0
-62 -65 -69 0
-62 -65 -70 0
-62 -65 -71 0
-62 -65 -72 0
-62 -65 -73 0
-62 -65 -74 0
-62 -65 -75 0
-62 -66 -67 0
-62 -66 -68 0
-62 -66 -69 0
-62 -66 -70 0
-62 -66 -71 0
-62 -66 -72 0
-62 -66 -73 0
-62 -66 -74 0
-62 -66 -75 0
-62 -67 -68 0
-62 -67 -69 0
-62 -67 -70 0
-62 -67 -71 0
-62 -67 -72 0
-62 -67 -73 0
-62 -67 -74 0
-62 -67 -75 0
-62 -68 -69 0
-62 -68 -70 0
-62 -68 -71 0
-62 -68 -72 0
-62 -68 -73 0
-62 -68 -74 0
-62 -68 -75 0
-62 -69 -70 0
-62 -69 -71 0
-62 -69 -72 0
-62 -69 -73 0
-62 -69 -74 0
-62 -69 -75 0
-62 -70 -71 0
-62 -70 -72 0
-62 -70 -73 0
-62 -70 -74 0
-62 -70 -75 0
-62 -71 -72 0
-62 -71 -73 0
-62 -71 -74 0
-62 -71 -75 0
-62 -72 -73 0
-62 -72 -74 0
-62 -72 -75 0
-62 -73 -74 0
-62 -73 -75 0
-62 -74 -75 0
-63 -64 -65 0
-63 -64 -66 0
-63 -64 -67 0
-63 -64 -68 0
-63 -64 -69 0
-63 -64 -70 0
-63 -64 -71 0
-63 -64 -72 0
-63 -64 -73 0
-63 -64 -74 0
-63 -64 -75 0
-63 -65 -66 0
-63 -65 -67 0
-63 -65 -68 0
-63 -65 -69 0
-63 -65 -70 0
-63 -65 -71 0
-63 -65 -72 0
-63 -65 -73 0
-63 -65 -74 0
-63 -65 -75 0
-63 -66 -67 0
-63 -66 -68 0
-63 -66 -69 0
-63 -66 -70 0
-63 -66 -71 0
-63 -66 -72 0
-63 -66 -73 0
-63 -66 -74 0
-63 -66 -75 0
-63 -67 -68 0
-63 -67 -69 0
-63 -67 -70 0
-63 -67 -71 0
-63 -67 -72 0
-63 -67 -73 0
-63 -67 -74 0
-63 -67 -75 0
-63 -68 -69 0
-63 -68 -70 0
-63 -68 -71 0
-63 -68 -72 0
-63 -68 -73 0
-63 -68 -74 0
-63 -68 -75 0
-63 -69 -70 0
-63 -69 -71 0
-63 -69 -72 0
-63 -69 -73 0
-63 -69 -74 0
-63 -69 -75 0
-63 -70 -71 0
-63 -70 -72 0
-63 -70 -73 0
-63 -70 -74 0
-63 -70 -75 0
-63 -71 -72 0
-63 -71 -73 0
-63 -71 -74 0
-63 -71 -75 0
-63 -72 -73 0
-63 -72 -74 0
-63 -72 -75 0
-63 -73 -74 0
-63 -73 -75 0
-63 -74 -75 0
-64 -65 -66 0
-64 -65 -67 0
-64 -65 -68 0
-64 -65 -69 0
-64 -65 -70 0
-64 -65 -71 0
-64 -65 -72 0
-64 -65 -73 0
-64 -65 -74 0
-64 -65 -75 0
-64 -66 -67 0
-64 -66 -68 0
-64 -66 -69 0
-64 -66 -70 0
-64 -66 -71 0
-64 -66 -72 0
-64 -66 -73 0
-64 -66 -74 0
-64 -66 -75 0
-64 -67 -68 0
-64 -67 -69 0
-64 -67 -70 0
-64 -67 -71 0
-64 -67 -72 0
-64 -67 -73 0
-64 -67 -74 0
-64 -67 -75 0
-64 -68 -69 0
-64 -68 -70 0
-64 -68 -71 0
-64 -68 -72 0
-64 -68 -73 0
-64 -68 -74 0
-64 -68 -75 0
-64 -69 -70 0
-64 -69 -71 0
-64 -69 -72 0
-64 -69 -73 0
-64 -69 -74 0
-64 -69 -75 0
-64 -70 -71 0
-64 -70 -72 0
-64 -70 -73 0
-64 -70 -74 0
-64 -70 -75 0
-64 -71 -72 0
-64 -71 -73 0
-64 -71 -74 0
-64 -71 -75 0
-64 -72 -73 0
-64 -72 -74 0
-64 -72 -75 0
-64 -73 -74 0
-64 -73 -75 0
-64 -74 -75 0
-65 -66 -67 0
-65 -66 -68 0
-65 -66 -69 0
-65 -66 -70 0
-65 -66 -71 0
-65 -66 -72 0
-65 -66 -73 0
-65 -66 -74 0
-65 -66 -75 0
-65 -67 -68 0
-65 -67 -69 0
-65 -67 -70 0
-65 -67 -71 0
-65 -67 -72 0
-65 -67 -73 0
-65 -67 -74 0
-65 -67 -75 0
-65 -68 -69 0
-65 -68 -70 0
-65 -68 -71 0
-65 -68 -72 0
-65 -68 -73 0
-65 -68 -74 0
-65 -68 -75 0
-65 -69 -70 0
-65 -69 -71 0
-65 -69 -72 0
-65 -69 -73 0
-65 -69 -74 0
-65 -69 -75 0
-65 -70 -71 0
-65 -70 -72 0
-65 -70 -73 0
-65 -70 -74 0
-65 -70 -75 0
-65 -71 -72 0
-65 -71 -73 0
-65 -71 -74 0
-65 -71 -75 0
-65 -72 -73 0
-65 -72 -74 0
-65 -72 -75 0
-65 -73 -74 0
-65 -73 -75 0
-65 -74 -75 0
-66 -67 -68 0
-66 -67 -69 0
-66 -67 -70 0
-66 -67 -71 0
-66 -67 -72 0
-66 -67 -73 0
-66 -67 -74 0
-66 -67 -75 0
-66 -68 -69 0
-66 -68 -70 0
-66 -68 -71 0
-66 -68 -72 0
-66 -68 -73 0
-66 -68 -74 0
-66 -68 -75 0
-66 -69 -70 0
-66 -69 -71 0
-66 -69 -72 0
-66 -69 -73 0
-66 -69 -74 0
-66 -69 -75 0
-66 -70 -71 0
-66 -70 -72 0
-66 -70 -73 0
-66 -70 -74 0
-66 -70 -75 0
-66 -71 -72 0
-66 -71 -73 0
-66 -71 -74 0
-66 -71 -75 0
-66 -72 -73 0
-66 -72 -74 0
-66 -72 -75 0
-66 -73 -74 0
-66 -73 -75 0
-66 -74 -75 0
-67 -68 -69 0
-67 -68 -70 0
-67 -68 -71 0
-67 -68 -72 0
-67 -68 -73 0
-67 -68 -74 0
-67 -68 -75 0
-67 -69 -70 0
-67 -69 -71 0
-67 -69 -72 0
-67 -69 -73 0
-67 -69 -74 0
-67 -69 -75 0
-67 -70 -71 0
-67 -70 -72 0
-67 -70 -73 0
-67 -70 -74 0
-67 -70 -75 0
-67 -71 -72 0
-67 -71 -73 0
-67 -71 -74 0
-67 -71 -75 0
-67 -72 -73 0
-67 -72 -74 0
-67 -72 -75 0
-67 -73 -74 0
-67 -73 -75 0
-67 -74 -75 0
-68 -69 -70 0
-68 -69 -71 0
-68 -69 -72 0
-68 -69 -73 0
-68 -69 -74 0
-68 -69 -75 0
-68 -70 -71 0
-68 -70 -72 0
-68 -70 -73 0
-68 -70 -74 0
-68 -70 -75 0
-68 -71 -72 0
-68 -71 -73 0
-68 -71 -74 0
-68 -71 -75 0
-68 -72 -73 0
-68 -72 -74 0
-68 -72 -75 0
-68 -73 -74 0
-68 -73 -75 0
-68 -74 -75 0
-69 -70 -71 0
-69 -70 -72 0
-69 -70 -73 0
-69 -70 -74 0
-69 -70 -75 0
-69 -71 -72 0
-69 -71 -73 0
-69 -71 -74 0
-69 -71 -75 0
-69 -72 -73 0
-69 -72 -74 0
-69 -72 -75 0
-69 -73 -74 0
-69 -73 -75 0
-69 -74 -75 0
-70 -71 -72 0
-70 -71 -73 0
-70 -71 -74 0
-70 -71 -75 0
-70 -72 -73 0
-70 -72 -74 0
-70 -72 -75 0
-70 -73 -74 0
-70 -73 -75 0
-70 -74 -75 0
-71 -72 -73 0
-71 -72 -74 0
-71 -72 -75 0
-71 -73 -74 0
-71 -73 -75 0
-71 -74 -75 0
-72 -73 -74 0
-72 -73 -75 0
-72 -74 -75 0
-73 -74 -75 0
61 62 63 64 65 66 67 68 69 70 71 72 73 74 0
61 62 63 64 65 66 67 68 69 70 71 72 73 75 0
61 62 63 64 65 66 67 68 69 70 71 72 74 75 0
61 62 63 64 65 66 67 68 69 70 71 73 74 75 0
61 62 63 64 65 66 67 68 69 70 72 73 74 75 0
61 62 63 64 65 66 67 68 69 71 72 73 74 75 0
61 62 63 64 65 66 67 68 70 71 72 73 74 75 0
61 62 63 64 65 66 67 69 70 71 72 73 74 75 0
61 62 63 64 65 66 68 69 70 71 72 73 74 75 0
61 62 63 64 65 67 68 69 70 71 72 73 74 75 0
61 62 63 64 66 67 68 69 70 71 72 73 74 75 0
61 62 63 65 66 67 68 69 70 71 72 73 74 75 0
61 62 64 65 66 67 68 69 70 71 72 73 74 75 0
61 63 64 65 66 67 68 69 70 71 72 73 74 75 0
62 63 64 65 66 67 68 69 70 71 72 73 74 75 0
-76 -77 -78 0
-76 -77 -79 0
-76 -77 -80 0
-76 -77 -81 0
-76 -77 -82 0
-76 -77 -83 0
-76 -77 -84 0
-76 -77 -85 0
-76 -77 -86 0
-76 -77 -87 0
-76 -77 -88 0
-76 -77 -89 0
-76 -77 -90 0
-76 -78 -79 0
-76 -78 -80 0
-76 -78 -81 0
-76 -78 -82 0
-76 -78 -83 0
-76 -78 -84 0
-76 -78 -85 0
-76 -78 -86 0
-76 -78 -87 0
-76 -78 -88 0
-76 -78 -89 0
-76 -78 -90 0
-76 -79 -80 0
-76 -79 -81 0
-76 -79 -82 0
-76 -79 -83 0
-76 -79 -84 0
-76 -79 -85 0
-76 -79 -86 0
-76 -79 -87 0
-76 -79 -88 0
-76 -79 -89 0
-76 -79 -90 0
-76 -80 -81 0
-76 -80 -82 0
-76 -80 -83 0
-76 -80 -84 0
-76 -80 -85 0
-76 -80 -86 0
-76 -80 -87 0
-76 -80 -88 0
-76 -80 -89 0
-76 -80 -90 0
-76 -81 -82 0
-76 -81 -83 0
-76 -81 -84 0
-76 -81 -85 0
-76 -81 -86 0
-76 -81 -87 0
-76 -81 -88 0
-76 -81 -89 0
-76 -81 -90 0
-76 -82 -83 0
-76 -82 -84 0
-76 -82 -85 0
-76 -82 -86 0
-76 -82 -87 0
-76 -82 -88 0
-76 -82 -89 0
-76 -82 -90 0
-76 -83 -84 0
-76 -83 -85 0
-76 -83 -86 0
-76 -83 -87 0
-76 -83 -88 0
-76 -83 -89 0
-76 -83 -90 0
-76 -84 -85 0
-76 -84 -86 0
-76 -84 -87 0
-76 -84 -88 0
-76 -84 -89 0
-76 -84 -90 0
-76 -85 -86 0
-76 -85 -87 0
-76 -85 -88 0
-76 -85 -89 0
-76 -85 -90 0
-76 -86 -87 0
-76 -86 -88 0
-76 -86 -89 0
-76 -86 -90 0
-76 -87 -88 0
-76 -87 -89 0
-76 -87 -90 0
-76 -88 -89 0
-76 -88 -90 0
-76 -89 -90 0
-77 -78 -79 0
-77 -78 -80 0
-77 -78 -81 0
-77 -78 -82 0
-77 -78 -83 0
-77 -78 -84 0
-77 -78 -85 0
-77 -78 -86 0
-77 -78 -87 0
-77 -78 -88 0
-77 -78 -89 0
-77 -78 -90 0
-77 -79 -80 0
-77 -79 -81 0
-77 -79 -82 0
-77 -79 -83 0
-77 -79 -84 0
-77 -79 -85 0
-77 -79 -86 0
-77 -79 -87 0
-77 -79 -88 0
-77 -79 -89 0
-77 -79 -90 0
-77 -80 -81 0
-77 -80 -82 0
-77 -80 -83 0
-77 -80 -84 0
-77 -80 -85 0
-77 -80 -86 0
-77 -80 -87 0
-77 -80 -88 0
-77 -80 -89 0
-77 -80 -90 0
-77 -81 -82 0
-77 -81 -83 0
-77 -81 -84 0
-77 -81 -85 0
-77 -81 -86 0
-77 -81 -87 0
-77 -81 -88 0
-77 -81 -89 0
-77 -81 -90 0
-77 -82 -83 0
-77 -82 -84 0
-77 -82 -85 0
-77 -82 -86 0
-77 -82 -87 0
-77 -82 -88 0
-77 -82 -89 0
-77 -82 -90 0
-77 -83 -84 0
-77 -83 -85 0
-77 -83 -86 0
-77 -83 -87 0
-77 -83 -88 0
-77 -83 -89 0
-77 -83 -90 0
-77 -84 -85 0
-77 -84 -86 0
-77 -84 -87 0
-77 -84 -88 0
-77 -84 -89 0
-77 -84 -90 0
-77 -85 -86 0
-77 -85 -87 0
-77 -85 -88 0
-77 -85 -89 0
-77 -85 -90 0
-77 -86 -87 0
-77 -86 -88 0
-77 -86 -89 0
-77 -86 -90 0
-77 -87 -88 0
-77 -87 -89 0
-77 -87 -90 0
-77 -88 -89 0
-77 -88 -90 0
-77 -89 -90 0
-78 -79 -80 0
-78 -79 -81 0
-78 -79 -82 0
-78 -79 -83 0
-78 -79 -84 0
-78 -79 -85 0
-78 -79 -86 0
-78 -79 -87 0
-78 -79 -88 0
-78 -79 -89 0
-78 -79 -90 0
-78 -80 -81 0
-78 -80 -82 0
-78 -80 -83 0
-78 -80 -84 0
-78 -80 -85 0
-78 -80 -86 0
-78 -80 -87 0
-78 -80 -88 0
-78 -80 -89 0
-78 -80 -90 0
-78 -81 -82 0
-78 -81 -83 0
-78 -81 -84 0
-78 -81 -85 0
-78 -81 -86 0
-78 -81 -87 0
-78 -81 -88 0
-78 -81 -89 0
-78 -81 -90 0
-78 -82 -83 0
-78 -82 -84 0
-78 -82 -85 0
-78 -82 -86 0
-78 -82 -87 0
-78 -82 -88 0
-78 -82 -89 0
-78 -82 -90 0
-78 -83 -84 0
-78 -83 -85 0
-78 -83 -86 0
-78 -83 -87 0
-78 -83 -88 0
-78 -83 -89 0
-78 -83 -90 0
-78 -84 -85 0
-78 -84 -86 0
-78 -84 -87 0
-78 -84 -88 0
-78 -84 -89 0
-78 -84 -90 0
-78 -85 -86 0
-78 -85 -87 0
-78 -85 -88 0
-78 -85 -89 0
-78 -85 -90 0
-78 -86 -87 0
-78 -86 -88 0
-78 -86 -89 0
-78 -86 -90 0
-78 -87 -88 0
-78 -87 -89 0
-78 -87 -90 0
-78 -88 -89 0
-78 -88 -90 0
-78 -89 -90 0
-79 -80 -81 0
-79 -80 -82 0
-79 -80 -83 0
-79 -80 -84 0
-79 -80 -85 0
-79 -80 -86 0
-79 -80 -87 0
-79 -80 -88 0
-79 -80 -89 0
-79 -80 -90 0
-79 -81 -82 0
-79 -81 -83 0
-79 -81 -84 0
-79 -81 -85 0
-79 -81 -86 0
-79 -81 -87 0
-79 -81 -88 0
-79 -81 -89 0
-79 -81 -90 0
-79 -82 -83 0
-79 -82 -84 0
-79 -82 -85 0
-79 -82 -86 0
-79 -82 -87 0
-79 -82 -88 0
-79 -82 -89 0
-79 -82 -90 0
-79 -83 -84 0
-79 -83 -85 0
-79 -83 -86 0
-79 -83 -87 0
-79 -83 -88 0
-79 -83 -89 0
-79 -83 -90 0
-79 -84 -85 0
-79 -84 -86 0
-79 -84 -87 0
-79 -84 -88 0
-79 -84 -89 0
-79 -84 -90 0
-79 -85 -86 0
-79 -85 -87 0
-79 -85 -88 0
-79 -85 -89 0
-79 -85 -90 0
-79 -86 -87 0
-79 -86 -88 0
-79 -86 -89 0
-79 -86 -90 0
-79 -87 -88 0
-79 -87 -89 0
-79 -87 -90 0
-79 -88 -89 0
-79 -88 -90 0
-79 -89 -90 0
-80 -81 -82 0
-80 -81 -83 0
-80 -81 -84 0
-80 -81 -85 0
-80 -81 -86 0
-80 -81 -87 0
-80 -81 -88 0
-80 -81 -89 0
-80 -81 -90 0
-80 -82 -83 0
-80 -82 -84 0
-80 -82 -85 0
-80 -82 -86 0
-80 -82 -87 0
-80 -82 -88 0
-80 -82 -89 0
-80 -82 -90 0
-80 -83 -84 0
-80 -83 -85 0
-80 -83 -86 0
-80 -83 -87 0
-80 -83 -88 0
-80 -83 -89 0
-80 -83 -90 0
-80 -84 -85 0
-80 -84 -86 0
-80 -84 -87 0
-80 -84 -88 0
-80 -84 -89 0
-80 -84 -90 0
-80 -85 -86 0
-80 -85 -87 0
-80 -85 -88 0
-80 -85 -89 0
-80 -85 -90 0
-80 -86 -87 0
-80 -86 -88 0
-80 -86 -89 0
-80 -86 -90 0
-80 -87 -88 0
-80 -87 -89 0
-80 -87 -90 0
-80 -88 -89 0
-80 -88 -90 0
-80 -89 -90 0
-81 -82 -83 0
-81 -82 -84 0
-81 -82 -85 0
-81 -82 -86 0
-81 -82 -87 0
-81 -82 -88 0
-81 -82 -89 0
-81 -82 -90 0
-81 -83 -84 0
-81 -83 -85 0
-81 -83 -86 0
-81 -83 -87 0
-81 -83 -88 0
-81 -83 -89 0
-81 -83 -90 0
-81 -84 -85 0
-81 -84 -86 0
-81 -84 -87 0
-81 -84 -88 0
-81 -84 -89 0
-81 -84 -90 0
-81 -85 -86 0
-81 -85 -87 0
-81 -85 -88 0
-81 -85 -89 0
-81 -85 -90 0
-81 -86 -87 0
-81 -86 -88 0
-81 -86 -89 0
-81 -86 -90 0
-81 -87 -88 0
-81 -87 -89 0
-81 -87 -90 0
-81 -88 -89 0
-81 -88 -90 0
-81 -89 -90 0
-82 -83 -84 0
-82 -83 -85 0
-82 -83 -86 0
-82 -83 -87 0
-82 -83 -88 0
-82 -83 -89 0
-82 -83 -90 0
-82 -84 -85 0
-82 -84 -86 0
-82 -84 -87 0
-82 -84 -88 0
-82 -84 -89 0
-82 -84 -90 0
-82 -85 -86 0
-82 -85 -87 0
-82 -85 -88 0
-82 -85 -89 0
-82 -85 -90 0
-82 -86 -87 0
-82 -86 -88 0
-82 -86 -89 0
-82 -86 -90 0
-82 -87 -88 0
-82 -87 -89 0
-82 -87 -90 0
-82 -88 -89 0
-82 -88 -90 0
-82 -89 -90 0
-83 -84 -85 0
-83 -84 -86 0
-83 -84 -87 0
-83 -84 -88 0
-83 -84 -89 0
-83 -84 -90 0
-83 -85 -86 0
-83 -85 -87 0
-83 -85 -88 0
-83 -85 -89 0
-83 -85 -90 0
-83 -86 -87 0
-83 -86 -88 0
-83 -86 -89 0
-83 -86 -90 0
-83 -87 -88 0
-83 -87 -89 0
-83 -87 -90 0
-83 -88 -89 0
-83 -88 -90 0
-83 -89 -90 0
-84 -85 -86 0
-84 -85 -87 0
-84 -85 -88 0
-84 -85 -89 0
-84 -85 -90 0
-84 -86 -87 0
-84 -86 -88 0
-84 -86 -89 0
-84 -86 -90 0
-84 -87 -88 0
-84 -87 -89 0
-84 -87 -90 0
-84 -88 -89 0
-84 -88 -90 0
-84 -89 -90 0
-85 -86 -87 0
-85 -86 -88 0
-85 -86 -89 0
-85 -86 -90 0
-85 -87 -88 0
-85 -87 -89 0
-85 -87 -90 0
-85 -88 -89 0
-85 -88 -90 0
-85 -89 -90 0
-86 -87 -88 0
-86 -87 -89 0
-86 -87 -90 0
-86 -88 -89 0
-86 -88 -90 0
-86 -89 -90 0
-87 -88 -89 0
-87 -88 -90 0
-87 -89 -90 0
-88 -89 -90 0
76 77 78 79 80 81 82 83 84 85 86 87 88 89 0
76 77 78 79 80 81 82 83 84 85 86 87 88 90 0
76 77 78 79 80 81 82 83 84 85 86 87 89 90 0
76 77 78 79 80 81 82 83 84 85 86 88 89 90 0
76 77 78 79 80 81 82 83 84 85 87 88 89 90 0
76 77 78 79 80 81 82 83 84 86 87 88 89 90 0
76 77 78 79 80 81 82 83 85 86 87 88 89 90 0
76 77 78 79 80 81 82 84 85 86 87 88 89 90 0
76 77 78 79 80 81 83 84 85 86 87 88 89 90 0
76 77 78 79 80 82 83 84 85 86 87 88 89 90 0
76 77 78 79 81 82 83 84 85 86 87 88 89 90 0
76 77 78 80 81 82 83 84 85 86 87 88 89 90 0
76 77 79 80 81 82 83 84 85 86 87 88 89 90 0
76 78 79 80 81 82 83 84 85 86 87 88 89 90 0
77 78 79 80 81 82 83 84 85 86 87 88 89 90 0
-91 -92 -93 0
-91 -92 -94 0
-91 -92 -95 0
-91 -92 -96 0
-91 -92 -97 0
-91 -92 -98 0
-91 -92 -99 0
-91 -92 -100 0
-91 -92 -101 0
-91 -92 -102 0
-91 -92 -103 0
-91 -92 -104 0
-91 -92 -105 0
-91 -93 -94 0
-91 -93 -95 0
-91 -93 -96 0
-91 -93 -97 0
-91 -93 -98 0
-91 -93 -99 0
-91 -93 -100 0
-91 -93 -101 0
-91 -93 -102 0
-91 -93 -103 0
-91 -93 -104 0
-91 -93 -105 0
-91 -94 -95 0
-91 -94 -96 0
-91 -94 -97 0
-91 -94 -98 0
-91 -94 -99 0
-91 -94 -100 0
-91 -94 -101 0
-91 -94 -102 0
-91 -94 -103 0
-91 -94 -104 0
-91 -94 -105 0
-91 -95 -96 0
-91 -95 -97 0
-91 -95 -98 0
-91 -95 -99 0
-91 -95 -100 0
-91 -95 -101 0
-91 -95 -102 0
-91 -95 -103 0
-91 -95 -104 0
-91 -95 -105 0
-91 -96 -97 0
-91 -96 -98 0
-91 -96 -99 0
-91 -96 -100 0
-91 -96 -101 0
-91 -96 -102 0
-91 -96 -103 0
-91 -96 -104 0
-91 -96 -105 0
-91 -97 -98 0
-91 -97 -99 0
-91 -97 -100 0
-91 -97 -101 0
-91 -97 -102 0
-91 -97 -103 0
-91 -97 -104 0
-91 -97 -105 0
-91 -98 -99 0
-91 -98 -100 0
-91 -98 -101 0
-91 -98 -102 0
-91 -98 -103 0
-91 -98 -104 0
-91 -98 -105 0
-91 -99 -100 0
-91 -99 -101 0
-91 -99 -102 0
-91 -99 -103 0
-91 -99 -104 0
-91 -99 -105 0
-91 -100 -101 0
-91 -100 -102 0
-91 -100 -103 0
-91 -100 -104 0
-91 -100 -105 0
-91 -101 -102 0
-91 -101 -103 0
-91 -101 -104 0
-91 -101 -105 0
-91 -102 -103 0
-91 -102 -104 0
-91 -102 -105 0
-91 -103 -104 0
-91 -103 -105 0
-91 -104 -105 0
-92 -93 -94 0
-92 -93 -95 0
-92 -93 -96 0
-92 -93 -97 0
-92 -93 -98 0
-92 -93 -99 0
-92 -93 -100 0
-92 -93 -101 0
-92 -93 -102 0
-92 -93 -103 0
-92 -93 -104 0
-92 -93 -105 0
-92 -94 -95 0
-92 -94 -96 0
-92 -94 -97 0
-92 -94 -98 0
-92 -94 -99 0
-92 -94 -100 0
-92 -94 -101 0
-92 -94 -102 0
-92 -94 -103 0
-92 -94 -104 0
-92 -94 -105 0
-92 -95 -96 0
-92 -95 -97 0
-92 -95 -98 0
-92 -95 -99 0
-92 -95 -100 0
-92 -95 -101 0
-92 -95 -102 0
-92 -95 -103 0
-92 -95 -104 0
-92 -95 -105 0
-92 -96 -97 0
-92 -96 -98 0
-92 -96 -99 0
-92 -96 -100 0
-92 -96 -101 0
-92 -96 -102 0
-92 -96 -103 0
-92 -96 -104 0
-92 -96 -105 0
-92 -97 -98 0
-92 -97 -99 0
-92 -97 -100 0
-92 -97 -101 0
-92 -97 -102 0
-92 -97 -103 0
-92 -97 -104 0
-92 -97 -105 0
-92 -98 -99 0
-92 -98 -100 0
-92 -98 -101 0
-92 -98 -102 0
-92 -98 -103 0
-92 -98 -104 0
-92 -98 -105 0
-92 -99 -100 0
-92 -99 -101 0
-92 -99 -102 0
-92 -99 -103 0
-92 -99 -104 0
-92 -99 -105 0
-92 -100 -101 0
-92 -100 -102 0
-92 -100 -103 0
-92 -100 -104 0
-92 -100 -105 0
-92 -101 -102 0
-92 -101 -103 0
-92 -101 -104 0
-92 -101 -105 0
-92 -102 -103 0
-92 -102 -104 0
-92 -102 -105 0
-92 -103 -104 0
-92 -103 -105 0
-92 -104 -105 0
-93 -94 -95 0
-93 -94 -96 0
-93 -94 -97 0
-93 -94 -98 0
-93 -94 -99 0
-93 -94 -100 0
-93 -94 -101 0
-93 -94 -102 0
-93 -94 -103 0
-93 -94 -104 0
-93 -94 -105 0
-93 -95 -96 0
-93 -95 -97 0
-93 -95 -98 0
-93 -95 -99 0
-93 -95 -100 0
-93 -95 -101 0
-93 -95 -102 0
-93 -95 -103 0
-93 -95 -104 0
-93 -95 -105 0
-93 -96 -97 0
-93 -96 -98 0
-93 -96 -99 0
-93 -96 -100 0
-93 -96 -101 0
-93 -96 -102 0
-93 -96 -103 0
-93 -96 -104 0
-93 -96 -105 0
-93 -97 -98 0
-93 -97 -99 0
-93 -97 -100 0
-93 -97 -101 0
-93 -97 -102 0
-93 -97 -103 0
-93 -97 -104 0
-93 -97 -105 0
-93 -98 -99 0
-93 -98 -100 0
-93 -98 -101 0
-93 -98 -102 0
-93 -98 -103 0
-93 -98 -104 0
-93 -98 -105 0
-93 -99 -100 0
-93 -99 -101 0
-93 -99 -102 0
-93 -99 -103 0
-93 -99 -104 0
-93 -99 -105 0
-93 -100 -101 0
-93 -100 -102 0
-93 -100 -103 0
-93 -100 -104 0
-93 -100 -105 0
-93 -101 -102 0
-93 -101 -103 0
-93 -101 -104 0
-93 -101 -105 0
-93 -102 -103 0
-93 -102 -104 0
-93 -102 -105 0
-93 -103 -104 0
-93 -103 -105 0
-93 -104 -105 0
-94 -95 -96 0
-94 -95 -97 0
-94 -95 -98 0
-94 -95 -99 0
-94 -95 -100 0
-94 -95 -101 0
-94 -95 -102 0
-94 -95 -103 0
-94 -95 -104 0
-94 -95 -105 0
-94 -96 -97 0
-94 -96 -98 0
-94 -96 -99 0
-94 -96 -100 0
-94 -96 -101 0
-94 -96 -102 0
-94 -96 -103 0
-94 -96 -104 0
-94 -96 -105 0
-94 -97 -98 0
-94 -97 -99 0
-94 -97 -100 0
-94 -97 -101 0
-94 -97 -102 0
-94 -97 -103 0
-94 -97 -104 0
-94 -97 -105 0
-94 -98 -99 0
-94 -98 -100 0
-94 -98 -101 0
-94 -98 -102 0
-94 -98 -103 0
-94 -98 -104 0
-94 -98 -105 0
-94 -99 -100 0
-94 -99 -101 0
-94 -99 -102 0
-94 -99 -103 0
-94 -99 -104 0
-94 -99 -105 0
-94 -100 -101 0
-94 -100 -102 0
-94 -100 -103 0
-94 -100 -104 0
-94 -100 -105 0
-94 -101 -102 0
-94 -101 -103 0
-94 -101 -104 0
-94 -101 -105 0
-94 -102 -103 0
-94 -102 -104 0
-94 -102 -105 0
-94 -103 -104 0
-94 -103 -105 0
-94 -104 -105 0
-95 -96 -97 0
-95 -96 -98 0
-95 -96 -99 0
-95 -96 -100 0
-95 -96 -101 0
-95 -96 -102 0
-95 -96 -103 0
-95 -96 -104 0
-95 -96 -105 0
-95 -97 -98 0
-95 -97 -99 0
-95 -97 -100 0
-95 -97 -101 0
-95 -97 -102 0
-95 -97 -103 0
-95 -97 -104 0
-95 -97 -105 0
-95 -98 -99 0
-95 -98 -100 0
-95 -98 -101 0
-95 -98 -102 0
-95 -98 -103 0
-95 -98 -104 0
-95 -98 -105 0
-95 -99 -100 0
-95 -99 -101 0
-95 -99 -102 0
-95 -99 -103 0
-95 -99 -104 0
-95 -99 -105 0
-95 -100 -101 0
-95 -100 -102 0
-95 -100 -103 0
-95 -100 -104 0
-95 -100 -105 0
-95 -101 -102 0
-95 -101 -103 0
-95 -101 -104 0
-95 -101 -105 0
-95 -102 -103 0
-95 -102 -104 0
-95 -102 -105 0
-95 -103 -104 0
-95 -103 -105 0
-95 -104 -105 0
-96 -97 -98 0
-96 -97 -99 0
-96 -97 -100 0
-96 -97 -101 0
-96 -97 -102 0
-96 -97 -103 0
-96 -97 -104 0
-96 -97 -105 0
-96 -98 -99 0
-96 -98 -100 0
-96 -98 -101 0
-96 -98 -102 0
-96 -98 -103 0
-96 -98 -104 0
-96 -98 -105 0
-96 -99 -100 0
-96 -99 -101 0
-96 -99 -102 0
-96 -99 -103 0
-96 -99 -104 0
-96 -99 -105 0
-96 -100 -101 0
-96 -100 -102 0
-96 -100 -103 0
-96 -100 -104 0
-96 -100 -105 0
-96 -101 -102 0
-96 -101 -103 0
-96 -101 -104 0
-96 -101 -105 0
-96 -102 -103 0
-96 -102 -104 0
-96 -102 -105 0
-96 -103 -104 0
-96 -103 -105 0
-96 -104 -105 0
-97 -98 -99 0
-97 -98 -100 0
-97 -98 -101 0
-97 -98 -102 0
-97 -98 -103 0
-97 -98 -104 0
-97 -98 -105 0
-97 -99 -100 0
-97 -99 -101 0
-97 -99 -102 0
-97 -99 -103 0
-97 -99 -104 0
-97 -99 -105 0
-97 -100 -101 0
-97 -100 -102 0
-97 -100 -103 0
-97 -100 -104 0
-97 -100 -105 0
-97 -101 -102 0
-97 -101 -103 0
-97 -101 -104 0
-97 -101 -105 0
-97 -102 -103 0
-97 -102 -104 0
-97 -102 -105 0
-97 -103 -104 0
-97 -103 -105 0
-97 -104 -105 0
-98 -99 -100 0
-98 -99 -101 0
-98 -99 -102 0
-98 -99 -103 0
-98 -99 -104 0
-98 -99 -105 0
-98 -100 -101 0
-98 -100 -102 0
-98 -100 -103 0
-98 -100 -104 0
-98 -100 -105 0
-98 -101 -102 0
-98 -101 -103 0
-98 -101 -104 0
-98 -101 -105 0
-98 -102 -103 0
-98 -102 -104 0
-98 -102 -105 0
-98 -103 -104 0
-98 -103 -105 0
-98 -104 -105 0
-99 -100 -101 0
-99 -100 -102 0
-99 -100 -103 0
-99 -100 -104 0
-99 -100 -105 0
-99 -101 -102 0
-99 -101 -103 0
-99 -101 -104 0
-99 -101 -105 0
-99 -102 -103 0
-99 -102 -104 0
-99 -102 -105 0
-99 -103 -104 0
-99 -103 -105 0
-99 -104 -105 0
-100 -101 -102 0
-100 -101 -103 0
-100 -101 -104 0
-100 -101 -105 0
-100 -102 -103 0
-100 -102 -104 0
-100 -102 -105 0
-100 -103 -104 0
-100 -103 -105 0
-100 -104 -105 0
-101 -102 -103 0
-101 -102 -104 0
-101 -102 -105 0
-101 -103 -104 0
-101 -103 -105 0
-101 -104 -105 0
-102 -103 -104 0
-102 -103 -105 0
-102 -104 -105 0
-103 -104 -105 0
91 92 93 94 95 96 97 98 99 100 101 102 103 104 0
91 92 93 94 95 96 97 98 99 100 101 102 103 105 0
91 92 93 94 95 96 97 98 99 100 101 102 104 105 0
91 92 93 94 95 96 97 98 99 100 101 103 104 105 0
91 92 93 94 95 96 97 98 99 100 102 103 104 105 0
91 92 93 94 95 96 97 98 99 101 102 103 104 105 0
91 92 93 94 95 96 97 98 100 101 102 103 104 105 0
91 92 93 94 95 96 97 99 100 101 102 103 104 105 0
91 92 93 94 95 96 98 99 100 101 102 103 104 105 0
91 92 93 94 95 97 98 99 100 101 102 103 104 105 0
91 92 93 94 96 97 98 99 100 101 102 103 104 105 0
91 92 93 95 96 97 98 99 100 101 102 103 104 105 0
91 92 94 95 96 97 98 99 100 101 102 103 104 105 0
91 93 94 95 96 97 98 99 100 101 102 103 104 105 0
92 93 94 95 96 97 98 99 100 101 102 103 104 105 0
-106 -107 -108 0
-106 -107 -109 0
-106 -107 -110 0
-106 -107 -111 0
-106 -107 -112 0
-106 -107 -113 0
-106 -107 -114 0
-106 -107 -115 0
-106 -107 -116 0
-106 -107 -117 0
-106 -107 -118 0
-106 -107 -119 0
-106 -107 -120 0
-106 -108 -109 0
-106 -108 -110 0
-106 -108 -111 0
-106 -108 -112 0
-106 -108 -113 0
-106 -108 -114 0
-106 -108 -115 0
-106 -108 -116 0
-106 -108 -117 0
-106 -108 -118 0
-106 -108 -119 0
-106 -108 -120 0
-106 -109 -110 0
-106 -109 -111 0
-106 -109 -112 0
-106 -109 -113 0
-106 -109 -114 0
-106 -109 -115 0
-106 -109 -116 0
-106 -109 -117 0
-106 -109 -118 0
-106 -109 -119 0
-106 -109 -120 0
-106 -110 -111 0
-106 -110 -112 0
-106 -110 -113 0
-106 -110 -114 0
-106 -110 -115 0
-106 -110 -116 0
-106 -110 -117 0
-106 -110 -118 0
-106 -110 -119 0
-106 -110 -120 0
-106 -111 -112 0
-106 -111 -113 0
-106 -111 -114 0
-106 -111 -115 0
-106 -111 -116 0
-106 -111 -117 0
-106 -111 -118 0
-106 -111 -119 0
-106 -111 -120 0
-106 -112 -113 0
-106 -112 -114 0
-106 -112 -115 0
-106 -112 -116 0
-106 -112 -117 0
-106 -112 -118 0
-106 -112 -119 0
-106 -112 -120 0
-106 -113 -114 0
-106 -113 -115 0
-106 -113 -116 0
-106 -113 -117 0
-106 -113 -118 0
-106 -113 -119 0
-106 -113 -120 0
-106 -114 -115 0
-106 -114 -116 0
-106 -114 -117 0
-106 -114 -118 0
-106 -114 -119 0
-106 -114 -120 0
-106 -115 -116 0
-106 -115 -117 0
-106 -115 -118 0
-106 -115 -119 0
-106 -115 -120 0
-106 -116 -117 0
-106 -116 -118 0
-106 -116 -119 0
-106 -116 -120 0
-106 -117 -118 0
-106 -117 -119 0
-106 -117 -120 0
-106 -118 -119 0
-106 -118 -120 0
-106 -119 -120 0
-107 -108 -109 0
-107 -108 -110 0
-107 -108 -111 0
-107 -108 -112 0
-107 -108 -113 0
-107 -108 -114 0
-107 -108 -115 0
-107 -108 -116 0
-107 -108 -117 0
-107 -108 -118 0
-107 -108 -119 0
-107 -108 -120 0
-107 -109 -110 0
-107 -109 -111 0
-107 -109 -112 0
-107 -109 -113 0
-107 -109 -114 0
-107 -109 -115 0
-107 -109 -116 0
-107 -109 -117 0
-107 -109 -118 0
-107 -109 -119 0
-107 -109 -120 0
-107 -110 -111 0
-107 -110 -112 0
-107 -110 -113 0
-107 -110 -114 0
-107 -110 -115 0
-107 -110 -116 0
-107 -110 -117 0
-107 -110 -118 0
-107 -110 -119 0
-107 -110 -120 0
-107 -111 -112 0
-107 -111 -113 0
-107 -111 -114 0
-107 -111 -115 0
-107 -111 -116 0
-107 -111 -117 0
-107 -111 -118 0
-107 -111 -119 0
-107 -111 -120 0
-107 -112 -113 0
-107 -112 -114 0
-107 -112 -115 0
-107 -112 -116 0
-107 -112 -117 0
-107 -112 -118 0
-107 -112 -119 0
-107 -112 -120 0
-107 -113 -114 0
-107 -113 -115 0
-107 -113 -116 0
-107 -113 -117 0
-107 -113 -118 0
-107 -113 -119 0
-107 -113 -120 0
-107 -114 -115 0
-107 -114 -116 0
-107 -114 -117 0
-107 -114 -118 0
-107 -114 -119 0
-107 -114 -120 0
-107 -115 -116 0
-107 -115 -117 0
-107 -115 -118 0
-107 -115 -119 0
-107 -115 -120 0
-107 -116 -117 0
-107 -116 -118 0
-107 -116 -119 0
-107 -116 -120 0
-107 -117 -118 0
-107 -117 -119 0
-107 -117 -120 0
-107 -118 -119 0
-107 -118 -120 0
-107 -119 -120 0
-108 -109 -110 0
-108 -109 -111 0
-108 -109 -112 0
-108 -109 -113 0
-108 -109 -114 0
-108 -109 -115 0
-108 -109 -116 0
-108 -109 -117 0
-108 -109 -118 0
-108 -109 -119 0
-108 -109 -120 0
-108 -110 -111 0
-108 -110 -112 0
-108 -110 -113 0
-108 -110 -114 0
-108 -110 -115 0
-108 -110 -116 0
-108 -110 -117 0
-108 -110 -118 0
-108 -110 -119 0
-108 -110 -120 0
-108 -111 -112 0
-108 -111 -113 0
-108 -111 -114 0
-108 -111 -115 0
-108 -111 -116 0
-108 -111 -117 0
-108 -111 -118 0
-108 -111 -119 0
-108 -111 -120 0
-108 -112 -113 0
-108 -112 -114 0
-108 -112 -115 0
-108 -112 -116 0
-108 -112 -117 0
-108 -112 -118 0
-108 -112 -119 0
-108 -112 -120 0
-108 -113 -114 0
-108 -113 -115 0
-108 -113 -116 0
-108 -113 -117 0
-108 -113 -118 0
-108 -113 -119 0
-108 -113 -120 0
-108 -114 -115 0
-108 -114 -116 0
-108 -114 -117 0
-108 -114 -118 0
-108 -114 -119 0
-108 -114 -120 0
-108 -115 -116 0
-108 -115 -117 0
-108 -115 -118 0
-108 -115 -119 0
-108 -115 -120 0
-108 -116 -117 0
-108 -116 -118 0
-108 -116 -119 0
-108 -116 -120 0
-108 -117 -118 0
-108 -117 -119 0
-108 -117 -120 0
-108 -118 -119 0
-108 -118 -120 0
-108 -119 -120 0
-109 -110 -111 0
-109 -110 -112 0
-109 -110 -113 0
-109 -110 -114 0
-109 -110 -115 0
-109 -110 -116 0
-109 -110 -117 0
-109 -110 -118 0
-109 -110 -119 0
-109 -110 -120 0
-109 -111 -112 0
-109 -111 -113 0
-109 -111 -114 0
-109 -111 -115 0
-109 -111 -116 0
-109 -111 -117 0
-109 -111 -118 0
-109 -111 -119 0
-109 -111 -120 0
-109 -112 -113 0
-109 -112 -114 0
-109 -112 -115 0
-109 -112 -116 0
-109 -112 -117 0
-109 -112 -118 0
-109 -112 -119 0
-109 -112 -120 0
-109 -113 -114 0
-109 -113 -115 0
-109 -113 -116 0
-109 -113 -117 0
-109 -113 -118 0
-109 -113 -119 0
-109 -113 -120 0
-109 -114 -115 0
-109 -114 -116 0
-109 -114 -117 0
-109 -114 -118 0
-109 -114 -119 0
-109 -114 -120 0
-109 -115 -116 0
-109 -115 -117 0
-109 -115 -118 0
-109 -115 -119 0
-109 -115 -120 0
-109 -116 -117 0
-109 -116 -118 0
-109 -116 -119 0
-109 -116 -120 0
-109 -117 -118 0
-109 -117 -119 0
-109 -117 -120 0
-109 -118 -119 0
-109 -118 -120 0
-109 -119 -120 0
-110 -111 -112 0
-110 -111 -113 0
-110 -111 -114 0
-110 -111 -115 0
-110 -111 -116 0
-110 -111 -117 0
-110 -111 -118 0
-110 -111 -119 0
-110 -111 -120 0
-110 -112 -113 0
-110 -112 -114 0
-110 -112 -115 0
-110 -112 -116 0
-110 -112 -117 0
-110 -112 -118 0
-110 -112 -119 0
-110 -112 -120 0
-110 -113 -114 0
-110 -113 -115 0
-110 -113 -116 0
-110 -113 -117 0
-110 -113 -118 0
-110 -113 -119 0
-110 -113 -120 0
-110 -114 -115 0
-110 -114 -116 0
-110 -114 -117 0
-110 -114 -118 0
-110 -114 -119 0
-110 -114 -120 0
-110 -115 -116 0
-110 -115 -117 0
-110 -115 -118 0
-110 -115 -119 0
-110 -115 -120 0
-110 -116 -117 0
-110 -116 -118 0
-110 -116 -119 0
-110 -116 -120 0
-110 -117 -118 0
-110 -117 -119 0
-110 -117 -120 0
-110 -118 -119 0
-110 -118 -120 0
-110 -119 -120 0
-111 -112 -113 0
-111 -112 -114 0
-111 -112 -115 0
-111 -112 -116 0
-111 -112 -117 0
-111 -112 -118 0
-111 -112 -119 0
-111 -112 -120 0
-111 -113 -114 0
-111 -113 -115 0
-111 -113 -116 0
-111 -113 -117 0
-111 -113 -118 0
-111 -113 -119 0
-111 -113 -120 0
-111 -114 -115 0
-111 -114 -116 0
-111 -114 -117 0
-111 -114 -118 0
-111 -114 -119 0
-111 -114 -120 0
-111 -115 -116 0
-111 -115 -117 0
-111 -115 -118 0
-111 -115 -119 0
-111 -115 -120 0
-111 -116 -117 0
-111 -116 -118 0
-111 -116 -119 0
-111 -116 -120 0
-111 -117 -118 0
-111 -117 -119 0
-111 -117 -120 0
-111 -118 -119 0
-111 -118 -120 0
-111 -119 -120 0
-112 -113 -114 0
-112 -113 -115 0
-112 -113 -116 0
-112 -113 -117 0
-112 -113 -118 0
-112 -113 -119 0
-112 -113 -120 0
-112 -114 -115 0
-112 -114 -116 0
-112 -114 -117 0
-112 -114 -118 0
-112 -114 -119 0
-112 -114 -120 0
-112 -115 -116 0
-112 -115 -117 0
-112 -115 -118 0
-112 -115 -119 0
-112 -115 -120 0
-112 -116 -117 0
-112 -116 -118 0
-112 -116 -119 0
-112 -116 -120 0
-112 -117 -118 0
-112 -117 -119 0
-112 -117 -120 0
-112 -118 -119 0
-112 -118 -120 0
-112 -119 -120 0
-113 -114 -115 0
-113 -114 -116 0
-113 -114 -117 0
-113 -114 -118 0
-113 -114 -119 0
-113 -114 -120 0
-113 -115 -116 0
-113 -115 -117 0
-113 -115 -118 0
-113 -115 -119 0
-113 -115 -120 0
-113 -116 -117 0
-113 -116 -118 0
-113 -116 -119 0
-113 -116 -120 0
-113 -117 -118 0
-113 -117 -119 0
-113 -117 -120 0
-113 -118 -119 0
-113 -118 -120 0
-113 -119 -120 0
-114 -115 -116 0
-114 -115 -117 0
-114 -115 -118 0
-114 -115 -119 0
-114 -115 -120 0
-114 -116 -117 0
-114 -116 -118 0
-114 -116 -119 0
-114 -116 -120 0
-114 -117 -118 0
-114 -117 -119 0
-114 -117 -120 0
-114 -118 -119 0
-114 -118 -120 0
-114 -119 -120 0
-115 -116 -117 0
-115 -116 -118 0
-115 -116 -119 0
-115 -116 -120 0
-115 -117 -118 0
-115 -117 -119 0
-115 -117 -120 0
-115 -118 -119 0
-115 -118 -120 0
-115 -119 -120 0
-116 -117 -118 0
-116 -117 -119 0
-116 -117 -120 0
-116 -118 -119 0
-116 -118 -120 0
-116 -119 -120 0
-117 -118 -119 0
-117 -118 -120 0
-117 -119 -120 0
-118 -119 -120 0
106 107 108 109 110 111 112 113 114 115 116 117 118 119 0
106 107 108 109 110 111 112 113 114 115 116 117 118 120 0
106 107 108 109 110 111 112 113 114 115 116 117 119 120 0
106 107 108 109 110 111 112 113 114 115 116 118 119 120 0
106 107 108 109 110 111 112 113 114 115 117 118 119 120 0
106 107 108 109 110 111 112 113 114 116 117 118 119 120 0
106 107 108 109 110 111 112 113 115 116 117 118 119 120 0
106 107 108 109 110 111 112 114 115 116 117 118 119 120 0
106 107 108 109 110 111 113 114 115 116 117 118 119 120 0
106 107 108 109 110 112 113 114 115 116 117 118 119 120 0
106 107 108 109 111 112 113 114 115 116 117 118 119 120 0
106 107 108 110 111 112 113 114 115 116 117 118 119 120 0
106 107 109 110 111 112 113 114 115 116 117 118 119 120 0
106 108 109 110 111 112 113 114 115 116 117 118 119 120 0
107 108 109 110 111 112 113 114 115 116 117 118 119 120 0
-1 -16 0
-1 -31 0
-1 -46 0
-1 -61 0
-1 -76 0
-1 -91 0
-1 -106 0
-16 -31 0
-16 -46 0
-16 -61 0
-16 -76 0
-16 -91 0
-16 -106 0
-31 -46 0
-31 -61 0
-31 -76 0
-31 -91 0
-31 -106 0
-46 -61 0
-46 -76 0
-46 -91 0
-46 -106 0
-61 -76 0
-61 -91 0
-61 -106 0
-76 -91 0
-76 -106 0
-91 -106 0
-2 -17 0
-2 -32 0
-2 -47 0
-2 -62 0
-2 -77 0
-2 -92 0
-2 -107 0
-17 -32 0
-17 -47 0
-17 -62 0
-17 -77 0
-17 -92 0
-17 -107 0
-32 -47 0
-32 -62 0
-32 -77 0
-32 -92 0
-32 -107 0
-47 -62 0
-47 -77 0
-47 -92 0
-47 -107 0
-62 -77 0
-62 -92 0
-62 -107 0
-77 -92 0
-77 -107 0
-92 -107 0
-3 -18 0
-3 -33 0
-3 -48 0
-3 -63 0
-3 -78 0
-3 -93 0
-3 -108 0
-18 -33 0
-18 -48 0
-18 -63 0
-18 -78 0
-18 -93 0
-18 -108 0
-33 -48 0
-33 -63 0
-33 -78 0
-33 -93 0
-33 -108 0
-48 -63 0
-48 -78 0
-48 -93 0
-48 -108 0
-63 -78 0
-63 -93 0
-63 -108 0
-78 -93 0
-78 -108 0
-93 -108 0
-4 -19 0
-4 -34 0
-4 -49 0
-4 -64 0
-4 -79 0
-4 -94 0
-4 -109 0
-19 -34 0
-19 -49 0
-19 -64 0
-19 -79 0
-19 -94 0
-19 -109 0
-34 -49 0
-34 -64 0
-34 -79 0
-34 -94 0
-34 -109 0
-49 -64 0
-49 -79 0
-49 -94 0
-49 -109 0
-64 -79 0
-64 -94 0
-64 -109 0
-79 -94 0
-79 -109 0
-94 -109 0
-5 -20 0
-5 -35 0
-5 -50 0
-5 -65 0
-5 -80 0
-5 -95 0
-5 -110 0
-20 -35 0
-20 -50 0
-20 -65 0
-20 -80 0
-20 -95 0
-20 -110 0
-35 -50 0
-35 -65 0
-35 -80 0
-35 -95 0
-35 -110 0
-50 -65 0
-50 -80 0
-50 -95 0
-50 -110 0
-65 -80 0
-65 -95 0
-65 -110 0
-80 -95 0
-80 -110 0
-95 -110 0
-6 -21 0
-6 -36 0
-6 -51 0
-6 -66 0
-6 -81 0
-6 -96 0
-6 -111 0
-21 -36 0
-21 -51 0
-21 -66 0
-21 -81 0
-21 -96 0
-21 -111 0
-36 -51 0
-36 -66 0
-36 -81 0
-36 -96 0
-36 -111 0
-51 -66 0
-51 -81 0
-51 -96 0
-51 -111 0
-66 -81 0
-66 -96 0
-66 -111 0
-81 -96 0
-81 -111 0
-96 -111 0
-7 -22 0
-7 -37 0
-7 -52 0
-7 -67 0
-7 -82 0
-7 -97 0
-7 -112 0
-22 -37 0
-22 -52 0
-22 -67 0
-22 -82 0
-22 -97 0
-22 -112 0
-37 -52 0
-37 -67 0
-37 -82 0
-37 -97 0
-37 -112 0
-52 -67 0
-52 -82 0
-52 -97 0
-52 -112 0
-67 -82 0
-67 -97 0
-67 -112 0
-82 -97 0
-82 -112 0
-97 -112 0
-8 -23 0
-8 -38 0
-8 -53 0
-8 -68 0
-8 -83 0
-8 -98 0
-8 -113 0
-23 -38 0
-23 -53 0
-23 -68 0
-23 -83 0
-23 -98 0
-23 -113 0
-38 -53 0
-38 -68 0
-38 -83 0
-38 -98 0
-38 -113 0
-53 -68 0
-53 -83 0
-53 -98 0
-53 -113 0
-68 -83 0
-68 -98 0
-68 -113 0
-83 -98 0
-83 -113 0
-98 -113 0
-9 -24 0
-9 -39 0
-9 -54 0
-9 -69 0
-9 -84 0
-9 -99 0
-9 -114 0
-24 -39 0
-24 -54 0
-24 -69 0
-24 -84 0
-24 -99 0
-24 -114 0
-39 -54 0
-39 -69 0
-39 -84 0
-39 -99 0
-39 -114 0
-54 -69 0
-54 -84 0
-54 -99 0
-54 -114 0
-69 -84 0
-69 -99 0
-69 -114 0
-84 -99 0
-84 -114 0
-99 -114 0
-10 -25 0
-10 -40 0
-10 -55 0
-10 -70 0
-10 -85 0
-10 -100 0
-10 -115 0
-25 -40 0
-25 -55 0
-25 -70 0
-25 -85 0
-25 -100 0
-25 -115 0
-40 -55 0
-40 -70 0
-40 -85 0
-40 -100 0
-40 -115 0
-55 -70 0
-55 -85 0
-55 -100 0
-55 -115 0
-70 -85 0
-70 -100 0
-70 -115 0
-85 -100 0
-85 -115 0
-100 -115 0
-11 -26 0
-11 -41 0
-11 -56 0
-11 -71 0
-11 -86 0
-11 -101 0
-11 -116 0
-26 -41 0
-26 -56 0
-26 -71 0
-26 -86 0
-26 -101 0
-26 -116 0
-41 -56 0
-41 -71 0
-41 -86 0
-41 -101 0
-41 -116 0
-56 -71 0
-56 -86 0
-56 -101 0
-56 -116 0
-71 -86 0
-71 -101 0
-71 -116 0
-86 -101 0
-86 -116 0
-101 -116 0
-12 -27 0
-12 -42 0
-12 -57 0
-12 -72 0
-12 -87 0
-12 -102 0
-12 -117 0
-27 -42 0
-27 -57 0
-27 -72 0
-27 -87 0
-27 -102 0
-27 -117 0
-42 -57 0
-42 -72 0
-42 -87 0
-42 -102 0
-42 -117 0
-57 -72 0
-57 -87 0
-57 -102 0
-57 -117 0
-72 -87 0
-72 -102 0
-72 -117 0
-87 -102 0
-87 -117 0
-102 -117 0
-13 -28 0
-13 -43 0
-13 -58 0
-13 -73 0
-13 -88 0
-13 -103 0
-13 -118 0
-28 -43 0
-28 -58 0
-28 -73 0
-28 -88 0
-28 -103 0
-28 -118 0
-43 -58 0
-43 -73 0
-43 -88 0
-43 -103 0
-43 -118 0
-58 -73 0
-58 -88 0
-58 -103 0
-58 -118 0
-73 -88 0
-73 -103 0
-73 -118 0
-88 -103 0
-88 -118 0
-103 -118 0
-14 -29 0
-14 -44 0
-14 -59 0
-14 -74 0
-14 -89 0
-14 -104 0
-14 -119 0
-29 -44 0
-29 -59 0
-29 -74 0
-29 -89 0
-29 -104 0
-29 -119 0
-44 -59 0
-44 -74 0
-44 -89 0
-44 -104 0
-44 -119 0
-59 -74 0
-59 -89 0
-59 -104 0
-59 -119 0
-74 -89 0
-74 -104 0
-74 -119 0
-89 -104 0
-89 -119 0
-104 -119 0
-15 -30 0
-15 -45 0
-15 -60 0
-15 -75 0
-15 -90 0
-15 -105 0
-15 -120 0
-30 -45 0
-30 -60 0
-30 -75 0
-30 -90 0
-30 -105 0
-30 -120 0
-45 -60 0
-45 -75 0
-45 -90 0
-45 -105 0
-45 -120 0
-60 -75 0
-60 -90 0
-60 -105 0
-60 -120 0
-75 -90 0
-75 -105 0
-75 -120 0
-90 -105 0
-90 -120 0
-105 -120 0
