c Phase 3 generated performance instance
c family=overlapping_hall_violation
c scale=12
c variant=default
c noise_percent=0
c expected=UNSATISFIABLE
p cnf 312 3613
-1 -2 0
-1 -3 0
-1 -4 0
-1 -5 0
-1 -6 0
-1 -7 0
-1 -8 0
-1 -9 0
-1 -10 0
-1 -11 0
-1 -12 0
-2 -3 0
-2 -4 0
-2 -5 0
-2 -6 0
-2 -7 0
-2 -8 0
-2 -9 0
-2 -10 0
-2 -11 0
-2 -12 0
-3 -4 0
-3 -5 0
-3 -6 0
-3 -7 0
-3 -8 0
-3 -9 0
-3 -10 0
-3 -11 0
-3 -12 0
-4 -5 0
-4 -6 0
-4 -7 0
-4 -8 0
-4 -9 0
-4 -10 0
-4 -11 0
-4 -12 0
-5 -6 0
-5 -7 0
-5 -8 0
-5 -9 0
-5 -10 0
-5 -11 0
-5 -12 0
-6 -7 0
-6 -8 0
-6 -9 0
-6 -10 0
-6 -11 0
-6 -12 0
-7 -8 0
-7 -9 0
-7 -10 0
-7 -11 0
-7 -12 0
-8 -9 0
-8 -10 0
-8 -11 0
-8 -12 0
-9 -10 0
-9 -11 0
-9 -12 0
-10 -11 0
-10 -12 0
-11 -12 0
1 2 3 4 5 6 7 8 9 10 11 12 0
-13 -14 0
-13 -15 0
-13 -16 0
-13 -17 0
-13 -18 0
-13 -19 0
-13 -20 0
-13 -21 0
-13 -22 0
-13 -23 0
-13 -24 0
-14 -15 0
-14 -16 0
-14 -17 0
-14 -18 0
-14 -19 0
-14 -20 0
-14 -21 0
-14 -22 0
-14 -23 0
-14 -24 0
-15 -16 0
-15 -17 0
-15 -18 0
-15 -19 0
-15 -20 0
-15 -21 0
-15 -22 0
-15 -23 0
-15 -24 0
-16 -17 0
-16 -18 0
-16 -19 0
-16 -20 0
-16 -21 0
-16 -22 0
-16 -23 0
-16 -24 0
-17 -18 0
-17 -19 0
-17 -20 0
-17 -21 0
-17 -22 0
-17 -23 0
-17 -24 0
-18 -19 0
-18 -20 0
-18 -21 0
-18 -22 0
-18 -23 0
-18 -24 0
-19 -20 0
-19 -21 0
-19 -22 0
-19 -23 0
-19 -24 0
-20 -21 0
-20 -22 0
-20 -23 0
-20 -24 0
-21 -22 0
-21 -23 0
-21 -24 0
-22 -23 0
-22 -24 0
-23 -24 0
13 14 15 16 17 18 19 20 21 22 23 24 0
-25 -26 0
-25 -27 0
-25 -28 0
-25 -29 0
-25 -30 0
-25 -31 0
-25 -32 0
-25 -33 0
-25 -34 0
-25 -35 0
-25 -36 0
-26 -27 0
-26 -28 0
-26 -29 0
-26 -30 0
-26 -31 0
-26 -32 0
-26 -33 0
-26 -34 0
-26 -35 0
-26 -36 0
-27 -28 0
-27 -29 0
-27 -30 0
-27 -31 0
-27 -32 0
-27 -33 0
-27 -34 0
-27 -35 0
-27 -36 0
-28 -29 0
-28 -30 0
-28 -31 0
-28 -32 0
-28 -33 0
-28 -34 0
-28 -35 0
-28 -36 0
-29 -30 0
-29 -31 0
-29 -32 0
-29 -33 0
-29 -34 0
-29 -35 0
-29 -36 0
-30 -31 0
-30 -32 0
-30 -33 0
-30 -34 0
-30 -35 0
-30 -36 0
-31 -32 0
-31 -33 0
-31 -34 0
-31 -35 0
-31 -36 0
-32 -33 0
-32 -34 0
-32 -35 0
-32 -36 0
-33 -34 0
-33 -35 0
-33 -36 0
-34 -35 0
-34 -36 0
-35 -36 0
25 26 27 28 29 30 31 32 33 34 35 36 0
-37 -38 0
-37 -39 0
-37 -40 0
-37 -41 0
-37 -42 0
-37 -43 0
-37 -44 0
-37 -45 0
-37 -46 0
-37 -47 0
-37 -48 0
-38 -39 0
-38 -40 0
-38 -41 0
-38 -42 0
-38 -43 0
-38 -44 0
-38 -45 0
-38 -46 0
-38 -47 0
-38 -48 0
-39 -40 0
-39 -41 0
-39 -42 0
-39 -43 0
-39 -44 0
-39 -45 0
-39 -46 0
-39 -47 0
-39 -48 0
-40 -41 0
-40 -42 0
-40 -43 0
-40 -44 0
-40 -45 0
-40 -46 0
-40 -47 0
-40 -48 0
-41 -42 0
-41 -43 0
-41 -44 0
-41 -45 0
-41 -46 0
-41 -47 0
-41 -48 0
-42 -43 0
-42 -44 0
-42 -45 0
-42 -46 0
-42 -47 0
-42 -48 0
-43 -44 0
-43 -45 0
-43 -46 0
-43 -47 0
-43 -48 0
-44 -45 0
-44 -46 0
-44 -47 0
-44 -48 0
-45 -46 0
-45 -47 0
-45 -48 0
-46 -47 0
-46 -48 0
-47 -48 0
37 38 39 40 41 42 43 44 45 46 47 48 0
-49 -50 0
-49 -51 0
-49 -52 0
-49 -53 0
-49 -54 0
-49 -55 0
-49 -56 0
-49 -57 0
-49 -58 0
-49 -59 0
-49 -60 0
-50 -51 0
-50 -52 0
-50 -53 0
-50 -54 0
-50 -55 0
-50 -56 0
-50 -57 0
-50 -58 0
-50 -59 0
-50 -60 0
-51 -52 0
-51 -53 0
-51 -54 0
-51 -55 0
-51 -56 0
-51 -57 0
-51 -58 0
-51 -59 0
-51 -60 0
-52 -53 0
-52 -54 0
-52 -55 0
-52 -56 0
-52 -57 0
-52 -58 0
-52 -59 0
-52 -60 0
-53 -54 0
-53 -55 0
-53 -56 0
-53 -57 0
-53 -58 0
-53 -59 0
-53 -60 0
-54 -55 0
-54 -56 0
-54 -57 0
-54 -58 0
-54 -59 0
-54 -60 0
-55 -56 0
-55 -57 0
-55 -58 0
-55 -59 0
-55 -60 0
-56 -57 0
-56 -58 0
-56 -59 0
-56 -60 0
-57 -58 0
-57 -59 0
-57 -60 0
-58 -59 0
-58 -60 0
-59 -60 0
49 50 51 52 53 54 55 56 57 58 59 60 0
-61 -62 0
-61 -63 0
-61 -64 0
-61 -65 0
-61 -66 0
-61 -67 0
-61 -68 0
-61 -69 0
-61 -70 0
-61 -71 0
-61 -72 0
-62 -63 0
-62 -64 0
-62 -65 0
-62 -66 0
-62 -67 0
-62 -68 0
-62 -69 0
-62 -70 0
-62 -71 0
-62 -72 0
-63 -64 0
-63 -65 0
-63 -66 0
-63 -67 0
-63 -68 0
-63 -69 0
-63 -70 0
-63 -71 0
-63 -72 0
-64 -65 0
-64 -66 0
-64 -67 0
-64 -68 0
-64 -69 0
-64 -70 0
-64 -71 0
-64 -72 0
-65 -66 0
-65 -67 0
-65 -68 0
-65 -69 0
-65 -70 0
-65 -71 0
-65 -72 0
-66 -67 0
-66 -68 0
-66 -69 0
-66 -70 0
-66 -71 0
-66 -72 0
-67 -68 0
-67 -69 0
-67 -70 0
-67 -71 0
-67 -72 0
-68 -69 0
-68 -70 0
-68 -71 0
-68 -72 0
-69 -70 0
-69 -71 0
-69 -72 0
-70 -71 0
-70 -72 0
-71 -72 0
61 62 63 64 65 66 67 68 69 70 71 72 0
-73 -74 0
-73 -75 0
-73 -76 0
-73 -77 0
-73 -78 0
-73 -79 0
-73 -80 0
-73 -81 0
-73 -82 0
-73 -83 0
-73 -84 0
-74 -75 0
-74 -76 0
-74 -77 0
-74 -78 0
-74 -79 0
-74 -80 0
-74 -81 0
-74 -82 0
-74 -83 0
-74 -84 0
-75 -76 0
-75 -77 0
-75 -78 0
-75 -79 0
-75 -80 0
-75 -81 0
-75 -82 0
-75 -83 0
-75 -84 0
-76 -77 0
-76 -78 0
-76 -79 0
-76 -80 0
-76 -81 0
-76 -82 0
-76 -83 0
-76 -84 0
-77 -78 0
-77 -79 0
-77 -80 0
-77 -81 0
-77 -82 0
-77 -83 0
-77 -84 0
-78 -79 0
-78 -80 0
-78 -81 0
-78 -82 0
-78 -83 0
-78 -84 0
-79 -80 0
-79 -81 0
-79 -82 0
-79 -83 0
-79 -84 0
-80 -81 0
-80 -82 0
-80 -83 0
-80 -84 0
-81 -82 0
-81 -83 0
-81 -84 0
-82 -83 0
-82 -84 0
-83 -84 0
73 74 75 76 77 78 79 80 81 82 83 84 0
-85 -86 0
-85 -87 0
-85 -88 0
-85 -89 0
-85 -90 0
-85 -91 0
-85 -92 0
-85 -93 0
-85 -94 0
-85 -95 0
-85 -96 0
-86 -87 0
-86 -88 0
-86 -89 0
-86 -90 0
-86 -91 0
-86 -92 0
-86 -93 0
-86 -94 0
-86 -95 0
-86 -96 0
-87 -88 0
-87 -89 0
-87 -90 0
-87 -91 0
-87 -92 0
-87 -93 0
-87 -94 0
-87 -95 0
-87 -96 0
-88 -89 0
-88 -90 0
-88 -91 0
-88 -92 0
-88 -93 0
-88 -94 0
-88 -95 0
-88 -96 0
-89 -90 0
-89 -91 0
-89 -92 0
-89 -93 0
-89 -94 0
-89 -95 0
-89 -96 0
-90 -91 0
-90 -92 0
-90 -93 0
-90 -94 0
-90 -95 0
-90 -96 0
-91 -92 0
-91 -93 0
-91 -94 0
-91 -95 0
-91 -96 0
-92 -93 0
-92 -94 0
-92 -95 0
-92 -96 0
-93 -94 0
-93 -95 0
-93 -96 0
-94 -95 0
-94 -96 0
-95 -96 0
85 86 87 88 89 90 91 92 93 94 95 96 0
-97 -98 0
-97 -99 0
-97 -100 0
-97 -101 0
-97 -102 0
-97 -103 0
-97 -104 0
-97 -105 0
-97 -106 0
-97 -107 0
-97 -108 0
-98 -99 0
-98 -100 0
-98 -101 0
-98 -102 0
-98 -103 0
-98 -104 0
-98 -105 0
-98 -106 0
-98 -107 0
-98 -108 0
-99 -100 0
-99 -101 0
-99 -102 0
-99 -103 0
-99 -104 0
-99 -105 0
-99 -106 0
-99 -107 0
-99 -108 0
-100 -101 0
-100 -102 0
-100 -103 0
-100 -104 0
-100 -105 0
-100 -106 0
-100 -107 0
-100 -108 0
-101 -102 0
-101 -103 0
-101 -104 0
-101 -105 0
-101 -106 0
-101 -107 0
-101 -108 0
-102 -103 0
-102 -104 0
-102 -105 0
-102 -106 0
-102 -107 0
-102 -108 0
-103 -104 0
-103 -105 0
-103 -106 0
-103 -107 0
-103 -108 0
-104 -105 0
-104 -106 0
-104 -107 0
-104 -108 0
-105 -106 0
-105 -107 0
-105 -108 0
-106 -107 0
-106 -108 0
-107 -108 0
97 98 99 100 101 102 103 104 105 106 107 108 0
-109 -110 0
-109 -111 0
-109 -112 0
-109 -113 0
-109 -114 0
-109 -115 0
-109 -116 0
-109 -117 0
-109 -118 0
-109 -119 0
-109 -120 0
-110 -111 0
-110 -112 0
-110 -113 0
-110 -114 0
-110 -115 0
-110 -116 0
-110 -117 0
-110 -118 0
-110 -119 0
-110 -120 0
-111 -112 0
-111 -113 0
-111 -114 0
-111 -115 0
-111 -116 0
-111 -117 0
-111 -118 0
-111 -119 0
-111 -120 0
-112 -113 0
-112 -114 0
-112 -115 0
-112 -116 0
-112 -117 0
-112 -118 0
-112 -119 0
-112 -120 0
-113 -114 0
-113 -115 0
-113 -116 0
-113 -117 0
-113 -118 0
-113 -119 0
-113 -120 0
-114 -115 0
-114 -116 0
-114 -117 0
-114 -118 0
-114 -119 0
-114 -120 0
-115 -116 0
-115 -117 0
-115 -118 0
-115 -119 0
-115 -120 0
-116 -117 0
-116 -118 0
-116 -119 0
-116 -120 0
-117 -118 0
-117 -119 0
-117 -120 0
-118 -119 0
-118 -120 0
-119 -120 0
109 110 111 112 113 114 115 116 117 118 119 120 0
-121 -122 0
-121 -123 0
-121 -124 0
-121 -125 0
-121 -126 0
-121 -127 0
-121 -128 0
-121 -129 0
-121 -130 0
-121 -131 0
-121 -132 0
-122 -123 0
-122 -124 0
-122 -125 0
-122 -126 0
-122 -127 0
-122 -128 0
-122 -129 0
-122 -130 0
-122 -131 0
-122 -132 0
-123 -124 0
-123 -125 0
-123 -126 0
-123 -127 0
-123 -128 0
-123 -129 0
-123 -130 0
-123 -131 0
-123 -132 0
-124 -125 0
-124 -126 0
-124 -127 0
-124 -128 0
-124 -129 0
-124 -130 0
-124 -131 0
-124 -132 0
-125 -126 0
-125 -127 0
-125 -128 0
-125 -129 0
-125 -130 0
-125 -131 0
-125 -132 0
-126 -127 0
-126 -128 0
-126 -129 0
-126 -130 0
-126 -131 0
-126 -132 0
-127 -128 0
-127 -129 0
-127 -130 0
-127 -131 0
-127 -132 0
-128 -129 0
-128 -130 0
-128 -131 0
-128 -132 0
-129 -130 0
-129 -131 0
-129 -132 0
-130 -131 0
-130 -132 0
-131 -132 0
121 122 123 124 125 126 127 128 129 130 131 132 0
-133 -134 0
-133 -135 0
-133 -136 0
-133 -137 0
-133 -138 0
-133 -139 0
-133 -140 0
-133 -141 0
-133 -142 0
-133 -143 0
-133 -144 0
-134 -135 0
-134 -136 0
-134 -137 0
-134 -138 0
-134 -139 0
-134 -140 0
-134 -141 0
-134 -142 0
-134 -143 0
-134 -144 0
-135 -136 0
-135 -137 0
-135 -138 0
-135 -139 0
-135 -140 0
-135 -141 0
-135 -142 0
-135 -143 0
-135 -144 0
-136 -137 0
-136 -138 0
-136 -139 0
-136 -140 0
-136 -141 0
-136 -142 0
-136 -143 0
-136 -144 0
-137 -138 0
-137 -139 0
-137 -140 0
-137 -141 0
-137 -142 0
-137 -143 0
-137 -144 0
-138 -139 0
-138 -140 0
-138 -141 0
-138 -142 0
-138 -143 0
-138 -144 0
-139 -140 0
-139 -141 0
-139 -142 0
-139 -143 0
-139 -144 0
-140 -141 0
-140 -142 0
-140 -143 0
-140 -144 0
-141 -142 0
-141 -143 0
-141 -144 0
-142 -143 0
-142 -144 0
-143 -144 0
133 134 135 136 137 138 139 140 141 142 143 144 0
-145 -146 0
-145 -147 0
-145 -148 0
-145 -149 0
-145 -150 0
-145 -151 0
-145 -152 0
-145 -153 0
-145 -154 0
-145 -155 0
-145 -156 0
-146 -147 0
-146 -148 0
-146 -149 0
-146 -150 0
-146 -151 0
-146 -152 0
-146 -153 0
-146 -154 0
-146 -155 0
-146 -156 0
-147 -148 0
-147 -149 0
-147 -150 0
-147 -151 0
-147 -152 0
-147 -153 0
-147 -154 0
-147 -155 0
-147 -156 0
-148 -149 0
-148 -150 0
-148 -151 0
-148 -152 0
-148 -153 0
-148 -154 0
-148 -155 0
-148 -156 0
-149 -150 0
-149 -151 0
-149 -152 0
-149 -153 0
-149 -154 0
-149 -155 0
-149 -156 0
-150 -151 0
-150 -152 0
-150 -153 0
-150 -154 0
-150 -155 0
-150 -156 0
-151 -152 0
-151 -153 0
-151 -154 0
-151 -155 0
-151 -156 0
-152 -153 0
-152 -154 0
-152 -155 0
-152 -156 0
-153 -154 0
-153 -155 0
-153 -156 0
-154 -155 0
-154 -156 0
-155 -156 0
145 146 147 148 149 150 151 152 153 154 155 156 0
-157 -158 0
-157 -159 0
-157 -160 0
-157 -161 0
-157 -162 0
-157 -163 0
-157 -164 0
-157 -165 0
-157 -166 0
-157 -167 0
-157 -168 0
-157 -169 0
-158 -159 0
-158 -160 0
-158 -161 0
-158 -162 0
-158 -163 0
-158 -164 0
-158 -165 0
-158 -166 0
-158 -167 0
-158 -168 0
-158 -169 0
-159 -160 0
-159 -161 0
-159 -162 0
-159 -163 0
-159 -164 0
-159 -165 0
-159 -166 0
-159 -167 0
-159 -168 0
-159 -169 0
-160 -161 0
-160 -162 0
-160 -163 0
-160 -164 0
-160 -165 0
-160 -166 0
-160 -167 0
-160 -168 0
-160 -169 0
-161 -162 0
-161 -163 0
-161 -164 0
-161 -165 0
-161 -166 0
-161 -167 0
-161 -168 0
-161 -169 0
-162 -163 0
-162 -164 0
-162 -165 0
-162 -166 0
-162 -167 0
-162 -168 0
-162 -169 0
-163 -164 0
-163 -165 0
-163 -166 0
-163 -167 0
-163 -168 0
-163 -169 0
-164 -165 0
-164 -166 0
-164 -167 0
-164 -168 0
-164 -169 0
-165 -166 0
-165 -167 0
-165 -168 0
-165 -169 0
-166 -167 0
-166 -168 0
-166 -169 0
-167 -168 0
-167 -169 0
-168 -169 0
157 158 159 160 161 162 163 164 165 166 167 168 169 0
-170 -171 0
-170 -172 0
-170 -173 0
-170 -174 0
-170 -175 0
-170 -176 0
-170 -177 0
-170 -178 0
-170 -179 0
-170 -180 0
-170 -181 0
-170 -182 0
-171 -172 0
-171 -173 0
-171 -174 0
-171 -175 0
-171 -176 0
-171 -177 0
-171 -178 0
-171 -179 0
-171 -180 0
-171 -181 0
-171 -182 0
-172 -173 0
-172 -174 0
-172 -175 0
-172 -176 0
-172 -177 0
-172 -178 0
-172 -179 0
-172 -180 0
-172 -181 0
-172 -182 0
-173 -174 0
-173 -175 0
-173 -176 0
-173 -177 0
-173 -178 0
-173 -179 0
-173 -180 0
-173 -181 0
-173 -182 0
-174 -175 0
-174 -176 0
-174 -177 0
-174 -178 0
-174 -179 0
-174 -180 0
-174 -181 0
-174 -182 0
-175 -176 0
-175 -177 0
-175 -178 0
-175 -179 0
-175 -180 0
-175 -181 0
-175 -182 0
-176 -177 0
-176 -178 0
-176 -179 0
-176 -180 0
-176 -181 0
-176 -182 0
-177 -178 0
-177 -179 0
-177 -180 0
-177 -181 0
-177 -182 0
-178 -179 0
-178 -180 0
-178 -181 0
-178 -182 0
-179 -180 0
-179 -181 0
-179 -182 0
-180 -181 0
-180 -182 0
-181 -182 0
170 171 172 173 174 175 176 177 178 179 180 181 182 0
-183 -184 0
-183 -185 0
-183 -186 0
-183 -187 0
-183 -188 0
-183 -189 0
-183 -190 0
-183 -191 0
-183 -192 0
-183 -193 0
-183 -194 0
-183 -195 0
-184 -185 0
-184 -186 0
-184 -187 0
-184 -188 0
-184 -189 0
-184 -190 0
-184 -191 0
-184 -192 0
-184 -193 0
-184 -194 0
-184 -195 0
-185 -186 0
-185 -187 0
-185 -188 0
-185 -189 0
-185 -190 0
-185 -191 0
-185 -192 0
-185 -193 0
-185 -194 0
-185 -195 0
-186 -187 0
-186 -188 0
-186 -189 0
-186 -190 0
-186 -191 0
-186 -192 0
-186 -193 0
-186 -194 0
-186 -195 0
-187 -188 0
-187 -189 0
-187 -190 0
-187 -191 0
-187 -192 0
-187 -193 0
-187 -194 0
-187 -195 0
-188 -189 0
-188 -190 0
-188 -191 0
-188 -192 0
-188 -193 0
-188 -194 0
-188 -195 0
-189 -190 0
-189 -191 0
-189 -192 0
-189 -193 0
-189 -194 0
-189 -195 0
-190 -191 0
-190 -192 0
-190 -193 0
-190 -194 0
-190 -195 0
-191 -192 0
-191 -193 0
-191 -194 0
-191 -195 0
-192 -193 0
-192 -194 0
-192 -195 0
-193 -194 0
-193 -195 0
-194 -195 0
183 184 185 186 187 188 189 190 191 192 193 194 195 0
-196 -197 0
-196 -198 0
-196 -199 0
-196 -200 0
-196 -201 0
-196 -202 0
-196 -203 0
-196 -204 0
-196 -205 0
-196 -206 0
-196 -207 0
-196 -208 0
-197 -198 0
-197 -199 0
-197 -200 0
-197 -201 0
-197 -202 0
-197 -203 0
-197 -204 0
-197 -205 0
-197 -206 0
-197 -207 0
-197 -208 0
-198 -199 0
-198 -200 0
-198 -201 0
-198 -202 0
-198 -203 0
-198 -204 0
-198 -205 0
-198 -206 0
-198 -207 0
-198 -208 0
-199 -200 0
-199 -201 0
-199 -202 0
-199 -203 0
-199 -204 0
-199 -205 0
-199 -206 0
-199 -207 0
-199 -208 0
-200 -201 0
-200 -202 0
-200 -203 0
-200 -204 0
-200 -205 0
-200 -206 0
-200 -207 0
-200 -208 0
-201 -202 0
-201 -203 0
-201 -204 0
-201 -205 0
-201 -206 0
-201 -207 0
-201 -208 0
-202 -203 0
-202 -204 0
-202 -205 0
-202 -206 0
-202 -207 0
-202 -208 0
-203 -204 0
-203 -205 0
-203 -206 0
-203 -207 0
-203 -208 0
-204 -205 0
-204 -206 0
-204 -207 0
-204 -208 0
-205 -206 0
-205 -207 0
-205 -208 0
-206 -207 0
-206 -208 0
-207 -208 0
196 197 198 199 200 201 202 203 204 205 206 207 208 0
-209 -210 0
-209 -211 0
-209 -212 0
-209 -213 0
-209 -214 0
-209 -215 0
-209 -216 0
-209 -217 0
-209 -218 0
-209 -219 0
-209 -220 0
-209 -221 0
-210 -211 0
-210 -212 0
-210 -213 0
-210 -214 0
-210 -215 0
-210 -216 0
-210 -217 0
-210 -218 0
-210 -219 0
-210 -220 0
-210 -221 0
-211 -212 0
-211 -213 0
-211 -214 0
-211 -215 0
-211 -216 0
-211 -217 0
-211 -218 0
-211 -219 0
-211 -220 0
-211 -221 0
-212 -213 0
-212 -214 0
-212 -215 0
-212 -216 0
-212 -217 0
-212 -218 0
-212 -219 0
-212 -220 0
-212 -221 0
-213 -214 0
-213 -215 0
-213 -216 0
-213 -217 0
-213 -218 0
-213 -219 0
-213 -220 0
-213 -221 0
-214 -215 0
-214 -216 0
-214 -217 0
-214 -218 0
-214 -219 0
-214 -220 0
-214 -221 0
-215 -216 0
-215 -217 0
-215 -218 0
-215 -219 0
-215 -220 0
-215 -221 0
-216 -217 0
-216 -218 0
-216 -219 0
-216 -220 0
-216 -221 0
-217 -218 0
-217 -219 0
-217 -220 0
-217 -221 0
-218 -219 0
-218 -220 0
-218 -221 0
-219 -220 0
-219 -221 0
-220 -221 0
209 210 211 212 213 214 215 216 217 218 219 220 221 0
-222 -223 0
-222 -224 0
-222 -225 0
-222 -226 0
-222 -227 0
-222 -228 0
-222 -229 0
-222 -230 0
-222 -231 0
-222 -232 0
-222 -233 0
-222 -234 0
-223 -224 0
-223 -225 0
-223 -226 0
-223 -227 0
-223 -228 0
-223 -229 0
-223 -230 0
-223 -231 0
-223 -232 0
-223 -233 0
-223 -234 0
-224 -225 0
-224 -226 0
-224 -227 0
-224 -228 0
-224 -229 0
-224 -230 0
-224 -231 0
-224 -232 0
-224 -233 0
-224 -234 0
-225 -226 0
-225 -227 0
-225 -228 0
-225 -229 0
-225 -230 0
-225 -231 0
-225 -232 0
-225 -233 0
-225 -234 0
-226 -227 0
-226 -228 0
-226 -229 0
-226 -230 0
-226 -231 0
-226 -232 0
-226 -233 0
-226 -234 0
-227 -228 0
-227 -229 0
-227 -230 0
-227 -231 0
-227 -232 0
-227 -233 0
-227 -234 0
-228 -229 0
-228 -230 0
-228 -231 0
-228 -232 0
-228 -233 0
-228 -234 0
-229 -230 0
-229 -231 0
-229 -232 0
-229 -233 0
-229 -234 0
-230 -231 0
-230 -232 0
-230 -233 0
-230 -234 0
-231 -232 0
-231 -233 0
-231 -234 0
-232 -233 0
-232 -234 0
-233 -234 0
222 223 224 225 226 227 228 229 230 231 232 233 234 0
-235 -236 0
-235 -237 0
-235 -238 0
-235 -239 0
-235 -240 0
-235 -241 0
-235 -242 0
-235 -243 0
-235 -244 0
-235 -245 0
-235 -246 0
-235 -247 0
-236 -237 0
-236 -238 0
-236 -239 0
-236 -240 0
-236 -241 0
-236 -242 0
-236 -243 0
-236 -244 0
-236 -245 0
-236 -246 0
-236 -247 0
-237 -238 0
-237 -239 0
-237 -240 0
-237 -241 0
-237 -242 0
-237 -243 0
-237 -244 0
-237 -245 0
-237 -246 0
-237 -247 0
-238 -239 0
-238 -240 0
-238 -241 0
-238 -242 0
-238 -243 0
-238 -244 0
-238 -245 0
-238 -246 0
-238 -247 0
-239 -240 0
-239 -241 0
-239 -242 0
-239 -243 0
-239 -244 0
-239 -245 0
-239 -246 0
-239 -247 0
-240 -241 0
-240 -242 0
-240 -243 0
-240 -244 0
-240 -245 0
-240 -246 0
-240 -247 0
-241 -242 0
-241 -243 0
-241 -244 0
-241 -245 0
-241 -246 0
-241 -247 0
-242 -243 0
-242 -244 0
-242 -245 0
-242 -246 0
-242 -247 0
-243 -244 0
-243 -245 0
-243 -246 0
-243 -247 0
-244 -245 0
-244 -246 0
-244 -247 0
-245 -246 0
-245 -247 0
-246 -247 0
235 236 237 238 239 240 241 242 243 244 245 246 247 0
-248 -249 0
-248 -250 0
-248 -251 0
-248 -252 0
-248 -253 0
-248 -254 0
-248 -255 0
-248 -256 0
-248 -257 0
-248 -258 0
-248 -259 0
-248 -260 0
-249 -250 0
-249 -251 0
-249 -252 0
-249 -253 0
-249 -254 0
-249 -255 0
-249 -256 0
-249 -257 0
-249 -258 0
-249 -259 0
-249 -260 0
-250 -251 0
-250 -252 0
-250 -253 0
-250 -254 0
-250 -255 0
-250 -256 0
-250 -257 0
-250 -258 0
-250 -259 0
-250 -260 0
-251 -252 0
-251 -253 0
-251 -254 0
-251 -255 0
-251 -256 0
-251 -257 0
-251 -258 0
-251 -259 0
-251 -260 0
-252 -253 0
-252 -254 0
-252 -255 0
-252 -256 0
-252 -257 0
-252 -258 0
-252 -259 0
-252 -260 0
-253 -254 0
-253 -255 0
-253 -256 0
-253 -257 0
-253 -258 0
-253 -259 0
-253 -260 0
-254 -255 0
-254 -256 0
-254 -257 0
-254 -258 0
-254 -259 0
-254 -260 0
-255 -256 0
-255 -257 0
-255 -258 0
-255 -259 0
-255 -260 0
-256 -257 0
-256 -258 0
-256 -259 0
-256 -260 0
-257 -258 0
-257 -259 0
-257 -260 0
-258 -259 0
-258 -260 0
-259 -260 0
248 249 250 251 252 253 254 255 256 257 258 259 260 0
-261 -262 0
-261 -263 0
-261 -264 0
-261 -265 0
-261 -266 0
-261 -267 0
-261 -268 0
-261 -269 0
-261 -270 0
-261 -271 0
-261 -272 0
-261 -273 0
-262 -263 0
-262 -264 0
-262 -265 0
-262 -266 0
-262 -267 0
-262 -268 0
-262 -269 0
-262 -270 0
-262 -271 0
-262 -272 0
-262 -273 0
-263 -264 0
-263 -265 0
-263 -266 0
-263 -267 0
-263 -268 0
-263 -269 0
-263 -270 0
-263 -271 0
-263 -272 0
-263 -273 0
-264 -265 0
-264 -266 0
-264 -267 0
-264 -268 0
-264 -269 0
-264 -270 0
-264 -271 0
-264 -272 0
-264 -273 0
-265 -266 0
-265 -267 0
-265 -268 0
-265 -269 0
-265 -270 0
-265 -271 0
-265 -272 0
-265 -273 0
-266 -267 0
-266 -268 0
-266 -269 0
-266 -270 0
-266 -271 0
-266 -272 0
-266 -273 0
-267 -268 0
-267 -269 0
-267 -270 0
-267 -271 0
-267 -272 0
-267 -273 0
-268 -269 0
-268 -270 0
-268 -271 0
-268 -272 0
-268 -273 0
-269 -270 0
-269 -271 0
-269 -272 0
-269 -273 0
-270 -271 0
-270 -272 0
-270 -273 0
-271 -272 0
-271 -273 0
-272 -273 0
261 262 263 264 265 266 267 268 269 270 271 272 273 0
-274 -275 0
-274 -276 0
-274 -277 0
-274 -278 0
-274 -279 0
-274 -280 0
-274 -281 0
-274 -282 0
-274 -283 0
-274 -284 0
-274 -285 0
-274 -286 0
-275 -276 0
-275 -277 0
-275 -278 0
-275 -279 0
-275 -280 0
-275 -281 0
-275 -282 0
-275 -283 0
-275 -284 0
-275 -285 0
-275 -286 0
-276 -277 0
-276 -278 0
-276 -279 0
-276 -280 0
-276 -281 0
-276 -282 0
-276 -283 0
-276 -284 0
-276 -285 0
-276 -286 0
-277 -278 0
-277 -279 0
-277 -280 0
-277 -281 0
-277 -282 0
-277 -283 0
-277 -284 0
-277 -285 0
-277 -286 0
-278 -279 0
-278 -280 0
-278 -281 0
-278 -282 0
-278 -283 0
-278 -284 0
-278 -285 0
-278 -286 0
-279 -280 0
-279 -281 0
-279 -282 0
-279 -283 0
-279 -284 0
-279 -285 0
-279 -286 0
-280 -281 0
-280 -282 0
-280 -283 0
-280 -284 0
-280 -285 0
-280 -286 0
-281 -282 0
-281 -283 0
-281 -284 0
-281 -285 0
-281 -286 0
-282 -283 0
-282 -284 0
-282 -285 0
-282 -286 0
-283 -284 0
-283 -285 0
-283 -286 0
-284 -285 0
-284 -286 0
-285 -286 0
274 275 276 277 278 279 280 281 282 283 284 285 286 0
-287 -288 0
-287 -289 0
-287 -290 0
-287 -291 0
-287 -292 0
-287 -293 0
-287 -294 0
-287 -295 0
-287 -296 0
-287 -297 0
-287 -298 0
-287 -299 0
-288 -289 0
-288 -290 0
-288 -291 0
-288 -292 0
-288 -293 0
-288 -294 0
-288 -295 0
-288 -296 0
-288 -297 0
-288 -298 0
-288 -299 0
-289 -290 0
-289 -291 0
-289 -292 0
-289 -293 0
-289 -294 0
-289 -295 0
-289 -296 0
-289 -297 0
-289 -298 0
-289 -299 0
-290 -291 0
-290 -292 0
-290 -293 0
-290 -294 0
-290 -295 0
-290 -296 0
-290 -297 0
-290 -298 0
-290 -299 0
-291 -292 0
-291 -293 0
-291 -294 0
-291 -295 0
-291 -296 0
-291 -297 0
-291 -298 0
-291 -299 0
-292 -293 0
-292 -294 0
-292 -295 0
-292 -296 0
-292 -297 0
-292 -298 0
-292 -299 0
-293 -294 0
-293 -295 0
-293 -296 0
-293 -297 0
-293 -298 0
-293 -299 0
-294 -295 0
-294 -296 0
-294 -297 0
-294 -298 0
-294 -299 0
-295 -296 0
-295 -297 0
-295 -298 0
-295 -299 0
-296 -297 0
-296 -298 0
-296 -299 0
-297 -298 0
-297 -299 0
-298 -299 0
287 288 289 290 291 292 293 294 295 296 297 298 299 0
-300 -301 0
-300 -302 0
-300 -303 0
-300 -304 0
-300 -305 0
-300 -306 0
-300 -307 0
-300 -308 0
-300 -309 0
-300 -310 0
-300 -311 0
-300 -312 0
-301 -302 0
-301 -303 0
-301 -304 0
-301 -305 0
-301 -306 0
-301 -307 0
-301 -308 0
-301 -309 0
-301 -310 0
-301 -311 0
-301 -312 0
-302 -303 0
-302 -304 0
-302 -305 0
-302 -306 0
-302 -307 0
-302 -308 0
-302 -309 0
-302 -310 0
-302 -311 0
-302 -312 0
-303 -304 0
-303 -305 0
-303 -306 0
-303 -307 0
-303 -308 0
-303 -309 0
-303 -310 0
-303 -311 0
-303 -312 0
-304 -305 0
-304 -306 0
-304 -307 0
-304 -308 0
-304 -309 0
-304 -310 0
-304 -311 0
-304 -312 0
-305 -306 0
-305 -307 0
-305 -308 0
-305 -309 0
-305 -310 0
-305 -311 0
-305 -312 0
-306 -307 0
-306 -308 0
-306 -309 0
-306 -310 0
-306 -311 0
-306 -312 0
-307 -308 0
-307 -309 0
-307 -310 0
-307 -311 0
-307 -312 0
-308 -309 0
-308 -310 0
-308 -311 0
-308 -312 0
-309 -310 0
-309 -311 0
-309 -312 0
-310 -311 0
-310 -312 0
-311 -312 0
300 301 302 303 304 305 306 307 308 309 310 311 312 0
-1 -13 0
-1 -25 0
-1 -37 0
-1 -49 0
-1 -61 0
-1 -73 0
-1 -85 0
-1 -97 0
-1 -109 0
-1 -121 0
-1 -133 0
-1 -145 0
-13 -25 0
-13 -37 0
-13 -49 0
-13 -61 0
-13 -73 0
-13 -85 0
-13 -97 0
-13 -109 0
-13 -121 0
-13 -133 0
-13 -145 0
-25 -37 0
-25 -49 0
-25 -61 0
-25 -73 0
-25 -85 0
-25 -97 0
-25 -109 0
-25 -121 0
-25 -133 0
-25 -145 0
-37 -49 0
-37 -61 0
-37 -73 0
-37 -85 0
-37 -97 0
-37 -109 0
-37 -121 0
-37 -133 0
-37 -145 0
-49 -61 0
-49 -73 0
-49 -85 0
-49 -97 0
-49 -109 0
-49 -121 0
-49 -133 0
-49 -145 0
-61 -73 0
-61 -85 0
-61 -97 0
-61 -109 0
-61 -121 0
-61 -133 0
-61 -145 0
-73 -85 0
-73 -97 0
-73 -109 0
-73 -121 0
-73 -133 0
-73 -145 0
-85 -97 0
-85 -109 0
-85 -121 0
-85 -133 0
-85 -145 0
-97 -109 0
-97 -121 0
-97 -133 0
-97 -145 0
-109 -121 0
-109 -133 0
-109 -145 0
-121 -133 0
-121 -145 0
-133 -145 0
-2 -14 0
-2 -26 0
-2 -38 0
-2 -50 0
-2 -62 0
-2 -74 0
-2 -86 0
-2 -98 0
-2 -110 0
-2 -122 0
-2 -134 0
-2 -146 0
-14 -26 0
-14 -38 0
-14 -50 0
-14 -62 0
-14 -74 0
-14 -86 0
-14 -98 0
-14 -110 0
-14 -122 0
-14 -134 0
-14 -146 0
-26 -38 0
-26 -50 0
-26 -62 0
-26 -74 0
-26 -86 0
-26 -98 0
-26 -110 0
-26 -122 0
-26 -134 0
-26 -146 0
-38 -50 0
-38 -62 0
-38 -74 0
-38 -86 0
-38 -98 0
-38 -110 0
-38 -122 0
-38 -134 0
-38 -146 0
-50 -62 0
-50 -74 0
-50 -86 0
-50 -98 0
-50 -110 0
-50 -122 0
-50 -134 0
-50 -146 0
-62 -74 0
-62 -86 0
-62 -98 0
-62 -110 0
-62 -122 0
-62 -134 0
-62 -146 0
-74 -86 0
-74 -98 0
-74 -110 0
-74 -122 0
-74 -134 0
-74 -146 0
-86 -98 0
-86 -110 0
-86 -122 0
-86 -134 0
-86 -146 0
-98 -110 0
-98 -122 0
-98 -134 0
-98 -146 0
-110 -122 0
-110 -134 0
-110 -146 0
-122 -134 0
-122 -146 0
-134 -146 0
-3 -15 0
-3 -27 0
-3 -39 0
-3 -51 0
-3 -63 0
-3 -75 0
-3 -87 0
-3 -99 0
-3 -111 0
-3 -123 0
-3 -135 0
-3 -147 0
-15 -27 0
-15 -39 0
-15 -51 0
-15 -63 0
-15 -75 0
-15 -87 0
-15 -99 0
-15 -111 0
-15 -123 0
-15 -135 0
-15 -147 0
-27 -39 0
-27 -51 0
-27 -63 0
-27 -75 0
-27 -87 0
-27 -99 0
-27 -111 0
-27 -123 0
-27 -135 0
-27 -147 0
-39 -51 0
-39 -63 0
-39 -75 0
-39 -87 0
-39 -99 0
-39 -111 0
-39 -123 0
-39 -135 0
-39 -147 0
-51 -63 0
-51 -75 0
-51 -87 0
-51 -99 0
-51 -111 0
-51 -123 0
-51 -135 0
-51 -147 0
-63 -75 0
-63 -87 0
-63 -99 0
-63 -111 0
-63 -123 0
-63 -135 0
-63 -147 0
-75 -87 0
-75 -99 0
-75 -111 0
-75 -123 0
-75 -135 0
-75 -147 0
-87 -99 0
-87 -111 0
-87 -123 0
-87 -135 0
-87 -147 0
-99 -111 0
-99 -123 0
-99 -135 0
-99 -147 0
-111 -123 0
-111 -135 0
-111 -147 0
-123 -135 0
-123 -147 0
-135 -147 0
-4 -16 0
-4 -28 0
-4 -40 0
-4 -52 0
-4 -64 0
-4 -76 0
-4 -88 0
-4 -100 0
-4 -112 0
-4 -124 0
-4 -136 0
-4 -148 0
-16 -28 0
-16 -40 0
-16 -52 0
-16 -64 0
-16 -76 0
-16 -88 0
-16 -100 0
-16 -112 0
-16 -124 0
-16 -136 0
-16 -148 0
-28 -40 0
-28 -52 0
-28 -64 0
-28 -76 0
-28 -88 0
-28 -100 0
-28 -112 0
-28 -124 0
-28 -136 0
-28 -148 0
-40 -52 0
-40 -64 0
-40 -76 0
-40 -88 0
-40 -100 0
-40 -112 0
-40 -124 0
-40 -136 0
-40 -148 0
-52 -64 0
-52 -76 0
-52 -88 0
-52 -100 0
-52 -112 0
-52 -124 0
-52 -136 0
-52 -148 0
-64 -76 0
-64 -88 0
-64 -100 0
-64 -112 0
-64 -124 0
-64 -136 0
-64 -148 0
-76 -88 0
-76 -100 0
-76 -112 0
-76 -124 0
-76 -136 0
-76 -148 0
-88 -100 0
-88 -112 0
-88 -124 0
-88 -136 0
-88 -148 0
-100 -112 0
-100 -124 0
-100 -136 0
-100 -148 0
-112 -124 0
-112 -136 0
-112 -148 0
-124 -136 0
-124 -148 0
-136 -148 0
-5 -17 0
-5 -29 0
-5 -41 0
-5 -53 0
-5 -65 0
-5 -77 0
-5 -89 0
-5 -101 0
-5 -113 0
-5 -125 0
-5 -137 0
-5 -149 0
-17 -29 0
-17 -41 0
-17 -53 0
-17 -65 0
-17 -77 0
-17 -89 0
-17 -101 0
-17 -113 0
-17 -125 0
-17 -137 0
-17 -149 0
-29 -41 0
-29 -53 0
-29 -65 0
-29 -77 0
-29 -89 0
-29 -101 0
-29 -113 0
-29 -125 0
-29 -137 0
-29 -149 0
-41 -53 0
-41 -65 0
-41 -77 0
-41 -89 0
-41 -101 0
-41 -113 0
-41 -125 0
-41 -137 0
-41 -149 0
-53 -65 0
-53 -77 0
-53 -89 0
-53 -101 0
-53 -113 0
-53 -125 0
-53 -137 0
-53 -149 0
-65 -77 0
-65 -89 0
-65 -101 0
-65 -113 0
-65 -125 0
-65 -137 0
-65 -149 0
-77 -89 0
-77 -101 0
-77 -113 0
-77 -125 0
-77 -137 0
-77 -149 0
-89 -101 0
-89 -113 0
-89 -125 0
-89 -137 0
-89 -149 0
-101 -113 0
-101 -125 0
-101 -137 0
-101 -149 0
-113 -125 0
-113 -137 0
-113 -149 0
-125 -137 0
-125 -149 0
-137 -149 0
-6 -18 0
-6 -30 0
-6 -42 0
-6 -54 0
-6 -66 0
-6 -78 0
-6 -90 0
-6 -102 0
-6 -114 0
-6 -126 0
-6 -138 0
-6 -150 0
-18 -30 0
-18 -42 0
-18 -54 0
-18 -66 0
-18 -78 0
-18 -90 0
-18 -102 0
-18 -114 0
-18 -126 0
-18 -138 0
-18 -150 0
-30 -42 0
-30 -54 0
-30 -66 0
-30 -78 0
-30 -90 0
-30 -102 0
-30 -114 0
-30 -126 0
-30 -138 0
-30 -150 0
-42 -54 0
-42 -66 0
-42 -78 0
-42 -90 0
-42 -102 0
-42 -114 0
-42 -126 0
-42 -138 0
-42 -150 0
-54 -66 0
-54 -78 0
-54 -90 0
-54 -102 0
-54 -114 0
-54 -126 0
-54 -138 0
-54 -150 0
-66 -78 0
-66 -90 0
-66 -102 0
-66 -114 0
-66 -126 0
-66 -138 0
-66 -150 0
-78 -90 0
-78 -102 0
-78 -114 0
-78 -126 0
-78 -138 0
-78 -150 0
-90 -102 0
-90 -114 0
-90 -126 0
-90 -138 0
-90 -150 0
-102 -114 0
-102 -126 0
-102 -138 0
-102 -150 0
-114 -126 0
-114 -138 0
-114 -150 0
-126 -138 0
-126 -150 0
-138 -150 0
-7 -19 0
-7 -31 0
-7 -43 0
-7 -55 0
-7 -67 0
-7 -79 0
-7 -91 0
-7 -103 0
-7 -115 0
-7 -127 0
-7 -139 0
-7 -151 0
-19 -31 0
-19 -43 0
-19 -55 0
-19 -67 0
-19 -79 0
-19 -91 0
-19 -103 0
-19 -115 0
-19 -127 0
-19 -139 0
-19 -151 0
-31 -43 0
-31 -55 0
-31 -67 0
-31 -79 0
-31 -91 0
-31 -103 0
-31 -115 0
-31 -127 0
-31 -139 0
-31 -151 0
-43 -55 0
-43 -67 0
-43 -79 0
-43 -91 0
-43 -103 0
-43 -115 0
-43 -127 0
-43 -139 0
-43 -151 0
-55 -67 0
-55 -79 0
-55 -91 0
-55 -103 0
-55 -115 0
-55 -127 0
-55 -139 0
-55 -151 0
-67 -79 0
-67 -91 0
-67 -103 0
-67 -115 0
-67 -127 0
-67 -139 0
-67 -151 0
-79 -91 0
-79 -103 0
-79 -115 0
-79 -127 0
-79 -139 0
-79 -151 0
-91 -103 0
-91 -115 0
-91 -127 0
-91 -139 0
-91 -151 0
-103 -115 0
-103 -127 0
-103 -139 0
-103 -151 0
-115 -127 0
-115 -139 0
-115 -151 0
-127 -139 0
-127 -151 0
-139 -151 0
-8 -20 0
-8 -32 0
-8 -44 0
-8 -56 0
-8 -68 0
-8 -80 0
-8 -92 0
-8 -104 0
-8 -116 0
-8 -128 0
-8 -140 0
-8 -152 0
-20 -32 0
-20 -44 0
-20 -56 0
-20 -68 0
-20 -80 0
-20 -92 0
-20 -104 0
-20 -116 0
-20 -128 0
-20 -140 0
-20 -152 0
-32 -44 0
-32 -56 0
-32 -68 0
-32 -80 0
-32 -92 0
-32 -104 0
-32 -116 0
-32 -128 0
-32 -140 0
-32 -152 0
-44 -56 0
-44 -68 0
-44 -80 0
-44 -92 0
-44 -104 0
-44 -116 0
-44 -128 0
-44 -140 0
-44 -152 0
-56 -68 0
-56 -80 0
-56 -92 0
-56 -104 0
-56 -116 0
-56 -128 0
-56 -140 0
-56 -152 0
-68 -80 0
-68 -92 0
-68 -104 0
-68 -116 0
-68 -128 0
-68 -140 0
-68 -152 0
-80 -92 0
-80 -104 0
-80 -116 0
-80 -128 0
-80 -140 0
-80 -152 0
-92 -104 0
-92 -116 0
-92 -128 0
-92 -140 0
-92 -152 0
-104 -116 0
-104 -128 0
-104 -140 0
-104 -152 0
-116 -128 0
-116 -140 0
-116 -152 0
-128 -140 0
-128 -152 0
-140 -152 0
-9 -21 0
-9 -33 0
-9 -45 0
-9 -57 0
-9 -69 0
-9 -81 0
-9 -93 0
-9 -105 0
-9 -117 0
-9 -129 0
-9 -141 0
-9 -153 0
-21 -33 0
-21 -45 0
-21 -57 0
-21 -69 0
-21 -81 0
-21 -93 0
-21 -105 0
-21 -117 0
-21 -129 0
-21 -141 0
-21 -153 0
-33 -45 0
-33 -57 0
-33 -69 0
-33 -81 0
-33 -93 0
-33 -105 0
-33 -117 0
-33 -129 0
-33 -141 0
-33 -153 0
-45 -57 0
-45 -69 0
-45 -81 0
-45 -93 0
-45 -105 0
-45 -117 0
-45 -129 0
-45 -141 0
-45 -153 0
-57 -69 0
-57 -81 0
-57 -93 0
-57 -105 0
-57 -117 0
-57 -129 0
-57 -141 0
-57 -153 0
-69 -81 0
-69 -93 0
-69 -105 0
-69 -117 0
-69 -129 0
-69 -141 0
-69 -153 0
-81 -93 0
-81 -105 0
-81 -117 0
-81 -129 0
-81 -141 0
-81 -153 0
-93 -105 0
-93 -117 0
-93 -129 0
-93 -141 0
-93 -153 0
-105 -117 0
-105 -129 0
-105 -141 0
-105 -153 0
-117 -129 0
-117 -141 0
-117 -153 0
-129 -141 0
-129 -153 0
-141 -153 0
-10 -22 0
-10 -34 0
-10 -46 0
-10 -58 0
-10 -70 0
-10 -82 0
-10 -94 0
-10 -106 0
-10 -118 0
-10 -130 0
-10 -142 0
-10 -154 0
-22 -34 0
-22 -46 0
-22 -58 0
-22 -70 0
-22 -82 0
-22 -94 0
-22 -106 0
-22 -118 0
-22 -130 0
-22 -142 0
-22 -154 0
-34 -46 0
-34 -58 0
-34 -70 0
-34 -82 0
-34 -94 0
-34 -106 0
-34 -118 0
-34 -130 0
-34 -142 0
-34 -154 0
-46 -58 0
-46 -70 0
-46 -82 0
-46 -94 0
-46 -106 0
-46 -118 0
-46 -130 0
-46 -142 0
-46 -154 0
-58 -70 0
-58 -82 0
-58 -94 0
-58 -106 0
-58 -118 0
-58 -130 0
-58 -142 0
-58 -154 0
-70 -82 0
-70 -94 0
-70 -106 0
-70 -118 0
-70 -130 0
-70 -142 0
-70 -154 0
-82 -94 0
-82 -106 0
-82 -118 0
-82 -130 0
-82 -142 0
-82 -154 0
-94 -106 0
-94 -118 0
-94 -130 0
-94 -142 0
-94 -154 0
-106 -118 0
-106 -130 0
-106 -142 0
-106 -154 0
-118 -130 0
-118 -142 0
-118 -154 0
-130 -142 0
-130 -154 0
-142 -154 0
-11 -23 0
-11 -35 0
-11 -47 0
-11 -59 0
-11 -71 0
-11 -83 0
-11 -95 0
-11 -107 0
-11 -119 0
-11 -131 0
-11 -143 0
-11 -155 0
-23 -35 0
-23 -47 0
-23 -59 0
-23 -71 0
-23 -83 0
-23 -95 0
-23 -107 0
-23 -119 0
-23 -131 0
-23 -143 0
-23 -155 0
-35 -47 0
-35 -59 0
-35 -71 0
-35 -83 0
-35 -95 0
-35 -107 0
-35 -119 0
-35 -131 0
-35 -143 0
-35 -155 0
-47 -59 0
-47 -71 0
-47 -83 0
-47 -95 0
-47 -107 0
-47 -119 0
-47 -131 0
-47 -143 0
-47 -155 0
-59 -71 0
-59 -83 0
-59 -95 0
-59 -107 0
-59 -119 0
-59 -131 0
-59 -143 0
-59 -155 0
-71 -83 0
-71 -95 0
-71 -107 0
-71 -119 0
-71 -131 0
-71 -143 0
-71 -155 0
-83 -95 0
-83 -107 0
-83 -119 0
-83 -131 0
-83 -143 0
-83 -155 0
-95 -107 0
-95 -119 0
-95 -131 0
-95 -143 0
-95 -155 0
-107 -119 0
-107 -131 0
-107 -143 0
-107 -155 0
-119 -131 0
-119 -143 0
-119 -155 0
-131 -143 0
-131 -155 0
-143 -155 0
-12 -24 0
-12 -36 0
-12 -48 0
-12 -60 0
-12 -72 0
-12 -84 0
-12 -96 0
-12 -108 0
-12 -120 0
-12 -132 0
-12 -144 0
-12 -156 0
-24 -36 0
-24 -48 0
-24 -60 0
-24 -72 0
-24 -84 0
-24 -96 0
-24 -108 0
-24 -120 0
-24 -132 0
-24 -144 0
-24 -156 0
-36 -48 0
-36 -60 0
-36 -72 0
-36 -84 0
-36 -96 0
-36 -108 0
-36 -120 0
-36 -132 0
-36 -144 0
-36 -156 0
-48 -60 0
-48 -72 0
-48 -84 0
-48 -96 0
-48 -108 0
-48 -120 0
-48 -132 0
-48 -144 0
-48 -156 0
-60 -72 0
-60 -84 0
-60 -96 0
-60 -108 0
-60 -120 0
-60 -132 0
-60 -144 0
-60 -156 0
-72 -84 0
-72 -96 0
-72 -108 0
-72 -120 0
-72 -132 0
-72 -144 0
-72 -156 0
-84 -96 0
-84 -108 0
-84 -120 0
-84 -132 0
-84 -144 0
-84 -156 0
-96 -108 0
-96 -120 0
-96 -132 0
-96 -144 0
-96 -156 0
-108 -120 0
-108 -132 0
-108 -144 0
-108 -156 0
-120 -132 0
-120 -144 0
-120 -156 0
-132 -144 0
-132 -156 0
-144 -156 0
-157 -170 0
-157 -183 0
-157 -196 0
-157 -209 0
-157 -222 0
-157 -235 0
-157 -248 0
-157 -261 0
-157 -274 0
-157 -287 0
-157 -300 0
-170 -183 0
-170 -196 0
-170 -209 0
-170 -222 0
-170 -235 0
-170 -248 0
-170 -261 0
-170 -274 0
-170 -287 0
-170 -300 0
-183 -196 0
-183 -209 0
-183 -222 0
-183 -235 0
-183 -248 0
-183 -261 0
-183 -274 0
-183 -287 0
-183 -300 0
-196 -209 0
-196 -222 0
-196 -235 0
-196 -248 0
-196 -261 0
-196 -274 0
-196 -287 0
-196 -300 0
-209 -222 0
-209 -235 0
-209 -248 0
-209 -261 0
-209 -274 0
-209 -287 0
-209 -300 0
-222 -235 0
-222 -248 0
-222 -261 0
-222 -274 0
-222 -287 0
-222 -300 0
-235 -248 0
-235 -261 0
-235 -274 0
-235 -287 0
-235 -300 0
-248 -261 0
-248 -274 0
-248 -287 0
-248 -300 0
-261 -274 0
-261 -287 0
-261 -300 0
-274 -287 0
-274 -300 0
-287 -300 0
-158 -171 0
-158 -184 0
-158 -197 0
-158 -210 0
-158 -223 0
-158 -236 0
-158 -249 0
-158 -262 0
-158 -275 0
-158 -288 0
-158 -301 0
-171 -184 0
-171 -197 0
-171 -210 0
-171 -223 0
-171 -236 0
-171 -249 0
-171 -262 0
-171 -275 0
-171 -288 0
-171 -301 0
-184 -197 0
-184 -210 0
-184 -223 0
-184 -236 0
-184 -249 0
-184 -262 0
-184 -275 0
-184 -288 0
-184 -301 0
-197 -210 0
-197 -223 0
-197 -236 0
-197 -249 0
-197 -262 0
-197 -275 0
-197 -288 0
-197 -301 0
-210 -223 0
-210 -236 0
-210 -249 0
-210 -262 0
-210 -275 0
-210 -288 0
-210 -301 0
-223 -236 0
-223 -249 0
-223 -262 0
-223 -275 0
-223 -288 0
-223 -301 0
-236 -249 0
-236 -262 0
-236 -275 0
-236 -288 0
-236 -301 0
-249 -262 0
-249 -275 0
-249 -288 0
-249 -301 0
-262 -275 0
-262 -288 0
-262 -301 0
-275 -288 0
-275 -301 0
-288 -301 0
-159 -172 0
-159 -185 0
-159 -198 0
-159 -211 0
-159 -224 0
-159 -237 0
-159 -250 0
-159 -263 0
-159 -276 0
-159 -289 0
-159 -302 0
-172 -185 0
-172 -198 0
-172 -211 0
-172 -224 0
-172 -237 0
-172 -250 0
-172 -263 0
-172 -276 0
-172 -289 0
-172 -302 0
-185 -198 0
-185 -211 0
-185 -224 0
-185 -237 0
-185 -250 0
-185 -263 0
-185 -276 0
-185 -289 0
-185 -302 0
-198 -211 0
-198 -224 0
-198 -237 0
-198 -250 0
-198 -263 0
-198 -276 0
-198 -289 0
-198 -302 0
-211 -224 0
-211 -237 0
-211 -250 0
-211 -263 0
-211 -276 0
-211 -289 0
-211 -302 0
-224 -237 0
-224 -250 0
-224 -263 0
-224 -276 0
-224 -289 0
-224 -302 0
-237 -250 0
-237 -263 0
-237 -276 0
-237 -289 0
-237 -302 0
-250 -263 0
-250 -276 0
-250 -289 0
-250 -302 0
-263 -276 0
-263 -289 0
-263 -302 0
-276 -289 0
-276 -302 0
-289 -302 0
-160 -173 0
-160 -186 0
-160 -199 0
-160 -212 0
-160 -225 0
-160 -238 0
-160 -251 0
-160 -264 0
-160 -277 0
-160 -290 0
-160 -303 0
-173 -186 0
-173 -199 0
-173 -212 0
-173 -225 0
-173 -238 0
-173 -251 0
-173 -264 0
-173 -277 0
-173 -290 0
-173 -303 0
-186 -199 0
-186 -212 0
-186 -225 0
-186 -238 0
-186 -251 0
-186 -264 0
-186 -277 0
-186 -290 0
-186 -303 0
-199 -212 0
-199 -225 0
-199 -238 0
-199 -251 0
-199 -264 0
-199 -277 0
-199 -290 0
-199 -303 0
-212 -225 0
-212 -238 0
-212 -251 0
-212 -264 0
-212 -277 0
-212 -290 0
-212 -303 0
-225 -238 0
-225 -251 0
-225 -264 0
-225 -277 0
-225 -290 0
-225 -303 0
-238 -251 0
-238 -264 0
-238 -277 0
-238 -290 0
-238 -303 0
-251 -264 0
-251 -277 0
-251 -290 0
-251 -303 0
-264 -277 0
-264 -290 0
-264 -303 0
-277 -290 0
-277 -303 0
-290 -303 0
-161 -174 0
-161 -187 0
-161 -200 0
-161 -213 0
-161 -226 0
-161 -239 0
-161 -252 0
-161 -265 0
-161 -278 0
-161 -291 0
-161 -304 0
-174 -187 0
-174 -200 0
-174 -213 0
-174 -226 0
-174 -239 0
-174 -252 0
-174 -265 0
-174 -278 0
-174 -291 0
-174 -304 0
-187 -200 0
-187 -213 0
-187 -226 0
-187 -239 0
-187 -252 0
-187 -265 0
-187 -278 0
-187 -291 0
-187 -304 0
-200 -213 0
-200 -226 0
-200 -239 0
-200 -252 0
-200 -265 0
-200 -278 0
-200 -291 0
-200 -304 0
-213 -226 0
-213 -239 0
-213 -252 0
-213 -265 0
-213 -278 0
-213 -291 0
-213 -304 0
-226 -239 0
-226 -252 0
-226 -265 0
-226 -278 0
-226 -291 0
-226 -304 0
-239 -252 0
-239 -265 0
-239 -278 0
-239 -291 0
-239 -304 0
-252 -265 0
-252 -278 0
-252 -291 0
-252 -304 0
-265 -278 0
-265 -291 0
-265 -304 0
-278 -291 0
-278 -304 0
-291 -304 0
-162 -175 0
-162 -188 0
-162 -201 0
-162 -214 0
-162 -227 0
-162 -240 0
-162 -253 0
-162 -266 0
-162 -279 0
-162 -292 0
-162 -305 0
-175 -188 0
-175 -201 0
-175 -214 0
-175 -227 0
-175 -240 0
-175 -253 0
-175 -266 0
-175 -279 0
-175 -292 0
-175 -305 0
-188 -201 0
-188 -214 0
-188 -227 0
-188 -240 0
-188 -253 0
-188 -266 0
-188 -279 0
-188 -292 0
-188 -305 0
-201 -214 0
-201 -227 0
-201 -240 0
-201 -253 0
-201 -266 0
-201 -279 0
-201 -292 0
-201 -305 0
-214 -227 0
-214 -240 0
-214 -253 0
-214 -266 0
-214 -279 0
-214 -292 0
-214 -305 0
-227 -240 0
-227 -253 0
-227 -266 0
-227 -279 0
-227 -292 0
-227 -305 0
-240 -253 0
-240 -266 0
-240 -279 0
-240 -292 0
-240 -305 0
-253 -266 0
-253 -279 0
-253 -292 0
-253 -305 0
-266 -279 0
-266 -292 0
-266 -305 0
-279 -292 0
-279 -305 0
-292 -305 0
-163 -176 0
-163 -189 0
-163 -202 0
-163 -215 0
-163 -228 0
-163 -241 0
-163 -254 0
-163 -267 0
-163 -280 0
-163 -293 0
-163 -306 0
-176 -189 0
-176 -202 0
-176 -215 0
-176 -228 0
-176 -241 0
-176 -254 0
-176 -267 0
-176 -280 0
-176 -293 0
-176 -306 0
-189 -202 0
-189 -215 0
-189 -228 0
-189 -241 0
-189 -254 0
-189 -267 0
-189 -280 0
-189 -293 0
-189 -306 0
-202 -215 0
-202 -228 0
-202 -241 0
-202 -254 0
-202 -267 0
-202 -280 0
-202 -293 0
-202 -306 0
-215 -228 0
-215 -241 0
-215 -254 0
-215 -267 0
-215 -280 0
-215 -293 0
-215 -306 0
-228 -241 0
-228 -254 0
-228 -267 0
-228 -280 0
-228 -293 0
-228 -306 0
-241 -254 0
-241 -267 0
-241 -280 0
-241 -293 0
-241 -306 0
-254 -267 0
-254 -280 0
-254 -293 0
-254 -306 0
-267 -280 0
-267 -293 0
-267 -306 0
-280 -293 0
-280 -306 0
-293 -306 0
-164 -177 0
-164 -190 0
-164 -203 0
-164 -216 0
-164 -229 0
-164 -242 0
-164 -255 0
-164 -268 0
-164 -281 0
-164 -294 0
-164 -307 0
-177 -190 0
-177 -203 0
-177 -216 0
-177 -229 0
-177 -242 0
-177 -255 0
-177 -268 0
-177 -281 0
-177 -294 0
-177 -307 0
-190 -203 0
-190 -216 0
-190 -229 0
-190 -242 0
-190 -255 0
-190 -268 0
-190 -281 0
-190 -294 0
-190 -307 0
-203 -216 0
-203 -229 0
-203 -242 0
-203 -255 0
-203 -268 0
-203 -281 0
-203 -294 0
-203 -307 0
-216 -229 0
-216 -242 0
-216 -255 0
-216 -268 0
-216 -281 0
-216 -294 0
-216 -307 0
-229 -242 0
-229 -255 0
-229 -268 0
-229 -281 0
-229 -294 0
-229 -307 0
-242 -255 0
-242 -268 0
-242 -281 0
-242 -294 0
-242 -307 0
-255 -268 0
-255 -281 0
-255 -294 0
-255 -307 0
-268 -281 0
-268 -294 0
-268 -307 0
-281 -294 0
-281 -307 0
-294 -307 0
-165 -178 0
-165 -191 0
-165 -204 0
-165 -217 0
-165 -230 0
-165 -243 0
-165 -256 0
-165 -269 0
-165 -282 0
-165 -295 0
-165 -308 0
-178 -191 0
-178 -204 0
-178 -217 0
-178 -230 0
-178 -243 0
-178 -256 0
-178 -269 0
-178 -282 0
-178 -295 0
-178 -308 0
-191 -204 0
-191 -217 0
-191 -230 0
-191 -243 0
-191 -256 0
-191 -269 0
-191 -282 0
-191 -295 0
-191 -308 0
-204 -217 0
-204 -230 0
-204 -243 0
-204 -256 0
-204 -269 0
-204 -282 0
-204 -295 0
-204 -308 0
-217 -230 0
-217 -243 0
-217 -256 0
-217 -269 0
-217 -282 0
-217 -295 0
-217 -308 0
-230 -243 0
-230 -256 0
-230 -269 0
-230 -282 0
-230 -295 0
-230 -308 0
-243 -256 0
-243 -269 0
-243 -282 0
-243 -295 0
-243 -308 0
-256 -269 0
-256 -282 0
-256 -295 0
-256 -308 0
-269 -282 0
-269 -295 0
-269 -308 0
-282 -295 0
-282 -308 0
-295 -308 0
-166 -179 0
-166 -192 0
-166 -205 0
-166 -218 0
-166 -231 0
-166 -244 0
-166 -257 0
-166 -270 0
-166 -283 0
-166 -296 0
-166 -309 0
-179 -192 0
-179 -205 0
-179 -218 0
-179 -231 0
-179 -244 0
-179 -257 0
-179 -270 0
-179 -283 0
-179 -296 0
-179 -309 0
-192 -205 0
-192 -218 0
-192 -231 0
-192 -244 0
-192 -257 0
-192 -270 0
-192 -283 0
-192 -296 0
-192 -309 0
-205 -218 0
-205 -231 0
-205 -244 0
-205 -257 0
-205 -270 0
-205 -283 0
-205 -296 0
-205 -309 0
-218 -231 0
-218 -244 0
-218 -257 0
-218 -270 0
-218 -283 0
-218 -296 0
-218 -309 0
-231 -244 0
-231 -257 0
-231 -270 0
-231 -283 0
-231 -296 0
-231 -309 0
-244 -257 0
-244 -270 0
-244 -283 0
-244 -296 0
-244 -309 0
-257 -270 0
-257 -283 0
-257 -296 0
-257 -309 0
-270 -283 0
-270 -296 0
-270 -309 0
-283 -296 0
-283 -309 0
-296 -309 0
-167 -180 0
-167 -193 0
-167 -206 0
-167 -219 0
-167 -232 0
-167 -245 0
-167 -258 0
-167 -271 0
-167 -284 0
-167 -297 0
-167 -310 0
-180 -193 0
-180 -206 0
-180 -219 0
-180 -232 0
-180 -245 0
-180 -258 0
-180 -271 0
-180 -284 0
-180 -297 0
-180 -310 0
-193 -206 0
-193 -219 0
-193 -232 0
-193 -245 0
-193 -258 0
-193 -271 0
-193 -284 0
-193 -297 0
-193 -310 0
-206 -219 0
-206 -232 0
-206 -245 0
-206 -258 0
-206 -271 0
-206 -284 0
-206 -297 0
-206 -310 0
-219 -232 0
-219 -245 0
-219 -258 0
-219 -271 0
-219 -284 0
-219 -297 0
-219 -310 0
-232 -245 0
-232 -258 0
-232 -271 0
-232 -284 0
-232 -297 0
-232 -310 0
-245 -258 0
-245 -271 0
-245 -284 0
-245 -297 0
-245 -310 0
-258 -271 0
-258 -284 0
-258 -297 0
-258 -310 0
-271 -284 0
-271 -297 0
-271 -310 0
-284 -297 0
-284 -310 0
-297 -310 0
-168 -181 0
-168 -194 0
-168 -207 0
-168 -220 0
-168 -233 0
-168 -246 0
-168 -259 0
-168 -272 0
-168 -285 0
-168 -298 0
-168 -311 0
-181 -194 0
-181 -207 0
-181 -220 0
-181 -233 0
-181 -246 0
-181 -259 0
-181 -272 0
-181 -285 0
-181 -298 0
-181 -311 0
-194 -207 0
-194 -220 0
-194 -233 0
-194 -246 0
-194 -259 0
-194 -272 0
-194 -285 0
-194 -298 0
-194 -311 0
-207 -220 0
-207 -233 0
-207 -246 0
-207 -259 0
-207 -272 0
-207 -285 0
-207 -298 0
-207 -311 0
-220 -233 0
-220 -246 0
-220 -259 0
-220 -272 0
-220 -285 0
-220 -298 0
-220 -311 0
-233 -246 0
-233 -259 0
-233 -272 0
-233 -285 0
-233 -298 0
-233 -311 0
-246 -259 0
-246 -272 0
-246 -285 0
-246 -298 0
-246 -311 0
-259 -272 0
-259 -285 0
-259 -298 0
-259 -311 0
-272 -285 0
-272 -298 0
-272 -311 0
-285 -298 0
-285 -311 0
-298 -311 0
-169 -182 0
-169 -195 0
-169 -208 0
-169 -221 0
-169 -234 0
-169 -247 0
-169 -260 0
-169 -273 0
-169 -286 0
-169 -299 0
-169 -312 0
-182 -195 0
-182 -208 0
-182 -221 0
-182 -234 0
-182 -247 0
-182 -260 0
-182 -273 0
-182 -286 0
-182 -299 0
-182 -312 0
-195 -208 0
-195 -221 0
-195 -234 0
-195 -247 0
-195 -260 0
-195 -273 0
-195 -286 0
-195 -299 0
-195 -312 0
-208 -221 0
-208 -234 0
-208 -247 0
-208 -260 0
-208 -273 0
-208 -286 0
-208 -299 0
-208 -312 0
-221 -234 0
-221 -247 0
-221 -260 0
-221 -273 0
-221 -286 0
-221 -299 0
-221 -312 0
-234 -247 0
-234 -260 0
-234 -273 0
-234 -286 0
-234 -299 0
-234 -312 0
-247 -260 0
-247 -273 0
-247 -286 0
-247 -299 0
-247 -312 0
-260 -273 0
-260 -286 0
-260 -299 0
-260 -312 0
-273 -286 0
-273 -299 0
-273 -312 0
-286 -299 0
-286 -312 0
-299 -312 0
