c Phase 3 generated performance instance
c family=overlapping_hall_violation
c scale=14
c variant=default
c noise_percent=0
c expected=UNSATISFIABLE
p cnf 420 5699
-1 -2 0
-1 -3 0
-1 -4 0
-1 -5 0
-1 -6 0
-1 -7 0
-1 -8 0
-1 -9 0
-1 -10 0
-1 -11 0
-1 -12 0
-1 -13 0
-1 -14 0
-2 -3 0
-2 -4 0
-2 -5 0
-2 -6 0
-2 -7 0
-2 -8 0
-2 -9 0
-2 -10 0
-2 -11 0
-2 -12 0
-2 -13 0
-2 -14 0
-3 -4 0
-3 -5 0
-3 -6 0
-3 -7 0
-3 -8 0
-3 -9 0
-3 -10 0
-3 -11 0
-3 -12 0
-3 -13 0
-3 -14 0
-4 -5 0
-4 -6 0
-4 -7 0
-4 -8 0
-4 -9 0
-4 -10 0
-4 -11 0
-4 -12 0
-4 -13 0
-4 -14 0
-5 -6 0
-5 -7 0
-5 -8 0
-5 -9 0
-5 -10 0
-5 -11 0
-5 -12 0
-5 -13 0
-5 -14 0
-6 -7 0
-6 -8 0
-6 -9 0
-6 -10 0
-6 -11 0
-6 -12 0
-6 -13 0
-6 -14 0
-7 -8 0
-7 -9 0
-7 -10 0
-7 -11 0
-7 -12 0
-7 -13 0
-7 -14 0
-8 -9 0
-8 -10 0
-8 -11 0
-8 -12 0
-8 -13 0
-8 -14 0
-9 -10 0
-9 -11 0
-9 -12 0
-9 -13 0
-9 -14 0
-10 -11 0
-10 -12 0
-10 -13 0
-10 -14 0
-11 -12 0
-11 -13 0
-11 -14 0
-12 -13 0
-12 -14 0
-13 -14 0
1 2 3 4 5 6 7 8 9 10 11 12 13 14 0
-15 -16 0
-15 -17 0
-15 -18 0
-15 -19 0
-15 -20 0
-15 -21 0
-15 -22 0
-15 -23 0
-15 -24 0
-15 -25 0
-15 -26 0
-15 -27 0
-15 -28 0
-16 -17 0
-16 -18 0
-16 -19 0
-16 -20 0
-16 -21 0
-16 -22 0
-16 -23 0
-16 -24 0
-16 -25 0
-16 -26 0
-16 -27 0
-16 -28 0
-17 -18 0
-17 -19 0
-17 -20 0
-17 -21 0
-17 -22 0
-17 -23 0
-17 -24 0
-17 -25 0
-17 -26 0
-17 -27 0
-17 -28 0
-18 -19 0
-18 -20 0
-18 -21 0
-18 -22 0
-18 -23 0
-18 -24 0
-18 -25 0
-18 -26 0
-18 -27 0
-18 -28 0
-19 -20 0
-19 -21 0
-19 -22 0
-19 -23 0
-19 -24 0
-19 -25 0
-19 -26 0
-19 -27 0
-19 -28 0
-20 -21 0
-20 -22 0
-20 -23 0
-20 -24 0
-20 -25 0
-20 -26 0
-20 -27 0
-20 -28 0
-21 -22 0
-21 -23 0
-21 -24 0
-21 -25 0
-21 -26 0
-21 -27 0
-21 -28 0
-22 -23 0
-22 -24 0
-22 -25 0
-22 -26 0
-22 -27 0
-22 -28 0
-23 -24 0
-23 -25 0
-23 -26 0
-23 -27 0
-23 -28 0
-24 -25 0
-24 -26 0
-24 -27 0
-24 -28 0
-25 -26 0
-25 -27 0
-25 -28 0
-26 -27 0
-26 -28 0
-27 -28 0
15 16 17 18 19 20 21 22 23 24 25 26 27 28 0
-29 -30 0
-29 -31 0
-29 -32 0
-29 -33 0
-29 -34 0
-29 -35 0
-29 -36 0
-29 -37 0
-29 -38 0
-29 -39 0
-29 -40 0
-29 -41 0
-29 -42 0
-30 -31 0
-30 -32 0
-30 -33 0
-30 -34 0
-30 -35 0
-30 -36 0
-30 -37 0
-30 -38 0
-30 -39 0
-30 -40 0
-30 -41 0
-30 -42 0
-31 -32 0
-31 -33 0
-31 -34 0
-31 -35 0
-31 -36 0
-31 -37 0
-31 -38 0
-31 -39 0
-31 -40 0
-31 -41 0
-31 -42 0
-32 -33 0
-32 -34 0
-32 -35 0
-32 -36 0
-32 -37 0
-32 -38 0
-32 -39 0
-32 -40 0
-32 -41 0
-32 -42 0
-33 -34 0
-33 -35 0
-33 -36 0
-33 -37 0
-33 -38 0
-33 -39 0
-33 -40 0
-33 -41 0
-33 -42 0
-34 -35 0
-34 -36 0
-34 -37 0
-34 -38 0
-34 -39 0
-34 -40 0
-34 -41 0
-34 -42 0
-35 -36 0
-35 -37 0
-35 -38 0
-35 -39 0
-35 -40 0
-35 -41 0
-35 -42 0
-36 -37 0
-36 -38 0
-36 -39 0
-36 -40 0
-36 -41 0
-36 -42 0
-37 -38 0
-37 -39 0
-37 -40 0
-37 -41 0
-37 -42 0
-38 -39 0
-38 -40 0
-38 -41 0
-38 -42 0
-39 -40 0
-39 -41 0
-39 -42 0
-40 -41 0
-40 -42 0
-41 -42 0
29 30 31 32 33 34 35 36 37 38 39 40 41 42 0
-43 -44 0
-43 -45 0
-43 -46 0
-43 -47 0
-43 -48 0
-43 -49 0
-43 -50 0
-43 -51 0
-43 -52 0
-43 -53 0
-43 -54 0
-43 -55 0
-43 -56 0
-44 -45 0
-44 -46 0
-44 -47 0
-44 -48 0
-44 -49 0
-44 -50 0
-44 -51 0
-44 -52 0
-44 -53 0
-44 -54 0
-44 -55 0
-44 -56 0
-45 -46 0
-45 -47 0
-45 -48 0
-45 -49 0
-45 -50 0
-45 -51 0
-45 -52 0
-45 -53 0
-45 -54 0
-45 -55 0
-45 -56 0
-46 -47 0
-46 -48 0
-46 -49 0
-46 -50 0
-46 -51 0
-46 -52 0
-46 -53 0
-46 -54 0
-46 -55 0
-46 -56 0
-47 -48 0
-47 -49 0
-47 -50 0
-47 -51 0
-47 -52 0
-47 -53 0
-47 -54 0
-47 -55 0
-47 -56 0
-48 -49 0
-48 -50 0
-48 -51 0
-48 -52 0
-48 -53 0
-48 -54 0
-48 -55 0
-48 -56 0
-49 -50 0
-49 -51 0
-49 -52 0
-49 -53 0
-49 -54 0
-49 -55 0
-49 -56 0
-50 -51 0
-50 -52 0
-50 -53 0
-50 -54 0
-50 -55 0
-50 -56 0
-51 -52 0
-51 -53 0
-51 -54 0
-51 -55 0
-51 -56 0
-52 -53 0
-52 -54 0
-52 -55 0
-52 -56 0
-53 -54 0
-53 -55 0
-53 -56 0
-54 -55 0
-54 -56 0
-55 -56 0
43 44 45 46 47 48 49 50 51 52 53 54 55 56 0
-57 -58 0
-57 -59 0
-57 -60 0
-57 -61 0
-57 -62 0
-57 -63 0
-57 -64 0
-57 -65 0
-57 -66 0
-57 -67 0
-57 -68 0
-57 -69 0
-57 -70 0
-58 -59 0
-58 -60 0
-58 -61 0
-58 -62 0
-58 -63 0
-58 -64 0
-58 -65 0
-58 -66 0
-58 -67 0
-58 -68 0
-58 -69 0
-58 -70 0
-59 -60 0
-59 -61 0
-59 -62 0
-59 -63 0
-59 -64 0
-59 -65 0
-59 -66 0
-59 -67 0
-59 -68 0
-59 -69 0
-59 -70 0
-60 -61 0
-60 -62 0
-60 -63 0
-60 -64 0
-60 -65 0
-60 -66 0
-60 -67 0
-60 -68 0
-60 -69 0
-60 -70 0
-61 -62 0
-61 -63 0
-61 -64 0
-61 -65 0
-61 -66 0
-61 -67 0
-61 -68 0
-61 -69 0
-61 -70 0
-62 -63 0
-62 -64 0
-62 -65 0
-62 -66 0
-62 -67 0
-62 -68 0
-62 -69 0
-62 -70 0
-63 -64 0
-63 -65 0
-63 -66 0
-63 -67 0
-63 -68 0
-63 -69 0
-63 -70 0
-64 -65 0
-64 -66 0
-64 -67 0
-64 -68 0
-64 -69 0
-64 -70 0
-65 -66 0
-65 -67 0
-65 -68 0
-65 -69 0
-65 -70 0
-66 -67 0
-66 -68 0
-66 -69 0
-66 -70 0
-67 -68 0
-67 -69 0
-67 -70 0
-68 -69 0
-68 -70 0
-69 -70 0
57 58 59 60 61 62 63 64 65 66 67 68 69 70 0
-71 -72 0
-71 -73 0
-71 -74 0
-71 -75 0
-71 -76 0
-71 -77 0
-71 -78 0
-71 -79 0
-71 -80 0
-71 -81 0
-71 -82 0
-71 -83 0
-71 -84 0
-72 -73 0
-72 -74 0
-72 -75 0
-72 -76 0
-72 -77 0
-72 -78 0
-72 -79 0
-72 -80 0
-72 -81 0
-72 -82 0
-72 -83 0
-72 -84 0
-73 -74 0
-73 -75 0
-73 -76 0
-73 -77 0
-73 -78 0
-73 -79 0
-73 -80 0
-73 -81 0
-73 -82 0
-73 -83 0
-73 -84 0
-74 -75 0
-74 -76 0
-74 -77 0
-74 -78 0
-74 -79 0
-74 -80 0
-74 -81 0
-74 -82 0
-74 -83 0
-74 -84 0
-75 -76 0
-75 -77 0
-75 -78 0
-75 -79 0
-75 -80 0
-75 -81 0
-75 -82 0
-75 -83 0
-75 -84 0
-76 -77 0
-76 -78 0
-76 -79 0
-76 -80 0
-76 -81 0
-76 -82 0
-76 -83 0
-76 -84 0
-77 -78 0
-77 -79 0
-77 -80 0
-77 -81 0
-77 -82 0
-77 -83 0
-77 -84 0
-78 -79 0
-78 -80 0
-78 -81 0
-78 -82 0
-78 -83 0
-78 -84 0
-79 -80 0
-79 -81 0
-79 -82 0
-79 -83 0
-79 -84 0
-80 -81 0
-80 -82 0
-80 -83 0
-80 -84 0
-81 -82 0
-81 -83 0
-81 -84 0
-82 -83 0
-82 -84 0
-83 -84 0
71 72 73 74 75 76 77 78 79 80 81 82 83 84 0
-85 -86 0
-85 -87 0
-85 -88 0
-85 -89 0
-85 -90 0
-85 -91 0
-85 -92 0
-85 -93 0
-85 -94 0
-85 -95 0
-85 -96 0
-85 -97 0
-85 -98 0
-86 -87 0
-86 -88 0
-86 -89 0
-86 -90 0
-86 -91 0
-86 -92 0
-86 -93 0
-86 -94 0
-86 -95 0
-86 -96 0
-86 -97 0
-86 -98 0
-87 -88 0
-87 -89 0
-87 -90 0
-87 -91 0
-87 -92 0
-87 -93 0
-87 -94 0
-87 -95 0
-87 -96 0
-87 -97 0
-87 -98 0
-88 -89 0
-88 -90 0
-88 -91 0
-88 -92 0
-88 -93 0
-88 -94 0
-88 -95 0
-88 -96 0
-88 -97 0
-88 -98 0
-89 -90 0
-89 -91 0
-89 -92 0
-89 -93 0
-89 -94 0
-89 -95 0
-89 -96 0
-89 -97 0
-89 -98 0
-90 -91 0
-90 -92 0
-90 -93 0
-90 -94 0
-90 -95 0
-90 -96 0
-90 -97 0
-90 -98 0
-91 -92 0
-91 -93 0
-91 -94 0
-91 -95 0
-91 -96 0
-91 -97 0
-91 -98 0
-92 -93 0
-92 -94 0
-92 -95 0
-92 -96 0
-92 -97 0
-92 -98 0
-93 -94 0
-93 -95 0
-93 -96 0
-93 -97 0
-93 -98 0
-94 -95 0
-94 -96 0
-94 -97 0
-94 -98 0
-95 -96 0
-95 -97 0
-95 -98 0
-96 -97 0
-96 -98 0
-97 -98 0
85 86 87 88 89 90 91 92 93 94 95 96 97 98 0
-99 -100 0
-99 -101 0
-99 -102 0
-99 -103 0
-99 -104 0
-99 -105 0
-99 -106 0
-99 -107 0
-99 -108 0
-99 -109 0
-99 -110 0
-99 -111 0
-99 -112 0
-100 -101 0
-100 -102 0
-100 -103 0
-100 -104 0
-100 -105 0
-100 -106 0
-100 -107 0
-100 -108 0
-100 -109 0
-100 -110 0
-100 -111 0
-100 -112 0
-101 -102 0
-101 -103 0
-101 -104 0
-101 -105 0
-101 -106 0
-101 -107 0
-101 -108 0
-101 -109 0
-101 -110 0
-101 -111 0
-101 -112 0
-102 -103 0
-102 -104 0
-102 -105 0
-102 -106 0
-102 -107 0
-102 -108 0
-102 -109 0
-102 -110 0
-102 -111 0
-102 -112 0
-103 -104 0
-103 -105 0
-103 -106 0
-103 -107 0
-103 -108 0
-103 -109 0
-103 -110 0
-103 -111 0
-103 -112 0
-104 -105 0
-104 -106 0
-104 -107 0
-104 -108 0
-104 -109 0
-104 -110 0
-104 -111 0
-104 -112 0
-105 -106 0
-105 -107 0
-105 -108 0
-105 -109 0
-105 -110 0
-105 -111 0
-105 -112 0
-106 -107 0
-106 -108 0
-106 -109 0
-106 -110 0
-106 -111 0
-106 -112 0
-107 -108 0
-107 -109 0
-107 -110 0
-107 -111 0
-107 -112 0
-108 -109 0
-108 -110 0
-108 -111 0
-108 -112 0
-109 -110 0
-109 -111 0
-109 -112 0
-110 -111 0
-110 -112 0
-111 -112 0
99 100 101 102 103 104 105 106 107 108 109 110 111 112 0
-113 -114 0
-113 -115 0
-113 -116 0
-113 -117 0
-113 -118 0
-113 -119 0
-113 -120 0
-113 -121 0
-113 -122 0
-113 -123 0
-113 -124 0
-113 -125 0
-113 -126 0
-114 -115 0
-114 -116 0
-114 -117 0
-114 -118 0
-114 -119 0
-114 -120 0
-114 -121 0
-114 -122 0
-114 -123 0
-114 -124 0
-114 -125 0
-114 -126 0
-115 -116 0
-115 -117 0
-115 -118 0
-115 -119 0
-115 -120 0
-115 -121 0
-115 -122 0
-115 -123 0
-115 -124 0
-115 -125 0
-115 -126 0
-116 -117 0
-116 -118 0
-116 -119 0
-116 -120 0
-116 -121 0
-116 -122 0
-116 -123 0
-116 -124 0
-116 -125 0
-116 -126 0
-117 -118 0
-117 -119 0
-117 -120 0
-117 -121 0
-117 -122 0
-117 -123 0
-117 -124 0
-117 -125 0
-117 -126 0
-118 -119 0
-118 -120 0
-118 -121 0
-118 -122 0
-118 -123 0
-118 -124 0
-118 -125 0
-118 -126 0
-119 -120 0
-119 -121 0
-119 -122 0
-119 -123 0
-119 -124 0
-119 -125 0
-119 -126 0
-120 -121 0
-120 -122 0
-120 -123 0
-120 -124 0
-120 -125 0
-120 -126 0
-121 -122 0
-121 -123 0
-121 -124 0
-121 -125 0
-121 -126 0
-122 -123 0
-122 -124 0
-122 -125 0
-122 -126 0
-123 -124 0
-123 -125 0
-123 -126 0
-124 -125 0
-124 -126 0
-125 -126 0
113 114 115 116 117 118 119 120 121 122 123 124 125 126 0
-127 -128 0
-127 -129 0
-127 -130 0
-127 -131 0
-127 -132 0
-127 -133 0
-127 -134 0
-127 -135 0
-127 -136 0
-127 -137 0
-127 -138 0
-127 -139 0
-127 -140 0
-128 -129 0
-128 -130 0
-128 -131 0
-128 -132 0
-128 -133 0
-128 -134 0
-128 -135 0
-128 -136 0
-128 -137 0
-128 -138 0
-128 -139 0
-128 -140 0
-129 -130 0
-129 -131 0
-129 -132 0
-129 -133 0
-129 -134 0
-129 -135 0
-129 -136 0
-129 -137 0
-129 -138 0
-129 -139 0
-129 -140 0
-130 -131 0
-130 -132 0
-130 -133 0
-130 -134 0
-130 -135 0
-130 -136 0
-130 -137 0
-130 -138 0
-130 -139 0
-130 -140 0
-131 -132 0
-131 -133 0
-131 -134 0
-131 -135 0
-131 -136 0
-131 -137 0
-131 -138 0
-131 -139 0
-131 -140 0
-132 -133 0
-132 -134 0
-132 -135 0
-132 -136 0
-132 -137 0
-132 -138 0
-132 -139 0
-132 -140 0
-133 -134 0
-133 -135 0
-133 -136 0
-133 -137 0
-133 -138 0
-133 -139 0
-133 -140 0
-134 -135 0
-134 -136 0
-134 -137 0
-134 -138 0
-134 -139 0
-134 -140 0
-135 -136 0
-135 -137 0
-135 -138 0
-135 -139 0
-135 -140 0
-136 -137 0
-136 -138 0
-136 -139 0
-136 -140 0
-137 -138 0
-137 -139 0
-137 -140 0
-138 -139 0
-138 -140 0
-139 -140 0
127 128 129 130 131 132 133 134 135 136 137 138 139 140 0
-141 -142 0
-141 -143 0
-141 -144 0
-141 -145 0
-141 -146 0
-141 -147 0
-141 -148 0
-141 -149 0
-141 -150 0
-141 -151 0
-141 -152 0
-141 -153 0
-141 -154 0
-142 -143 0
-142 -144 0
-142 -145 0
-142 -146 0
-142 -147 0
-142 -148 0
-142 -149 0
-142 -150 0
-142 -151 0
-142 -152 0
-142 -153 0
-142 -154 0
-143 -144 0
-143 -145 0
-143 -146 0
-143 -147 0
-143 -148 0
-143 -149 0
-143 -150 0
-143 -151 0
-143 -152 0
-143 -153 0
-143 -154 0
-144 -145 0
-144 -146 0
-144 -147 0
-144 -148 0
-144 -149 0
-144 -150 0
-144 -151 0
-144 -152 0
-144 -153 0
-144 -154 0
-145 -146 0
-145 -147 0
-145 -148 0
-145 -149 0
-145 -150 0
-145 -151 0
-145 -152 0
-145 -153 0
-145 -154 0
-146 -147 0
-146 -148 0
-146 -149 0
-146 -150 0
-146 -151 0
-146 -152 0
-146 -153 0
-146 -154 0
-147 -148 0
-147 -149 0
-147 -150 0
-147 -151 0
-147 -152 0
-147 -153 0
-147 -154 0
-148 -149 0
-148 -150 0
-148 -151 0
-148 -152 0
-148 -153 0
-148 -154 0
-149 -150 0
-149 -151 0
-149 -152 0
-149 -153 0
-149 -154 0
-150 -151 0
-150 -152 0
-150 -153 0
-150 -154 0
-151 -152 0
-151 -153 0
-151 -154 0
-152 -153 0
-152 -154 0
-153 -154 0
141 142 143 144 145 146 147 148 149 150 151 152 153 154 0
-155 -156 0
-155 -157 0
-155 -158 0
-155 -159 0
-155 -160 0
-155 -161 0
-155 -162 0
-155 -163 0
-155 -164 0
-155 -165 0
-155 -166 0
-155 -167 0
-155 -168 0
-156 -157 0
-156 -158 0
-156 -159 0
-156 -160 0
-156 -161 0
-156 -162 0
-156 -163 0
-156 -164 0
-156 -165 0
-156 -166 0
-156 -167 0
-156 -168 0
-157 -158 0
-157 -159 0
-157 -160 0
-157 -161 0
-157 -162 0
-157 -163 0
-157 -164 0
-157 -165 0
-157 -166 0
-157 -167 0
-157 -168 0
-158 -159 0
-158 -160 0
-158 -161 0
-158 -162 0
-158 -163 0
-158 -164 0
-158 -165 0
-158 -166 0
-158 -167 0
-158 -168 0
-159 -160 0
-159 -161 0
-159 -162 0
-159 -163 0
-159 -164 0
-159 -165 0
-159 -166 0
-159 -167 0
-159 -168 0
-160 -161 0
-160 -162 0
-160 -163 0
-160 -164 0
-160 -165 0
-160 -166 0
-160 -167 0
-160 -168 0
-161 -162 0
-161 -163 0
-161 -164 0
-161 -165 0
-161 -166 0
-161 -167 0
-161 -168 0
-162 -163 0
-162 -164 0
-162 -165 0
-162 -166 0
-162 -167 0
-162 -168 0
-163 -164 0
-163 -165 0
-163 -166 0
-163 -167 0
-163 -168 0
-164 -165 0
-164 -166 0
-164 -167 0
-164 -168 0
-165 -166 0
-165 -167 0
-165 -168 0
-166 -167 0
-166 -168 0
-167 -168 0
155 156 157 158 159 160 161 162 163 164 165 166 167 168 0
-169 -170 0
-169 -171 0
-169 -172 0
-169 -173 0
-169 -174 0
-169 -175 0
-169 -176 0
-169 -177 0
-169 -178 0
-169 -179 0
-169 -180 0
-169 -181 0
-169 -182 0
-170 -171 0
-170 -172 0
-170 -173 0
-170 -174 0
-170 -175 0
-170 -176 0
-170 -177 0
-170 -178 0
-170 -179 0
-170 -180 0
-170 -181 0
-170 -182 0
-171 -172 0
-171 -173 0
-171 -174 0
-171 -175 0
-171 -176 0
-171 -177 0
-171 -178 0
-171 -179 0
-171 -180 0
-171 -181 0
-171 -182 0
-172 -173 0
-172 -174 0
-172 -175 0
-172 -176 0
-172 -177 0
-172 -178 0
-172 -179 0
-172 -180 0
-172 -181 0
-172 -182 0
-173 -174 0
-173 -175 0
-173 -176 0
-173 -177 0
-173 -178 0
-173 -179 0
-173 -180 0
-173 -181 0
-173 -182 0
-174 -175 0
-174 -176 0
-174 -177 0
-174 -178 0
-174 -179 0
-174 -180 0
-174 -181 0
-174 -182 0
-175 -176 0
-175 -177 0
-175 -178 0
-175 -179 0
-175 -180 0
-175 -181 0
-175 -182 0
-176 -177 0
-176 -178 0
-176 -179 0
-176 -180 0
-176 -181 0
-176 -182 0
-177 -178 0
-177 -179 0
-177 -180 0
-177 -181 0
-177 -182 0
-178 -179 0
-178 -180 0
-178 -181 0
-178 -182 0
-179 -180 0
-179 -181 0
-179 -182 0
-180 -181 0
-180 -182 0
-181 -182 0
169 170 171 172 173 174 175 176 177 178 179 180 181 182 0
-183 -184 0
-183 -185 0
-183 -186 0
-183 -187 0
-183 -188 0
-183 -189 0
-183 -190 0
-183 -191 0
-183 -192 0
-183 -193 0
-183 -194 0
-183 -195 0
-183 -196 0
-184 -185 0
-184 -186 0
-184 -187 0
-184 -188 0
-184 -189 0
-184 -190 0
-184 -191 0
-184 -192 0
-184 -193 0
-184 -194 0
-184 -195 0
-184 -196 0
-185 -186 0
-185 -187 0
-185 -188 0
-185 -189 0
-185 -190 0
-185 -191 0
-185 -192 0
-185 -193 0
-185 -194 0
-185 -195 0
-185 -196 0
-186 -187 0
-186 -188 0
-186 -189 0
-186 -190 0
-186 -191 0
-186 -192 0
-186 -193 0
-186 -194 0
-186 -195 0
-186 -196 0
-187 -188 0
-187 -189 0
-187 -190 0
-187 -191 0
-187 -192 0
-187 -193 0
-187 -194 0
-187 -195 0
-187 -196 0
-188 -189 0
-188 -190 0
-188 -191 0
-188 -192 0
-188 -193 0
-188 -194 0
-188 -195 0
-188 -196 0
-189 -190 0
-189 -191 0
-189 -192 0
-189 -193 0
-189 -194 0
-189 -195 0
-189 -196 0
-190 -191 0
-190 -192 0
-190 -193 0
-190 -194 0
-190 -195 0
-190 -196 0
-191 -192 0
-191 -193 0
-191 -194 0
-191 -195 0
-191 -196 0
-192 -193 0
-192 -194 0
-192 -195 0
-192 -196 0
-193 -194 0
-193 -195 0
-193 -196 0
-194 -195 0
-194 -196 0
-195 -196 0
183 184 185 186 187 188 189 190 191 192 193 194 195 196 0
-197 -198 0
-197 -199 0
-197 -200 0
-197 -201 0
-197 -202 0
-197 -203 0
-197 -204 0
-197 -205 0
-197 -206 0
-197 -207 0
-197 -208 0
-197 -209 0
-197 -210 0
-198 -199 0
-198 -200 0
-198 -201 0
-198 -202 0
-198 -203 0
-198 -204 0
-198 -205 0
-198 -206 0
-198 -207 0
-198 -208 0
-198 -209 0
-198 -210 0
-199 -200 0
-199 -201 0
-199 -202 0
-199 -203 0
-199 -204 0
-199 -205 0
-199 -206 0
-199 -207 0
-199 -208 0
-199 -209 0
-199 -210 0
-200 -201 0
-200 -202 0
-200 -203 0
-200 -204 0
-200 -205 0
-200 -206 0
-200 -207 0
-200 -208 0
-200 -209 0
-200 -210 0
-201 -202 0
-201 -203 0
-201 -204 0
-201 -205 0
-201 -206 0
-201 -207 0
-201 -208 0
-201 -209 0
-201 -210 0
-202 -203 0
-202 -204 0
-202 -205 0
-202 -206 0
-202 -207 0
-202 -208 0
-202 -209 0
-202 -210 0
-203 -204 0
-203 -205 0
-203 -206 0
-203 -207 0
-203 -208 0
-203 -209 0
-203 -210 0
-204 -205 0
-204 -206 0
-204 -207 0
-204 -208 0
-204 -209 0
-204 -210 0
-205 -206 0
-205 -207 0
-205 -208 0
-205 -209 0
-205 -210 0
-206 -207 0
-206 -208 0
-206 -209 0
-206 -210 0
-207 -208 0
-207 -209 0
-207 -210 0
-208 -209 0
-208 -210 0
-209 -210 0
197 198 199 200 201 202 203 204 205 206 207 208 209 210 0
-211 -212 0
-211 -213 0
-211 -214 0
-211 -215 0
-211 -216 0
-211 -217 0
-211 -218 0
-211 -219 0
-211 -220 0
-211 -221 0
-211 -222 0
-211 -223 0
-211 -224 0
-211 -225 0
-212 -213 0
-212 -214 0
-212 -215 0
-212 -216 0
-212 -217 0
-212 -218 0
-212 -219 0
-212 -220 0
-212 -221 0
-212 -222 0
-212 -223 0
-212 -224 0
-212 -225 0
-213 -214 0
-213 -215 0
-213 -216 0
-213 -217 0
-213 -218 0
-213 -219 0
-213 -220 0
-213 -221 0
-213 -222 0
-213 -223 0
-213 -224 0
-213 -225 0
-214 -215 0
-214 -216 0
-214 -217 0
-214 -218 0
-214 -219 0
-214 -220 0
-214 -221 0
-214 -222 0
-214 -223 0
-214 -224 0
-214 -225 0
-215 -216 0
-215 -217 0
-215 -218 0
-215 -219 0
-215 -220 0
-215 -221 0
-215 -222 0
-215 -223 0
-215 -224 0
-215 -225 0
-216 -217 0
-216 -218 0
-216 -219 0
-216 -220 0
-216 -221 0
-216 -222 0
-216 -223 0
-216 -224 0
-216 -225 0
-217 -218 0
-217 -219 0
-217 -220 0
-217 -221 0
-217 -222 0
-217 -223 0
-217 -224 0
-217 -225 0
-218 -219 0
-218 -220 0
-218 -221 0
-218 -222 0
-218 -223 0
-218 -224 0
-218 -225 0
-219 -220 0
-219 -221 0
-219 -222 0
-219 -223 0
-219 -224 0
-219 -225 0
-220 -221 0
-220 -222 0
-220 -223 0
-220 -224 0
-220 -225 0
-221 -222 0
-221 -223 0
-221 -224 0
-221 -225 0
-222 -223 0
-222 -224 0
-222 -225 0
-223 -224 0
-223 -225 0
-224 -225 0
211 212 213 214 215 216 217 218 219 220 221 222 223 224 225 0
-226 -227 0
-226 -228 0
-226 -229 0
-226 -230 0
-226 -231 0
-226 -232 0
-226 -233 0
-226 -234 0
-226 -235 0
-226 -236 0
-226 -237 0
-226 -238 0
-226 -239 0
-226 -240 0
-227 -228 0
-227 -229 0
-227 -230 0
-227 -231 0
-227 -232 0
-227 -233 0
-227 -234 0
-227 -235 0
-227 -236 0
-227 -237 0
-227 -238 0
-227 -239 0
-227 -240 0
-228 -229 0
-228 -230 0
-228 -231 0
-228 -232 0
-228 -233 0
-228 -234 0
-228 -235 0
-228 -236 0
-228 -237 0
-228 -238 0
-228 -239 0
-228 -240 0
-229 -230 0
-229 -231 0
-229 -232 0
-229 -233 0
-229 -234 0
-229 -235 0
-229 -236 0
-229 -237 0
-229 -238 0
-229 -239 0
-229 -240 0
-230 -231 0
-230 -232 0
-230 -233 0
-230 -234 0
-230 -235 0
-230 -236 0
-230 -237 0
-230 -238 0
-230 -239 0
-230 -240 0
-231 -232 0
-231 -233 0
-231 -234 0
-231 -235 0
-231 -236 0
-231 -237 0
-231 -238 0
-231 -239 0
-231 -240 0
-232 -233 0
-232 -234 0
-232 -235 0
-232 -236 0
-232 -237 0
-232 -238 0
-232 -239 0
-232 -240 0
-233 -234 0
-233 -235 0
-233 -236 0
-233 -237 0
-233 -238 0
-233 -239 0
-233 -240 0
-234 -235 0
-234 -236 0
-234 -237 0
-234 -238 0
-234 -239 0
-234 -240 0
-235 -236 0
-235 -237 0
-235 -238 0
-235 -239 0
-235 -240 0
-236 -237 0
-236 -238 0
-236 -239 0
-236 -240 0
-237 -238 0
-237 -239 0
-237 -240 0
-238 -239 0
-238 -240 0
-239 -240 0
226 227 228 229 230 231 232 233 234 235 236 237 238 239 240 0
-241 -242 0
-241 -243 0
-241 -244 0
-241 -245 0
-241 -246 0
-241 -247 0
-241 -248 0
-241 -249 0
-241 -250 0
-241 -251 0
-241 -252 0
-241 -253 0
-241 -254 0
-241 -255 0
-242 -243 0
-242 -244 0
-242 -245 0
-242 -246 0
-242 -247 0
-242 -248 0
-242 -249 0
-242 -250 0
-242 -251 0
-242 -252 0
-242 -253 0
-242 -254 0
-242 -255 0
-243 -244 0
-243 -245 0
-243 -246 0
-243 -247 0
-243 -248 0
-243 -249 0
-243 -250 0
-243 -251 0
-243 -252 0
-243 -253 0
-243 -254 0
-243 -255 0
-244 -245 0
-244 -246 0
-244 -247 0
-244 -248 0
-244 -249 0
-244 -250 0
-244 -251 0
-244 -252 0
-244 -253 0
-244 -254 0
-244 -255 0
-245 -246 0
-245 -247 0
-245 -248 0
-245 -249 0
-245 -250 0
-245 -251 0
-245 -252 0
-245 -253 0
-245 -254 0
-245 -255 0
-246 -247 0
-246 -248 0
-246 -249 0
-246 -250 0
-246 -251 0
-246 -252 0
-246 -253 0
-246 -254 0
-246 -255 0
-247 -248 0
-247 -249 0
-247 -250 0
-247 -251 0
-247 -252 0
-247 -253 0
-247 -254 0
-247 -255 0
-248 -249 0
-248 -250 0
-248 -251 0
-248 -252 0
-248 -253 0
-248 -254 0
-248 -255 0
-249 -250 0
-249 -251 0
-249 -252 0
-249 -253 0
-249 -254 0
-249 -255 0
-250 -251 0
-250 -252 0
-250 -253 0
-250 -254 0
-250 -255 0
-251 -252 0
-251 -253 0
-251 -254 0
-251 -255 0
-252 -253 0
-252 -254 0
-252 -255 0
-253 -254 0
-253 -255 0
-254 -255 0
241 242 243 244 245 246 247 248 249 250 251 252 253 254 255 0
-256 -257 0
-256 -258 0
-256 -259 0
-256 -260 0
-256 -261 0
-256 -262 0
-256 -263 0
-256 -264 0
-256 -265 0
-256 -266 0
-256 -267 0
-256 -268 0
-256 -269 0
-256 -270 0
-257 -258 0
-257 -259 0
-257 -260 0
-257 -261 0
-257 -262 0
-257 -263 0
-257 -264 0
-257 -265 0
-257 -266 0
-257 -267 0
-257 -268 0
-257 -269 0
-257 -270 0
-258 -259 0
-258 -260 0
-258 -261 0
-258 -262 0
-258 -263 0
-258 -264 0
-258 -265 0
-258 -266 0
-258 -267 0
-258 -268 0
-258 -269 0
-258 -270 0
-259 -260 0
-259 -261 0
-259 -262 0
-259 -263 0
-259 -264 0
-259 -265 0
-259 -266 0
-259 -267 0
-259 -268 0
-259 -269 0
-259 -270 0
-260 -261 0
-260 -262 0
-260 -263 0
-260 -264 0
-260 -265 0
-260 -266 0
-260 -267 0
-260 -268 0
-260 -269 0
-260 -270 0
-261 -262 0
-261 -263 0
-261 -264 0
-261 -265 0
-261 -266 0
-261 -267 0
-261 -268 0
-261 -269 0
-261 -270 0
-262 -263 0
-262 -264 0
-262 -265 0
-262 -266 0
-262 -267 0
-262 -268 0
-262 -269 0
-262 -270 0
-263 -264 0
-263 -265 0
-263 -266 0
-263 -267 0
-263 -268 0
-263 -269 0
-263 -270 0
-264 -265 0
-264 -266 0
-264 -267 0
-264 -268 0
-264 -269 0
-264 -270 0
-265 -266 0
-265 -267 0
-265 -268 0
-265 -269 0
-265 -270 0
-266 -267 0
-266 -268 0
-266 -269 0
-266 -270 0
-267 -268 0
-267 -269 0
-267 -270 0
-268 -269 0
-268 -270 0
-269 -270 0
256 257 258 259 260 261 262 263 264 265 266 267 268 269 270 0
-271 -272 0
-271 -273 0
-271 -274 0
-271 -275 0
-271 -276 0
-271 -277 0
-271 -278 0
-271 -279 0
-271 -280 0
-271 -281 0
-271 -282 0
-271 -283 0
-271 -284 0
-271 -285 0
-272 -273 0
-272 -274 0
-272 -275 0
-272 -276 0
-272 -277 0
-272 -278 0
-272 -279 0
-272 -280 0
-272 -281 0
-272 -282 0
-272 -283 0
-272 -284 0
-272 -285 0
-273 -274 0
-273 -275 0
-273 -276 0
-273 -277 0
-273 -278 0
-273 -279 0
-273 -280 0
-273 -281 0
-273 -282 0
-273 -283 0
-273 -284 0
-273 -285 0
-274 -275 0
-274 -276 0
-274 -277 0
-274 -278 0
-274 -279 0
-274 -280 0
-274 -281 0
-274 -282 0
-274 -283 0
-274 -284 0
-274 -285 0
-275 -276 0
-275 -277 0
-275 -278 0
-275 -279 0
-275 -280 0
-275 -281 0
-275 -282 0
-275 -283 0
-275 -284 0
-275 -285 0
-276 -277 0
-276 -278 0
-276 -279 0
-276 -280 0
-276 -281 0
-276 -282 0
-276 -283 0
-276 -284 0
-276 -285 0
-277 -278 0
-277 -279 0
-277 -280 0
-277 -281 0
-277 -282 0
-277 -283 0
-277 -284 0
-277 -285 0
-278 -279 0
-278 -280 0
-278 -281 0
-278 -282 0
-278 -283 0
-278 -284 0
-278 -285 0
-279 -280 0
-279 -281 0
-279 -282 0
-279 -283 0
-279 -284 0
-279 -285 0
-280 -281 0
-280 -282 0
-280 -283 0
-280 -284 0
-280 -285 0
-281 -282 0
-281 -283 0
-281 -284 0
-281 -285 0
-282 -283 0
-282 -284 0
-282 -285 0
-283 -284 0
-283 -285 0
-284 -285 0
271 272 273 274 275 276 277 278 279 280 281 282 283 284 285 0
-286 -287 0
-286 -288 0
-286 -289 0
-286 -290 0
-286 -291 0
-286 -292 0
-286 -293 0
-286 -294 0
-286 -295 0
-286 -296 0
-286 -297 0
-286 -298 0
-286 -299 0
-286 -300 0
-287 -288 0
-287 -289 0
-287 -290 0
-287 -291 0
-287 -292 0
-287 -293 0
-287 -294 0
-287 -295 0
-287 -296 0
-287 -297 0
-287 -298 0
-287 -299 0
-287 -300 0
-288 -289 0
-288 -290 0
-288 -291 0
-288 -292 0
-288 -293 0
-288 -294 0
-288 -295 0
-288 -296 0
-288 -297 0
-288 -298 0
-288 -299 0
-288 -300 0
-289 -290 0
-289 -291 0
-289 -292 0
-289 -293 0
-289 -294 0
-289 -295 0
-289 -296 0
-289 -297 0
-289 -298 0
-289 -299 0
-289 -300 0
-290 -291 0
-290 -292 0
-290 -293 0
-290 -294 0
-290 -295 0
-290 -296 0
-290 -297 0
-290 -298 0
-290 -299 0
-290 -300 0
-291 -292 0
-291 -293 0
-291 -294 0
-291 -295 0
-291 -296 0
-291 -297 0
-291 -298 0
-291 -299 0
-291 -300 0
-292 -293 0
-292 -294 0
-292 -295 0
-292 -296 0
-292 -297 0
-292 -298 0
-292 -299 0
-292 -300 0
-293 -294 0
-293 -295 0
-293 -296 0
-293 -297 0
-293 -298 0
-293 -299 0
-293 -300 0
-294 -295 0
-294 -296 0
-294 -297 0
-294 -298 0
-294 -299 0
-294 -300 0
-295 -296 0
-295 -297 0
-295 -298 0
-295 -299 0
-295 -300 0
-296 -297 0
-296 -298 0
-296 -299 0
-296 -300 0
-297 -298 0
-297 -299 0
-297 -300 0
-298 -299 0
-298 -300 0
-299 -300 0
286 287 288 289 290 291 292 293 294 295 296 297 298 299 300 0
-301 -302 0
-301 -303 0
-301 -304 0
-301 -305 0
-301 -306 0
-301 -307 0
-301 -308 0
-301 -309 0
-301 -310 0
-301 -311 0
-301 -312 0
-301 -313 0
-301 -314 0
-301 -315 0
-302 -303 0
-302 -304 0
-302 -305 0
-302 -306 0
-302 -307 0
-302 -308 0
-302 -309 0
-302 -310 0
-302 -311 0
-302 -312 0
-302 -313 0
-302 -314 0
-302 -315 0
-303 -304 0
-303 -305 0
-303 -306 0
-303 -307 0
-303 -308 0
-303 -309 0
-303 -310 0
-303 -311 0
-303 -312 0
-303 -313 0
-303 -314 0
-303 -315 0
-304 -305 0
-304 -306 0
-304 -307 0
-304 -308 0
-304 -309 0
-304 -310 0
-304 -311 0
-304 -312 0
-304 -313 0
-304 -314 0
-304 -315 0
-305 -306 0
-305 -307 0
-305 -308 0
-305 -309 0
-305 -310 0
-305 -311 0
-305 -312 0
-305 -313 0
-305 -314 0
-305 -315 0
-306 -307 0
-306 -308 0
-306 -309 0
-306 -310 0
-306 -311 0
-306 -312 0
-306 -313 0
-306 -314 0
-306 -315 0
-307 -308 0
-307 -309 0
-307 -310 0
-307 -311 0
-307 -312 0
-307 -313 0
-307 -314 0
-307 -315 0
-308 -309 0
-308 -310 0
-308 -311 0
-308 -312 0
-308 -313 0
-308 -314 0
-308 -315 0
-309 -310 0
-309 -311 0
-309 -312 0
-309 -313 0
-309 -314 0
-309 -315 0
-310 -311 0
-310 -312 0
-310 -313 0
-310 -314 0
-310 -315 0
-311 -312 0
-311 -313 0
-311 -314 0
-311 -315 0
-312 -313 0
-312 -314 0
-312 -315 0
-313 -314 0
-313 -315 0
-314 -315 0
301 302 303 304 305 306 307 308 309 310 311 312 313 314 315 0
-316 -317 0
-316 -318 0
-316 -319 0
-316 -320 0
-316 -321 0
-316 -322 0
-316 -323 0
-316 -324 0
-316 -325 0
-316 -326 0
-316 -327 0
-316 -328 0
-316 -329 0
-316 -330 0
-317 -318 0
-317 -319 0
-317 -320 0
-317 -321 0
-317 -322 0
-317 -323 0
-317 -324 0
-317 -325 0
-317 -326 0
-317 -327 0
-317 -328 0
-317 -329 0
-317 -330 0
-318 -319 0
-318 -320 0
-318 -321 0
-318 -322 0
-318 -323 0
-318 -324 0
-318 -325 0
-318 -326 0
-318 -327 0
-318 -328 0
-318 -329 0
-318 -330 0
-319 -320 0
-319 -321 0
-319 -322 0
-319 -323 0
-319 -324 0
-319 -325 0
-319 -326 0
-319 -327 0
-319 -328 0
-319 -329 0
-319 -330 0
-320 -321 0
-320 -322 0
-320 -323 0
-320 -324 0
-320 -325 0
-320 -326 0
-320 -327 0
-320 -328 0
-320 -329 0
-320 -330 0
-321 -322 0
-321 -323 0
-321 -324 0
-321 -325 0
-321 -326 0
-321 -327 0
-321 -328 0
-321 -329 0
-321 -330 0
-322 -323 0
-322 -324 0
-322 -325 0
-322 -326 0
-322 -327 0
-322 -328 0
-322 -329 0
-322 -330 0
-323 -324 0
-323 -325 0
-323 -326 0
-323 -327 0
-323 -328 0
-323 -329 0
-323 -330 0
-324 -325 0
-324 -326 0
-324 -327 0
-324 -328 0
-324 -329 0
-324 -330 0
-325 -326 0
-325 -327 0
-325 -328 0
-325 -329 0
-325 -330 0
-326 -327 0
-326 -328 0
-326 -329 0
-326 -330 0
-327 -328 0
-327 -329 0
-327 -330 0
-328 -329 0
-328 -330 0
-329 -330 0
316 317 318 319 320 321 322 323 324 325 326 327 328 329 330 0
-331 -332 0
-331 -333 0
-331 -334 0
-331 -335 0
-331 -336 0
-331 -337 0
-331 -338 0
-331 -339 0
-331 -340 0
-331 -341 0
-331 -342 0
-331 -343 0
-331 -344 0
-331 -345 0
-332 -333 0
-332 -334 0
-332 -335 0
-332 -336 0
-332 -337 0
-332 -338 0
-332 -339 0
-332 -340 0
-332 -341 0
-332 -342 0
-332 -343 0
-332 -344 0
-332 -345 0
-333 -334 0
-333 -335 0
-333 -336 0
-333 -337 0
-333 -338 0
-333 -339 0
-333 -340 0
-333 -341 0
-333 -342 0
-333 -343 0
-333 -344 0
-333 -345 0
-334 -335 0
-334 -336 0
-334 -337 0
-334 -338 0
-334 -339 0
-334 -340 0
-334 -341 0
-334 -342 0
-334 -343 0
-334 -344 0
-334 -345 0
-335 -336 0
-335 -337 0
-335 -338 0
-335 -339 0
-335 -340 0
-335 -341 0
-335 -342 0
-335 -343 0
-335 -344 0
-335 -345 0
-336 -337 0
-336 -338 0
-336 -339 0
-336 -340 0
-336 -341 0
-336 -342 0
-336 -343 0
-336 -344 0
-336 -345 0
-337 -338 0
-337 -339 0
-337 -340 0
-337 -341 0
-337 -342 0
-337 -343 0
-337 -344 0
-337 -345 0
-338 -339 0
-338 -340 0
-338 -341 0
-338 -342 0
-338 -343 0
-338 -344 0
-338 -345 0
-339 -340 0
-339 -341 0
-339 -342 0
-339 -343 0
-339 -344 0
-339 -345 0
-340 -341 0
-340 -342 0
-340 -343 0
-340 -344 0
-340 -345 0
-341 -342 0
-341 -343 0
-341 -344 0
-341 -345 0
-342 -343 0
-342 -344 0
-342 -345 0
-343 -344 0
-343 -345 0
-344 -345 0
331 332 333 334 335 336 337 338 339 340 341 342 343 344 345 0
-346 -347 0
-346 -348 0
-346 -349 0
-346 -350 0
-346 -351 0
-346 -352 0
-346 -353 0
-346 -354 0
-346 -355 0
-346 -356 0
-346 -357 0
-346 -358 0
-346 -359 0
-346 -360 0
-347 -348 0
-347 -349 0
-347 -350 0
-347 -351 0
-347 -352 0
-347 -353 0
-347 -354 0
-347 -355 0
-347 -356 0
-347 -357 0
-347 -358 0
-347 -359 0
-347 -360 0
-348 -349 0
-348 -350 0
-348 -351 0
-348 -352 0
-348 -353 0
-348 -354 0
-348 -355 0
-348 -356 0
-348 -357 0
-348 -358 0
-348 -359 0
-348 -360 0
-349 -350 0
-349 -351 0
-349 -352 0
-349 -353 0
-349 -354 0
-349 -355 0
-349 -356 0
-349 -357 0
-349 -358 0
-349 -359 0
-349 -360 0
-350 -351 0
-350 -352 0
-350 -353 0
-350 -354 0
-350 -355 0
-350 -356 0
-350 -357 0
-350 -358 0
-350 -359 0
-350 -360 0
-351 -352 0
-351 -353 0
-351 -354 0
-351 -355 0
-351 -356 0
-351 -357 0
-351 -358 0
-351 -359 0
-351 -360 0
-352 -353 0
-352 -354 0
-352 -355 0
-352 -356 0
-352 -357 0
-352 -358 0
-352 -359 0
-352 -360 0
-353 -354 0
-353 -355 0
-353 -356 0
-353 -357 0
-353 -358 0
-353 -359 0
-353 -360 0
-354 -355 0
-354 -356 0
-354 -357 0
-354 -358 0
-354 -359 0
-354 -360 0
-355 -356 0
-355 -357 0
-355 -358 0
-355 -359 0
-355 -360 0
-356 -357 0
-356 -358 0
-356 -359 0
-356 -360 0
-357 -358 0
-357 -359 0
-357 -360 0
-358 -359 0
-358 -360 0
-359 -360 0
346 347 348 349 350 351 352 353 354 355 356 357 358 359 360 0
-361 -362 0
-361 -363 0
-361 -364 0
-361 -365 0
-361 -366 0
-361 -367 0
-361 -368 0
-361 -369 0
-361 -370 0
-361 -371 0
-361 -372 0
-361 -373 0
-361 -374 0
-361 -375 0
-362 -363 0
-362 -364 0
-362 -365 0
-362 -366 0
-362 -367 0
-362 -368 0
-362 -369 0
-362 -370 0
-362 -371 0
-362 -372 0
-362 -373 0
-362 -374 0
-362 -375 0
-363 -364 0
-363 -365 0
-363 -366 0
-363 -367 0
-363 -368 0
-363 -369 0
-363 -370 0
-363 -371 0
-363 -372 0
-363 -373 0
-363 -374 0
-363 -375 0
-364 -365 0
-364 -366 0
-364 -367 0
-364 -368 0
-364 -369 0
-364 -370 0
-364 -371 0
-364 -372 0
-364 -373 0
-364 -374 0
-364 -375 0
-365 -366 0
-365 -367 0
-365 -368 0
-365 -369 0
-365 -370 0
-365 -371 0
-365 -372 0
-365 -373 0
-365 -374 0
-365 -375 0
-366 -367 0
-366 -368 0
-366 -369 0
-366 -370 0
-366 -371 0
-366 -372 0
-366 -373 0
-366 -374 0
-366 -375 0
-367 -368 0
-367 -369 0
-367 -370 0
-367 -371 0
-367 -372 0
-367 -373 0
-367 -374 0
-367 -375 0
-368 -369 0
-368 -370 0
-368 -371 0
-368 -372 0
-368 -373 0
-368 -374 0
-368 -375 0
-369 -370 0
-369 -371 0
-369 -372 0
-369 -373 0
-369 -374 0
-369 -375 0
-370 -371 0
-370 -372 0
-370 -373 0
-370 -374 0
-370 -375 0
-371 -372 0
-371 -373 0
-371 -374 0
-371 -375 0
-372 -373 0
-372 -374 0
-372 -375 0
-373 -374 0
-373 -375 0
-374 -375 0
361 362 363 364 365 366 367 368 369 370 371 372 373 374 375 0
-376 -377 0
-376 -378 0
-376 -379 0
-376 -380 0
-376 -381 0
-376 -382 0
-376 -383 0
-376 -384 0
-376 -385 0
-376 -386 0
-376 -387 0
-376 -388 0
-376 -389 0
-376 -390 0
-377 -378 0
-377 -379 0
-377 -380 0
-377 -381 0
-377 -382 0
-377 -383 0
-377 -384 0
-377 -385 0
-377 -386 0
-377 -387 0
-377 -388 0
-377 -389 0
-377 -390 0
-378 -379 0
-378 -380 0
-378 -381 0
-378 -382 0
-378 -383 0
-378 -384 0
-378 -385 0
-378 -386 0
-378 -387 0
-378 -388 0
-378 -389 0
-378 -390 0
-379 -380 0
-379 -381 0
-379 -382 0
-379 -383 0
-379 -384 0
-379 -385 0
-379 -386 0
-379 -387 0
-379 -388 0
-379 -389 0
-379 -390 0
-380 -381 0
-380 -382 0
-380 -383 0
-380 -384 0
-380 -385 0
-380 -386 0
-380 -387 0
-380 -388 0
-380 -389 0
-380 -390 0
-381 -382 0
-381 -383 0
-381 -384 0
-381 -385 0
-381 -386 0
-381 -387 0
-381 -388 0
-381 -389 0
-381 -390 0
-382 -383 0
-382 -384 0
-382 -385 0
-382 -386 0
-382 -387 0
-382 -388 0
-382 -389 0
-382 -390 0
-383 -384 0
-383 -385 0
-383 -386 0
-383 -387 0
-383 -388 0
-383 -389 0
-383 -390 0
-384 -385 0
-384 -386 0
-384 -387 0
-384 -388 0
-384 -389 0
-384 -390 0
-385 -386 0
-385 -387 0
-385 -388 0
-385 -389 0
-385 -390 0
-386 -387 0
-386 -388 0
-386 -389 0
-386 -390 0
-387 -388 0
-387 -389 0
-387 -390 0
-388 -389 0
-388 -390 0
-389 -390 0
376 377 378 379 380 381 382 383 384 385 386 387 388 389 390 0
-391 -392 0
-391 -393 0
-391 -394 0
-391 -395 0
-391 -396 0
-391 -397 0
-391 -398 0
-391 -399 0
-391 -400 0
-391 -401 0
-391 -402 0
-391 -403 0
-391 -404 0
-391 -405 0
-392 -393 0
-392 -394 0
-392 -395 0
-392 -396 0
-392 -397 0
-392 -398 0
-392 -399 0
-392 -400 0
-392 -401 0
-392 -402 0
-392 -403 0
-392 -404 0
-392 -405 0
-393 -394 0
-393 -395 0
-393 -396 0
-393 -397 0
-393 -398 0
-393 -399 0
-393 -400 0
-393 -401 0
-393 -402 0
-393 -403 0
-393 -404 0
-393 -405 0
-394 -395 0
-394 -396 0
-394 -397 0
-394 -398 0
-394 -399 0
-394 -400 0
-394 -401 0
-394 -402 0
-394 -403 0
-394 -404 0
-394 -405 0
-395 -396 0
-395 -397 0
-395 -398 0
-395 -399 0
-395 -400 0
-395 -401 0
-395 -402 0
-395 -403 0
-395 -404 0
-395 -405 0
-396 -397 0
-396 -398 0
-396 -399 0
-396 -400 0
-396 -401 0
-396 -402 0
-396 -403 0
-396 -404 0
-396 -405 0
-397 -398 0
-397 -399 0
-397 -400 0
-397 -401 0
-397 -402 0
-397 -403 0
-397 -404 0
-397 -405 0
-398 -399 0
-398 -400 0
-398 -401 0
-398 -402 0
-398 -403 0
-398 -404 0
-398 -405 0
-399 -400 0
-399 -401 0
-399 -402 0
-399 -403 0
-399 -404 0
-399 -405 0
-400 -401 0
-400 -402 0
-400 -403 0
-400 -404 0
-400 -405 0
-401 -402 0
-401 -403 0
-401 -404 0
-401 -405 0
-402 -403 0
-402 -404 0
-402 -405 0
-403 -404 0
-403 -405 0
-404 -405 0
391 392 393 394 395 396 397 398 399 400 401 402 403 404 405 0
-406 -407 0
-406 -408 0
-406 -409 0
-406 -410 0
-406 -411 0
-406 -412 0
-406 -413 0
-406 -414 0
-406 -415 0
-406 -416 0
-406 -417 0
-406 -418 0
-406 -419 0
-406 -420 0
-407 -408 0
-407 -409 0
-407 -410 0
-407 -411 0
-407 -412 0
-407 -413 0
-407 -414 0
-407 -415 0
-407 -416 0
-407 -417 0
-407 -418 0
-407 -419 0
-407 -420 0
-408 -409 0
-408 -410 0
-408 -411 0
-408 -412 0
-408 -413 0
-408 -414 0
-408 -415 0
-408 -416 0
-408 -417 0
-408 -418 0
-408 -419 0
-408 -420 0
-409 -410 0
-409 -411 0
-409 -412 0
-409 -413 0
-409 -414 0
-409 -415 0
-409 -416 0
-409 -417 0
-409 -418 0
-409 -419 0
-409 -420 0
-410 -411 0
-410 -412 0
-410 -413 0
-410 -414 0
-410 -415 0
-410 -416 0
-410 -417 0
-410 -418 0
-410 -419 0
-410 -420 0
-411 -412 0
-411 -413 0
-411 -414 0
-411 -415 0
-411 -416 0
-411 -417 0
-411 -418 0
-411 -419 0
-411 -420 0
-412 -413 0
-412 -414 0
-412 -415 0
-412 -416 0
-412 -417 0
-412 -418 0
-412 -419 0
-412 -420 0
-413 -414 0
-413 -415 0
-413 -416 0
-413 -417 0
-413 -418 0
-413 -419 0
-413 -420 0
-414 -415 0
-414 -416 0
-414 -417 0
-414 -418 0
-414 -419 0
-414 -420 0
-415 -416 0
-415 -417 0
-415 -418 0
-415 -419 0
-415 -420 0
-416 -417 0
-416 -418 0
-416 -419 0
-416 -420 0
-417 -418 0
-417 -419 0
-417 -420 0
-418 -419 0
-418 -420 0
-419 -420 0
406 407 408 409 410 411 412 413 414 415 416 417 418 419 420 0
-1 -15 0
-1 -29 0
-1 -43 0
-1 -57 0
-1 -71 0
-1 -85 0
-1 -99 0
-1 -113 0
-1 -127 0
-1 -141 0
-1 -155 0
-1 -169 0
-1 -183 0
-1 -197 0
-15 -29 0
-15 -43 0
-15 -57 0
-15 -71 0
-15 -85 0
-15 -99 0
-15 -113 0
-15 -127 0
-15 -141 0
-15 -155 0
-15 -169 0
-15 -183 0
-15 -197 0
-29 -43 0
-29 -57 0
-29 -71 0
-29 -85 0
-29 -99 0
-29 -113 0
-29 -127 0
-29 -141 0
-29 -155 0
-29 -169 0
-29 -183 0
-29 -197 0
-43 -57 0
-43 -71 0
-43 -85 0
-43 -99 0
-43 -113 0
-43 -127 0
-43 -141 0
-43 -155 0
-43 -169 0
-43 -183 0
-43 -197 0
-57 -71 0
-57 -85 0
-57 -99 0
-57 -113 0
-57 -127 0
-57 -141 0
-57 -155 0
-57 -169 0
-57 -183 0
-57 -197 0
-71 -85 0
-71 -99 0
-71 -113 0
-71 -127 0
-71 -141 0
-71 -155 0
-71 -169 0
-71 -183 0
-71 -197 0
-85 -99 0
-85 -113 0
-85 -127 0
-85 -141 0
-85 -155 0
-85 -169 0
-85 -183 0
-85 -197 0
-99 -113 0
-99 -127 0
-99 -141 0
-99 -155 0
-99 -169 0
-99 -183 0
-99 -197 0
-113 -127 0
-113 -141 0
-113 -155 0
-113 -169 0
-113 -183 0
-113 -197 0
-127 -141 0
-127 -155 0
-127 -169 0
-127 -183 0
-127 -197 0
-141 -155 0
-141 -169 0
-141 -183 0
-141 -197 0
-155 -169 0
-155 -183 0
-155 -197 0
-169 -183 0
-169 -197 0
-183 -197 0
-2 -16 0
-2 -30 0
-2 -44 0
-2 -58 0
-2 -72 0
-2 -86 0
-2 -100 0
-2 -114 0
-2 -128 0
-2 -142 0
-2 -156 0
-2 -170 0
-2 -184 0
-2 -198 0
-16 -30 0
-16 -44 0
-16 -58 0
-16 -72 0
-16 -86 0
-16 -100 0
-16 -114 0
-16 -128 0
-16 -142 0
-16 -156 0
-16 -170 0
-16 -184 0
-16 -198 0
-30 -44 0
-30 -58 0
-30 -72 0
-30 -86 0
-30 -100 0
-30 -114 0
-30 -128 0
-30 -142 0
-30 -156 0
-30 -170 0
-30 -184 0
-30 -198 0
-44 -58 0
-44 -72 0
-44 -86 0
-44 -100 0
-44 -114 0
-44 -128 0
-44 -142 0
-44 -156 0
-44 -170 0
-44 -184 0
-44 -198 0
-58 -72 0
-58 -86 0
-58 -100 0
-58 -114 0
-58 -128 0
-58 -142 0
-58 -156 0
-58 -170 0
-58 -184 0
-58 -198 0
-72 -86 0
-72 -100 0
-72 -114 0
-72 -128 0
-72 -142 0
-72 -156 0
-72 -170 0
-72 -184 0
-72 -198 0
-86 -100 0
-86 -114 0
-86 -128 0
-86 -142 0
-86 -156 0
-86 -170 0
-86 -184 0
-86 -198 0
-100 -114 0
-100 -128 0
-100 -142 0
-100 -156 0
-100 -170 0
-100 -184 0
-100 -198 0
-114 -128 0
-114 -142 0
-114 -156 0
-114 -170 0
-114 -184 0
-114 -198 0
-128 -142 0
-128 -156 0
-128 -170 0
-128 -184 0
-128 -198 0
-142 -156 0
-142 -170 0
-142 -184 0
-142 -198 0
-156 -170 0
-156 -184 0
-156 -198 0
-170 -184 0
-170 -198 0
-184 -198 0
-3 -17 0
-3 -31 0
-3 -45 0
-3 -59 0
-3 -73 0
-3 -87 0
-3 -101 0
-3 -115 0
-3 -129 0
-3 -143 0
-3 -157 0
-3 -171 0
-3 -185 0
-3 -199 0
-17 -31 0
-17 -45 0
-17 -59 0
-17 -73 0
-17 -87 0
-17 -101 0
-17 -115 0
-17 -129 0
-17 -143 0
-17 -157 0
-17 -171 0
-17 -185 0
-17 -199 0
-31 -45 0
-31 -59 0
-31 -73 0
-31 -87 0
-31 -101 0
-31 -115 0
-31 -129 0
-31 -143 0
-31 -157 0
-31 -171 0
-31 -185 0
-31 -199 0
-45 -59 0
-45 -73 0
-45 -87 0
-45 -101 0
-45 -115 0
-45 -129 0
-45 -143 0
-45 -157 0
-45 -171 0
-45 -185 0
-45 -199 0
-59 -73 0
-59 -87 0
-59 -101 0
-59 -115 0
-59 -129 0
-59 -143 0
-59 -157 0
-59 -171 0
-59 -185 0
-59 -199 0
-73 -87 0
-73 -101 0
-73 -115 0
-73 -129 0
-73 -143 0
-73 -157 0
-73 -171 0
-73 -185 0
-73 -199 0
-87 -101 0
-87 -115 0
-87 -129 0
-87 -143 0
-87 -157 0
-87 -171 0
-87 -185 0
-87 -199 0
-101 -115 0
-101 -129 0
-101 -143 0
-101 -157 0
-101 -171 0
-101 -185 0
-101 -199 0
-115 -129 0
-115 -143 0
-115 -157 0
-115 -171 0
-115 -185 0
-115 -199 0
-129 -143 0
-129 -157 0
-129 -171 0
-129 -185 0
-129 -199 0
-143 -157 0
-143 -171 0
-143 -185 0
-143 -199 0
-157 -171 0
-157 -185 0
-157 -199 0
-171 -185 0
-171 -199 0
-185 -199 0
-4 -18 0
-4 -32 0
-4 -46 0
-4 -60 0
-4 -74 0
-4 -88 0
-4 -102 0
-4 -116 0
-4 -130 0
-4 -144 0
-4 -158 0
-4 -172 0
-4 -186 0
-4 -200 0
-18 -32 0
-18 -46 0
-18 -60 0
-18 -74 0
-18 -88 0
-18 -102 0
-18 -116 0
-18 -130 0
-18 -144 0
-18 -158 0
-18 -172 0
-18 -186 0
-18 -200 0
-32 -46 0
-32 -60 0
-32 -74 0
-32 -88 0
-32 -102 0
-32 -116 0
-32 -130 0
-32 -144 0
-32 -158 0
-32 -172 0
-32 -186 0
-32 -200 0
-46 -60 0
-46 -74 0
-46 -88 0
-46 -102 0
-46 -116 0
-46 -130 0
-46 -144 0
-46 -158 0
-46 -172 0
-46 -186 0
-46 -200 0
-60 -74 0
-60 -88 0
-60 -102 0
-60 -116 0
-60 -130 0
-60 -144 0
-60 -158 0
-60 -172 0
-60 -186 0
-60 -200 0
-74 -88 0
-74 -102 0
-74 -116 0
-74 -130 0
-74 -144 0
-74 -158 0
-74 -172 0
-74 -186 0
-74 -200 0
-88 -102 0
-88 -116 0
-88 -130 0
-88 -144 0
-88 -158 0
-88 -172 0
-88 -186 0
-88 -200 0
-102 -116 0
-102 -130 0
-102 -144 0
-102 -158 0
-102 -172 0
-102 -186 0
-102 -200 0
-116 -130 0
-116 -144 0
-116 -158 0
-116 -172 0
-116 -186 0
-116 -200 0
-130 -144 0
-130 -158 0
-130 -172 0
-130 -186 0
-130 -200 0
-144 -158 0
-144 -172 0
-144 -186 0
-144 -200 0
-158 -172 0
-158 -186 0
-158 -200 0
-172 -186 0
-172 -200 0
-186 -200 0
-5 -19 0
-5 -33 0
-5 -47 0
-5 -61 0
-5 -75 0
-5 -89 0
-5 -103 0
-5 -117 0
-5 -131 0
-5 -145 0
-5 -159 0
-5 -173 0
-5 -187 0
-5 -201 0
-19 -33 0
-19 -47 0
-19 -61 0
-19 -75 0
-19 -89 0
-19 -103 0
-19 -117 0
-19 -131 0
-19 -145 0
-19 -159 0
-19 -173 0
-19 -187 0
-19 -201 0
-33 -47 0
-33 -61 0
-33 -75 0
-33 -89 0
-33 -103 0
-33 -117 0
-33 -131 0
-33 -145 0
-33 -159 0
-33 -173 0
-33 -187 0
-33 -201 0
-47 -61 0
-47 -75 0
-47 -89 0
-47 -103 0
-47 -117 0
-47 -131 0
-47 -145 0
-47 -159 0
-47 -173 0
-47 -187 0
-47 -201 0
-61 -75 0
-61 -89 0
-61 -103 0
-61 -117 0
-61 -131 0
-61 -145 0
-61 -159 0
-61 -173 0
-61 -187 0
-61 -201 0
-75 -89 0
-75 -103 0
-75 -117 0
-75 -131 0
-75 -145 0
-75 -159 0
-75 -173 0
-75 -187 0
-75 -201 0
-89 -103 0
-89 -117 0
-89 -131 0
-89 -145 0
-89 -159 0
-89 -173 0
-89 -187 0
-89 -201 0
-103 -117 0
-103 -131 0
-103 -145 0
-103 -159 0
-103 -173 0
-103 -187 0
-103 -201 0
-117 -131 0
-117 -145 0
-117 -159 0
-117 -173 0
-117 -187 0
-117 -201 0
-131 -145 0
-131 -159 0
-131 -173 0
-131 -187 0
-131 -201 0
-145 -159 0
-145 -173 0
-145 -187 0
-145 -201 0
-159 -173 0
-159 -187 0
-159 -201 0
-173 -187 0
-173 -201 0
-187 -201 0
-6 -20 0
-6 -34 0
-6 -48 0
-6 -62 0
-6 -76 0
-6 -90 0
-6 -104 0
-6 -118 0
-6 -132 0
-6 -146 0
-6 -160 0
-6 -174 0
-6 -188 0
-6 -202 0
-20 -34 0
-20 -48 0
-20 -62 0
-20 -76 0
-20 -90 0
-20 -104 0
-20 -118 0
-20 -132 0
-20 -146 0
-20 -160 0
-20 -174 0
-20 -188 0
-20 -202 0
-34 -48 0
-34 -62 0
-34 -76 0
-34 -90 0
-34 -104 0
-34 -118 0
-34 -132 0
-34 -146 0
-34 -160 0
-34 -174 0
-34 -188 0
-34 -202 0
-48 -62 0
-48 -76 0
-48 -90 0
-48 -104 0
-48 -118 0
-48 -132 0
-48 -146 0
-48 -160 0
-48 -174 0
-48 -188 0
-48 -202 0
-62 -76 0
-62 -90 0
-62 -104 0
-62 -118 0
-62 -132 0
-62 -146 0
-62 -160 0
-62 -174 0
-62 -188 0
-62 -202 0
-76 -90 0
-76 -104 0
-76 -118 0
-76 -132 0
-76 -146 0
-76 -160 0
-76 -174 0
-76 -188 0
-76 -202 0
-90 -104 0
-90 -118 0
-90 -132 0
-90 -146 0
-90 -160 0
-90 -174 0
-90 -188 0
-90 -202 0
-104 -118 0
-104 -132 0
-104 -146 0
-104 -160 0
-104 -174 0
-104 -188 0
-104 -202 0
-118 -132 0
-118 -146 0
-118 -160 0
-118 -174 0
-118 -188 0
-118 -202 0
-132 -146 0
-132 -160 0
-132 -174 0
-132 -188 0
-132 -202 0
-146 -160 0
-146 -174 0
-146 -188 0
-146 -202 0
-160 -174 0
-160 -188 0
-160 -202 0
-174 -188 0
-174 -202 0
-188 -202 0
-7 -21 0
-7 -35 0
-7 -49 0
-7 -63 0
-7 -77 0
-7 -91 0
-7 -105 0
-7 -119 0
-7 -133 0
-7 -147 0
-7 -161 0
-7 -175 0
-7 -189 0
-7 -203 0
-21 -35 0
-21 -49 0
-21 -63 0
-21 -77 0
-21 -91 0
-21 -105 0
-21 -119 0
-21 -133 0
-21 -147 0
-21 -161 0
-21 -175 0
-21 -189 0
-21 -203 0
-35 -49 0
-35 -63 0
-35 -77 0
-35 -91 0
-35 -105 0
-35 -119 0
-35 -133 0
-35 -147 0
-35 -161 0
-35 -175 0
-35 -189 0
-35 -203 0
-49 -63 0
-49 -77 0
-49 -91 0
-49 -105 0
-49 -119 0
-49 -133 0
-49 -147 0
-49 -161 0
-49 -175 0
-49 -189 0
-49 -203 0
-63 -77 0
-63 -91 0
-63 -105 0
-63 -119 0
-63 -133 0
-63 -147 0
-63 -161 0
-63 -175 0
-63 -189 0
-63 -203 0
-77 -91 0
-77 -105 0
-77 -119 0
-77 -133 0
-77 -147 0
-77 -161 0
-77 -175 0
-77 -189 0
-77 -203 0
-91 -105 0
-91 -119 0
-91 -133 0
-91 -147 0
-91 -161 0
-91 -175 0
-91 -189 0
-91 -203 0
-105 -119 0
-105 -133 0
-105 -147 0
-105 -161 0
-105 -175 0
-105 -189 0
-105 -203 0
-119 -133 0
-119 -147 0
-119 -161 0
-119 -175 0
-119 -189 0
-119 -203 0
-133 -147 0
-133 -161 0
-133 -175 0
-133 -189 0
-133 -203 0
-147 -161 0
-147 -175 0
-147 -189 0
-147 -203 0
-161 -175 0
-161 -189 0
-161 -203 0
-175 -189 0
-175 -203 0
-189 -203 0
-8 -22 0
-8 -36 0
-8 -50 0
-8 -64 0
-8 -78 0
-8 -92 0
-8 -106 0
-8 -120 0
-8 -134 0
-8 -148 0
-8 -162 0
-8 -176 0
-8 -190 0
-8 -204 0
-22 -36 0
-22 -50 0
-22 -64 0
-22 -78 0
-22 -92 0
-22 -106 0
-22 -120 0
-22 -134 0
-22 -148 0
-22 -162 0
-22 -176 0
-22 -190 0
-22 -204 0
-36 -50 0
-36 -64 0
-36 -78 0
-36 -92 0
-36 -106 0
-36 -120 0
-36 -134 0
-36 -148 0
-36 -162 0
-36 -176 0
-36 -190 0
-36 -204 0
-50 -64 0
-50 -78 0
-50 -92 0
-50 -106 0
-50 -120 0
-50 -134 0
-50 -148 0
-50 -162 0
-50 -176 0
-50 -190 0
-50 -204 0
-64 -78 0
-64 -92 0
-64 -106 0
-64 -120 0
-64 -134 0
-64 -148 0
-64 -162 0
-64 -176 0
-64 -190 0
-64 -204 0
-78 -92 0
-78 -106 0
-78 -120 0
-78 -134 0
-78 -148 0
-78 -162 0
-78 -176 0
-78 -190 0
-78 -204 0
-92 -106 0
-92 -120 0
-92 -134 0
-92 -148 0
-92 -162 0
-92 -176 0
-92 -190 0
-92 -204 0
-106 -120 0
-106 -134 0
-106 -148 0
-106 -162 0
-106 -176 0
-106 -190 0
-106 -204 0
-120 -134 0
-120 -148 0
-120 -162 0
-120 -176 0
-120 -190 0
-120 -204 0
-134 -148 0
-134 -162 0
-134 -176 0
-134 -190 0
-134 -204 0
-148 -162 0
-148 -176 0
-148 -190 0
-148 -204 0
-162 -176 0
-162 -190 0
-162 -204 0
-176 -190 0
-176 -204 0
-190 -204 0
-9 -23 0
-9 -37 0
-9 -51 0
-9 -65 0
-9 -79 0
-9 -93 0
-9 -107 0
-9 -121 0
-9 -135 0
-9 -149 0
-9 -163 0
-9 -177 0
-9 -191 0
-9 -205 0
-23 -37 0
-23 -51 0
-23 -65 0
-23 -79 0
-23 -93 0
-23 -107 0
-23 -121 0
-23 -135 0
-23 -149 0
-23 -163 0
-23 -177 0
-23 -191 0
-23 -205 0
-37 -51 0
-37 -65 0
-37 -79 0
-37 -93 0
-37 -107 0
-37 -121 0
-37 -135 0
-37 -149 0
-37 -163 0
-37 -177 0
-37 -191 0
-37 -205 0
-51 -65 0
-51 -79 0
-51 -93 0
-51 -107 0
-51 -121 0
-51 -135 0
-51 -149 0
-51 -163 0
-51 -177 0
-51 -191 0
-51 -205 0
-65 -79 0
-65 -93 0
-65 -107 0
-65 -121 0
-65 -135 0
-65 -149 0
-65 -163 0
-65 -177 0
-65 -191 0
-65 -205 0
-79 -93 0
-79 -107 0
-79 -121 0
-79 -135 0
-79 -149 0
-79 -163 0
-79 -177 0
-79 -191 0
-79 -205 0
-93 -107 0
-93 -121 0
-93 -135 0
-93 -149 0
-93 -163 0
-93 -177 0
-93 -191 0
-93 -205 0
-107 -121 0
-107 -135 0
-107 -149 0
-107 -163 0
-107 -177 0
-107 -191 0
-107 -205 0
-121 -135 0
-121 -149 0
-121 -163 0
-121 -177 0
-121 -191 0
-121 -205 0
-135 -149 0
-135 -163 0
-135 -177 0
-135 -191 0
-135 -205 0
-149 -163 0
-149 -177 0
-149 -191 0
-149 -205 0
-163 -177 0
-163 -191 0
-163 -205 0
-177 -191 0
-177 -205 0
-191 -205 0
-10 -24 0
-10 -38 0
-10 -52 0
-10 -66 0
-10 -80 0
-10 -94 0
-10 -108 0
-10 -122 0
-10 -136 0
-10 -150 0
-10 -164 0
-10 -178 0
-10 -192 0
-10 -206 0
-24 -38 0
-24 -52 0
-24 -66 0
-24 -80 0
-24 -94 0
-24 -108 0
-24 -122 0
-24 -136 0
-24 -150 0
-24 -164 0
-24 -178 0
-24 -192 0
-24 -206 0
-38 -52 0
-38 -66 0
-38 -80 0
-38 -94 0
-38 -108 0
-38 -122 0
-38 -136 0
-38 -150 0
-38 -164 0
-38 -178 0
-38 -192 0
-38 -206 0
-52 -66 0
-52 -80 0
-52 -94 0
-52 -108 0
-52 -122 0
-52 -136 0
-52 -150 0
-52 -164 0
-52 -178 0
-52 -192 0
-52 -206 0
-66 -80 0
-66 -94 0
-66 -108 0
-66 -122 0
-66 -136 0
-66 -150 0
-66 -164 0
-66 -178 0
-66 -192 0
-66 -206 0
-80 -94 0
-80 -108 0
-80 -122 0
-80 -136 0
-80 -150 0
-80 -164 0
-80 -178 0
-80 -192 0
-80 -206 0
-94 -108 0
-94 -122 0
-94 -136 0
-94 -150 0
-94 -164 0
-94 -178 0
-94 -192 0
-94 -206 0
-108 -122 0
-108 -136 0
-108 -150 0
-108 -164 0
-108 -178 0
-108 -192 0
-108 -206 0
-122 -136 0
-122 -150 0
-122 -164 0
-122 -178 0
-122 -192 0
-122 -206 0
-136 -150 0
-136 -164 0
-136 -178 0
-136 -192 0
-136 -206 0
-150 -164 0
-150 -178 0
-150 -192 0
-150 -206 0
-164 -178 0
-164 -192 0
-164 -206 0
-178 -192 0
-178 -206 0
-192 -206 0
-11 -25 0
-11 -39 0
-11 -53 0
-11 -67 0
-11 -81 0
-11 -95 0
-11 -109 0
-11 -123 0
-11 -137 0
-11 -151 0
-11 -165 0
-11 -179 0
-11 -193 0
-11 -207 0
-25 -39 0
-25 -53 0
-25 -67 0
-25 -81 0
-25 -95 0
-25 -109 0
-25 -123 0
-25 -137 0
-25 -151 0
-25 -165 0
-25 -179 0
-25 -193 0
-25 -207 0
-39 -53 0
-39 -67 0
-39 -81 0
-39 -95 0
-39 -109 0
-39 -123 0
-39 -137 0
-39 -151 0
-39 -165 0
-39 -179 0
-39 -193 0
-39 -207 0
-53 -67 0
-53 -81 0
-53 -95 0
-53 -109 0
-53 -123 0
-53 -137 0
-53 -151 0
-53 -165 0
-53 -179 0
-53 -193 0
-53 -207 0
-67 -81 0
-67 -95 0
-67 -109 0
-67 -123 0
-67 -137 0
-67 -151 0
-67 -165 0
-67 -179 0
-67 -193 0
-67 -207 0
-81 -95 0
-81 -109 0
-81 -123 0
-81 -137 0
-81 -151 0
-81 -165 0
-81 -179 0
-81 -193 0
-81 -207 0
-95 -109 0
-95 -123 0
-95 -137 0
-95 -151 0
-95 -165 0
-95 -179 0
-95 -193 0
-95 -207 0
-109 -123 0
-109 -137 0
-109 -151 0
-109 -165 0
-109 -179 0
-109 -193 0
-109 -207 0
-123 -137 0
-123 -151 0
-123 -165 0
-123 -179 0
-123 -193 0
-123 -207 0
-137 -151 0
-137 -165 0
-137 -179 0
-137 -193 0
-137 -207 0
-151 -165 0
-151 -179 0
-151 -193 0
-151 -207 0
-165 -179 0
-165 -193 0
-165 -207 0
-179 -193 0
-179 -207 0
-193 -207 0
-12 -26 0
-12 -40 0
-12 -54 0
-12 -68 0
-12 -82 0
-12 -96 0
-12 -110 0
-12 -124 0
-12 -138 0
-12 -152 0
-12 -166 0
-12 -180 0
-12 -194 0
-12 -208 0
-26 -40 0
-26 -54 0
-26 -68 0
-26 -82 0
-26 -96 0
-26 -110 0
-26 -124 0
-26 -138 0
-26 -152 0
-26 -166 0
-26 -180 0
-26 -194 0
-26 -208 0
-40 -54 0
-40 -68 0
-40 -82 0
-40 -96 0
-40 -110 0
-40 -124 0
-40 -138 0
-40 -152 0
-40 -166 0
-40 -180 0
-40 -194 0
-40 -208 0
-54 -68 0
-54 -82 0
-54 -96 0
-54 -110 0
-54 -124 0
-54 -138 0
-54 -152 0
-54 -166 0
-54 -180 0
-54 -194 0
-54 -208 0
-68 -82 0
-68 -96 0
-68 -110 0
-68 -124 0
-68 -138 0
-68 -152 0
-68 -166 0
-68 -180 0
-68 -194 0
-68 -208 0
-82 -96 0
-82 -110 0
-82 -124 0
-82 -138 0
-82 -152 0
-82 -166 0
-82 -180 0
-82 -194 0
-82 -208 0
-96 -110 0
-96 -124 0
-96 -138 0
-96 -152 0
-96 -166 0
-96 -180 0
-96 -194 0
-96 -208 0
-110 -124 0
-110 -138 0
-110 -152 0
-110 -166 0
-110 -180 0
-110 -194 0
-110 -208 0
-124 -138 0
-124 -152 0
-124 -166 0
-124 -180 0
-124 -194 0
-124 -208 0
-138 -152 0
-138 -166 0
-138 -180 0
-138 -194 0
-138 -208 0
-152 -166 0
-152 -180 0
-152 -194 0
-152 -208 0
-166 -180 0
-166 -194 0
-166 -208 0
-180 -194 0
-180 -208 0
-194 -208 0
-13 -27 0
-13 -41 0
-13 -55 0
-13 -69 0
-13 -83 0
-13 -97 0
-13 -111 0
-13 -125 0
-13 -139 0
-13 -153 0
-13 -167 0
-13 -181 0
-13 -195 0
-13 -209 0
-27 -41 0
-27 -55 0
-27 -69 0
-27 -83 0
-27 -97 0
-27 -111 0
-27 -125 0
-27 -139 0
-27 -153 0
-27 -167 0
-27 -181 0
-27 -195 0
-27 -209 0
-41 -55 0
-41 -69 0
-41 -83 0
-41 -97 0
-41 -111 0
-41 -125 0
-41 -139 0
-41 -153 0
-41 -167 0
-41 -181 0
-41 -195 0
-41 -209 0
-55 -69 0
-55 -83 0
-55 -97 0
-55 -111 0
-55 -125 0
-55 -139 0
-55 -153 0
-55 -167 0
-55 -181 0
-55 -195 0
-55 -209 0
-69 -83 0
-69 -97 0
-69 -111 0
-69 -125 0
-69 -139 0
-69 -153 0
-69 -167 0
-69 -181 0
-69 -195 0
-69 -209 0
-83 -97 0
-83 -111 0
-83 -125 0
-83 -139 0
-83 -153 0
-83 -167 0
-83 -181 0
-83 -195 0
-83 -209 0
-97 -111 0
-97 -125 0
-97 -139 0
-97 -153 0
-97 -167 0
-97 -181 0
-97 -195 0
-97 -209 0
-111 -125 0
-111 -139 0
-111 -153 0
-111 -167 0
-111 -181 0
-111 -195 0
-111 -209 0
-125 -139 0
-125 -153 0
-125 -167 0
-125 -181 0
-125 -195 0
-125 -209 0
-139 -153 0
-139 -167 0
-139 -181 0
-139 -195 0
-139 -209 0
-153 -167 0
-153 -181 0
-153 -195 0
-153 -209 0
-167 -181 0
-167 -195 0
-167 -209 0
-181 -195 0
-181 -209 0
-195 -209 0
-14 -28 0
-14 -42 0
-14 -56 0
-14 -70 0
-14 -84 0
-14 -98 0
-14 -112 0
-14 -126 0
-14 -140 0
-14 -154 0
-14 -168 0
-14 -182 0
-14 -196 0
-14 -210 0
-28 -42 0
-28 -56 0
-28 -70 0
-28 -84 0
-28 -98 0
-28 -112 0
-28 -126 0
-28 -140 0
-28 -154 0
-28 -168 0
-28 -182 0
-28 -196 0
-28 -210 0
-42 -56 0
-42 -70 0
-42 -84 0
-42 -98 0
-42 -112 0
-42 -126 0
-42 -140 0
-42 -154 0
-42 -168 0
-42 -182 0
-42 -196 0
-42 -210 0
-56 -70 0
-56 -84 0
-56 -98 0
-56 -112 0
-56 -126 0
-56 -140 0
-56 -154 0
-56 -168 0
-56 -182 0
-56 -196 0
-56 -210 0
-70 -84 0
-70 -98 0
-70 -112 0
-70 -126 0
-70 -140 0
-70 -154 0
-70 -168 0
-70 -182 0
-70 -196 0
-70 -210 0
-84 -98 0
-84 -112 0
-84 -126 0
-84 -140 0
-84 -154 0
-84 -168 0
-84 -182 0
-84 -196 0
-84 -210 0
-98 -112 0
-98 -126 0
-98 -140 0
-98 -154 0
-98 -168 0
-98 -182 0
-98 -196 0
-98 -210 0
-112 -126 0
-112 -140 0
-112 -154 0
-112 -168 0
-112 -182 0
-112 -196 0
-112 -210 0
-126 -140 0
-126 -154 0
-126 -168 0
-126 -182 0
-126 -196 0
-126 -210 0
-140 -154 0
-140 -168 0
-140 -182 0
-140 -196 0
-140 -210 0
-154 -168 0
-154 -182 0
-154 -196 0
-154 -210 0
-168 -182 0
-168 -196 0
-168 -210 0
-182 -196 0
-182 -210 0
-196 -210 0
-211 -226 0
-211 -241 0
-211 -256 0
-211 -271 0
-211 -286 0
-211 -301 0
-211 -316 0
-211 -331 0
-211 -346 0
-211 -361 0
-211 -376 0
-211 -391 0
-211 -406 0
-226 -241 0
-226 -256 0
-226 -271 0
-226 -286 0
-226 -301 0
-226 -316 0
-226 -331 0
-226 -346 0
-226 -361 0
-226 -376 0
-226 -391 0
-226 -406 0
-241 -256 0
-241 -271 0
-241 -286 0
-241 -301 0
-241 -316 0
-241 -331 0
-241 -346 0
-241 -361 0
-241 -376 0
-241 -391 0
-241 -406 0
-256 -271 0
-256 -286 0
-256 -301 0
-256 -316 0
-256 -331 0
-256 -346 0
-256 -361 0
-256 -376 0
-256 -391 0
-256 -406 0
-271 -286 0
-271 -301 0
-271 -316 0
-271 -331 0
-271 -346 0
-271 -361 0
-271 -376 0
-271 -391 0
-271 -406 0
-286 -301 0
-286 -316 0
-286 -331 0
-286 -346 0
-286 -361 0
-286 -376 0
-286 -391 0
-286 -406 0
-301 -316 0
-301 -331 0
-301 -346 0
-301 -361 0
-301 -376 0
-301 -391 0
-301 -406 0
-316 -331 0
-316 -346 0
-316 -361 0
-316 -376 0
-316 -391 0
-316 -406 0
-331 -346 0
-331 -361 0
-331 -376 0
-331 -391 0
-331 -406 0
-346 -361 0
-346 -376 0
-346 -391 0
-346 -406 0
-361 -376 0
-361 -391 0
-361 -406 0
-376 -391 0
-376 -406 0
-391 -406 0
-212 -227 0
-212 -242 0
-212 -257 0
-212 -272 0
-212 -287 0
-212 -302 0
-212 -317 0
-212 -332 0
-212 -347 0
-212 -362 0
-212 -377 0
-212 -392 0
-212 -407 0
-227 -242 0
-227 -257 0
-227 -272 0
-227 -287 0
-227 -302 0
-227 -317 0
-227 -332 0
-227 -347 0
-227 -362 0
-227 -377 0
-227 -392 0
-227 -407 0
-242 -257 0
-242 -272 0
-242 -287 0
-242 -302 0
-242 -317 0
-242 -332 0
-242 -347 0
-242 -362 0
-242 -377 0
-242 -392 0
-242 -407 0
-257 -272 0
-257 -287 0
-257 -302 0
-257 -317 0
-257 -332 0
-257 -347 0
-257 -362 0
-257 -377 0
-257 -392 0
-257 -407 0
-272 -287 0
-272 -302 0
-272 -317 0
-272 -332 0
-272 -347 0
-272 -362 0
-272 -377 0
-272 -392 0
-272 -407 0
-287 -302 0
-287 -317 0
-287 -332 0
-287 -347 0
-287 -362 0
-287 -377 0
-287 -392 0
-287 -407 0
-302 -317 0
-302 -332 0
-302 -347 0
-302 -362 0
-302 -377 0
-302 -392 0
-302 -407 0
-317 -332 0
-317 -347 0
-317 -362 0
-317 -377 0
-317 -392 0
-317 -407 0
-332 -347 0
-332 -362 0
-332 -377 0
-332 -392 0
-332 -407 0
-347 -362 0
-347 -377 0
-347 -392 0
-347 -407 0
-362 -377 0
-362 -392 0
-362 -407 0
-377 -392 0
-377 -407 0
-392 -407 0
-213 -228 0
-213 -243 0
-213 -258 0
-213 -273 0
-213 -288 0
-213 -303 0
-213 -318 0
-213 -333 0
-213 -348 0
-213 -363 0
-213 -378 0
-213 -393 0
-213 -408 0
-228 -243 0
-228 -258 0
-228 -273 0
-228 -288 0
-228 -303 0
-228 -318 0
-228 -333 0
-228 -348 0
-228 -363 0
-228 -378 0
-228 -393 0
-228 -408 0
-243 -258 0
-243 -273 0
-243 -288 0
-243 -303 0
-243 -318 0
-243 -333 0
-243 -348 0
-243 -363 0
-243 -378 0
-243 -393 0
-243 -408 0
-258 -273 0
-258 -288 0
-258 -303 0
-258 -318 0
-258 -333 0
-258 -348 0
-258 -363 0
-258 -378 0
-258 -393 0
-258 -408 0
-273 -288 0
-273 -303 0
-273 -318 0
-273 -333 0
-273 -348 0
-273 -363 0
-273 -378 0
-273 -393 0
-273 -408 0
-288 -303 0
-288 -318 0
-288 -333 0
-288 -348 0
-288 -363 0
-288 -378 0
-288 -393 0
-288 -408 0
-303 -318 0
-303 -333 0
-303 -348 0
-303 -363 0
-303 -378 0
-303 -393 0
-303 -408 0
-318 -333 0
-318 -348 0
-318 -363 0
-318 -378 0
-318 -393 0
-318 -408 0
-333 -348 0
-333 -363 0
-333 -378 0
-333 -393 0
-333 -408 0
-348 -363 0
-348 -378 0
-348 -393 0
-348 -408 0
-363 -378 0
-363 -393 0
-363 -408 0
-378 -393 0
-378 -408 0
-393 -408 0
-214 -229 0
-214 -244 0
-214 -259 0
-214 -274 0
-214 -289 0
-214 -304 0
-214 -319 0
-214 -334 0
-214 -349 0
-214 -364 0
-214 -379 0
-214 -394 0
-214 -409 0
-229 -244 0
-229 -259 0
-229 -274 0
-229 -289 0
-229 -304 0
-229 -319 0
-229 -334 0
-229 -349 0
-229 -364 0
-229 -379 0
-229 -394 0
-229 -409 0
-244 -259 0
-244 -274 0
-244 -289 0
-244 -304 0
-244 -319 0
-244 -334 0
-244 -349 0
-244 -364 0
-244 -379 0
-244 -394 0
-244 -409 0
-259 -274 0
-259 -289 0
-259 -304 0
-259 -319 0
-259 -334 0
-259 -349 0
-259 -364 0
-259 -379 0
-259 -394 0
-259 -409 0
-274 -289 0
-274 -304 0
-274 -319 0
-274 -334 0
-274 -349 0
-274 -364 0
-274 -379 0
-274 -394 0
-274 -409 0
-289 -304 0
-289 -319 0
-289 -334 0
-289 -349 0
-289 -364 0
-289 -379 0
-289 -394 0
-289 -409 0
-304 -319 0
-304 -334 0
-304 -349 0
-304 -364 0
-304 -379 0
-304 -394 0
-304 -409 0
-319 -334 0
-319 -349 0
-319 -364 0
-319 -379 0
-319 -394 0
-319 -409 0
-334 -349 0
-334 -364 0
-334 -379 0
-334 -394 0
-334 -409 0
-349 -364 0
-349 -379 0
-349 -394 0
-349 -409 0
-364 -379 0
-364 -394 0
-364 -409 0
-379 -394 0
-379 -409 0
-394 -409 0
-215 -230 0
-215 -245 0
-215 -260 0
-215 -275 0
-215 -290 0
-215 -305 0
-215 -320 0
-215 -335 0
-215 -350 0
-215 -365 0
-215 -380 0
-215 -395 0
-215 -410 0
-230 -245 0
-230 -260 0
-230 -275 0
-230 -290 0
-230 -305 0
-230 -320 0
-230 -335 0
-230 -350 0
-230 -365 0
-230 -380 0
-230 -395 0
-230 -410 0
-245 -260 0
-245 -275 0
-245 -290 0
-245 -305 0
-245 -320 0
-245 -335 0
-245 -350 0
-245 -365 0
-245 -380 0
-245 -395 0
-245 -410 0
-260 -275 0
-260 -290 0
-260 -305 0
-260 -320 0
-260 -335 0
-260 -350 0
-260 -365 0
-260 -380 0
-260 -395 0
-260 -410 0
-275 -290 0
-275 -305 0
-275 -320 0
-275 -335 0
-275 -350 0
-275 -365 0
-275 -380 0
-275 -395 0
-275 -410 0
-290 -305 0
-290 -320 0
-290 -335 0
-290 -350 0
-290 -365 0
-290 -380 0
-290 -395 0
-290 -410 0
-305 -320 0
-305 -335 0
-305 -350 0
-305 -365 0
-305 -380 0
-305 -395 0
-305 -410 0
-320 -335 0
-320 -350 0
-320 -365 0
-320 -380 0
-320 -395 0
-320 -410 0
-335 -350 0
-335 -365 0
-335 -380 0
-335 -395 0
-335 -410 0
-350 -365 0
-350 -380 0
-350 -395 0
-350 -410 0
-365 -380 0
-365 -395 0
-365 -410 0
-380 -395 0
-380 -410 0
-395 -410 0
-216 -231 0
-216 -246 0
-216 -261 0
-216 -276 0
-216 -291 0
-216 -306 0
-216 -321 0
-216 -336 0
-216 -351 0
-216 -366 0
-216 -381 0
-216 -396 0
-216 -411 0
-231 -246 0
-231 -261 0
-231 -276 0
-231 -291 0
-231 -306 0
-231 -321 0
-231 -336 0
-231 -351 0
-231 -366 0
-231 -381 0
-231 -396 0
-231 -411 0
-246 -261 0
-246 -276 0
-246 -291 0
-246 -306 0
-246 -321 0
-246 -336 0
-246 -351 0
-246 -366 0
-246 -381 0
-246 -396 0
-246 -411 0
-261 -276 0
-261 -291 0
-261 -306 0
-261 -321 0
-261 -336 0
-261 -351 0
-261 -366 0
-261 -381 0
-261 -396 0
-261 -411 0
-276 -291 0
-276 -306 0
-276 -321 0
-276 -336 0
-276 -351 0
-276 -366 0
-276 -381 0
-276 -396 0
-276 -411 0
-291 -306 0
-291 -321 0
-291 -336 0
-291 -351 0
-291 -366 0
-291 -381 0
-291 -396 0
-291 -411 0
-306 -321 0
-306 -336 0
-306 -351 0
-306 -366 0
-306 -381 0
-306 -396 0
-306 -411 0
-321 -336 0
-321 -351 0
-321 -366 0
-321 -381 0
-321 -396 0
-321 -411 0
-336 -351 0
-336 -366 0
-336 -381 0
-336 -396 0
-336 -411 0
-351 -366 0
-351 -381 0
-351 -396 0
-351 -411 0
-366 -381 0
-366 -396 0
-366 -411 0
-381 -396 0
-381 -411 0
-396 -411 0
-217 -232 0
-217 -247 0
-217 -262 0
-217 -277 0
-217 -292 0
-217 -307 0
-217 -322 0
-217 -337 0
-217 -352 0
-217 -367 0
-217 -382 0
-217 -397 0
-217 -412 0
-232 -247 0
-232 -262 0
-232 -277 0
-232 -292 0
-232 -307 0
-232 -322 0
-232 -337 0
-232 -352 0
-232 -367 0
-232 -382 0
-232 -397 0
-232 -412 0
-247 -262 0
-247 -277 0
-247 -292 0
-247 -307 0
-247 -322 0
-247 -337 0
-247 -352 0
-247 -367 0
-247 -382 0
-247 -397 0
-247 -412 0
-262 -277 0
-262 -292 0
-262 -307 0
-262 -322 0
-262 -337 0
-262 -352 0
-262 -367 0
-262 -382 0
-262 -397 0
-262 -412 0
-277 -292 0
-277 -307 0
-277 -322 0
-277 -337 0
-277 -352 0
-277 -367 0
-277 -382 0
-277 -397 0
-277 -412 0
-292 -307 0
-292 -322 0
-292 -337 0
-292 -352 0
-292 -367 0
-292 -382 0
-292 -397 0
-292 -412 0
-307 -322 0
-307 -337 0
-307 -352 0
-307 -367 0
-307 -382 0
-307 -397 0
-307 -412 0
-322 -337 0
-322 -352 0
-322 -367 0
-322 -382 0
-322 -397 0
-322 -412 0
-337 -352 0
-337 -367 0
-337 -382 0
-337 -397 0
-337 -412 0
-352 -367 0
-352 -382 0
-352 -397 0
-352 -412 0
-367 -382 0
-367 -397 0
-367 -412 0
-382 -397 0
-382 -412 0
-397 -412 0
-218 -233 0
-218 -248 0
-218 -263 0
-218 -278 0
-218 -293 0
-218 -308 0
-218 -323 0
-218 -338 0
-218 -353 0
-218 -368 0
-218 -383 0
-218 -398 0
-218 -413 0
-233 -248 0
-233 -263 0
-233 -278 0
-233 -293 0
-233 -308 0
-233 -323 0
-233 -338 0
-233 -353 0
-233 -368 0
-233 -383 0
-233 -398 0
-233 -413 0
-248 -263 0
-248 -278 0
-248 -293 0
-248 -308 0
-248 -323 0
-248 -338 0
-248 -353 0
-248 -368 0
-248 -383 0
-248 -398 0
-248 -413 0
-263 -278 0
-263 -293 0
-263 -308 0
-263 -323 0
-263 -338 0
-263 -353 0
-263 -368 0
-263 -383 0
-263 -398 0
-263 -413 0
-278 -293 0
-278 -308 0
-278 -323 0
-278 -338 0
-278 -353 0
-278 -368 0
-278 -383 0
-278 -398 0
-278 -413 0
-293 -308 0
-293 -323 0
-293 -338 0
-293 -353 0
-293 -368 0
-293 -383 0
-293 -398 0
-293 -413 0
-308 -323 0
-308 -338 0
-308 -353 0
-308 -368 0
-308 -383 0
-308 -398 0
-308 -413 0
-323 -338 0
-323 -353 0
-323 -368 0
-323 -383 0
-323 -398 0
-323 -413 0
-338 -353 0
-338 -368 0
-338 -383 0
-338 -398 0
-338 -413 0
-353 -368 0
-353 -383 0
-353 -398 0
-353 -413 0
-368 -383 0
-368 -398 0
-368 -413 0
-383 -398 0
-383 -413 0
-398 -413 0
-219 -234 0
-219 -249 0
-219 -264 0
-219 -279 0
-219 -294 0
-219 -309 0
-219 -324 0
-219 -339 0
-219 -354 0
-219 -369 0
-219 -384 0
-219 -399 0
-219 -414 0
-234 -249 0
-234 -264 0
-234 -279 0
-234 -294 0
-234 -309 0
-234 -324 0
-234 -339 0
-234 -354 0
-234 -369 0
-234 -384 0
-234 -399 0
-234 -414 0
-249 -264 0
-249 -279 0
-249 -294 0
-249 -309 0
-249 -324 0
-249 -339 0
-249 -354 0
-249 -369 0
-249 -384 0
-249 -399 0
-249 -414 0
-264 -279 0
-264 -294 0
-264 -309 0
-264 -324 0
-264 -339 0
-264 -354 0
-264 -369 0
-264 -384 0
-264 -399 0
-264 -414 0
-279 -294 0
-279 -309 0
-279 -324 0
-279 -339 0
-279 -354 0
-279 -369 0
-279 -384 0
-279 -399 0
-279 -414 0
-294 -309 0
-294 -324 0
-294 -339 0
-294 -354 0
-294 -369 0
-294 -384 0
-294 -399 0
-294 -414 0
-309 -324 0
-309 -339 0
-309 -354 0
-309 -369 0
-309 -384 0
-309 -399 0
-309 -414 0
-324 -339 0
-324 -354 0
-324 -369 0
-324 -384 0
-324 -399 0
-324 -414 0
-339 -354 0
-339 -369 0
-339 -384 0
-339 -399 0
-339 -414 0
-354 -369 0
-354 -384 0
-354 -399 0
-354 -414 0
-369 -384 0
-369 -399 0
-369 -414 0
-384 -399 0
-384 -414 0
-399 -414 0
-220 -235 0
-220 -250 0
-220 -265 0
-220 -280 0
-220 -295 0
-220 -310 0
-220 -325 0
-220 -340 0
-220 -355 0
-220 -370 0
-220 -385 0
-220 -400 0
-220 -415 0
-235 -250 0
-235 -265 0
-235 -280 0
-235 -295 0
-235 -310 0
-235 -325 0
-235 -340 0
-235 -355 0
-235 -370 0
-235 -385 0
-235 -400 0
-235 -415 0
-250 -265 0
-250 -280 0
-250 -295 0
-250 -310 0
-250 -325 0
-250 -340 0
-250 -355 0
-250 -370 0
-250 -385 0
-250 -400 0
-250 -415 0
-265 -280 0
-265 -295 0
-265 -310 0
-265 -325 0
-265 -340 0
-265 -355 0
-265 -370 0
-265 -385 0
-265 -400 0
-265 -415 0
-280 -295 0
-280 -310 0
-280 -325 0
-280 -340 0
-280 -355 0
-280 -370 0
-280 -385 0
-280 -400 0
-280 -415 0
-295 -310 0
-295 -325 0
-295 -340 0
-295 -355 0
-295 -370 0
-295 -385 0
-295 -400 0
-295 -415 0
-310 -325 0
-310 -340 0
-310 -355 0
-310 -370 0
-310 -385 0
-310 -400 0
-310 -415 0
-325 -340 0
-325 -355 0
-325 -370 0
-325 -385 0
-325 -400 0
-325 -415 0
-340 -355 0
-340 -370 0
-340 -385 0
-340 -400 0
-340 -415 0
-355 -370 0
-355 -385 0
-355 -400 0
-355 -415 0
-370 -385 0
-370 -400 0
-370 -415 0
-385 -400 0
-385 -415 0
-400 -415 0
-221 -236 0
-221 -251 0
-221 -266 0
-221 -281 0
-221 -296 0
-221 -311 0
-221 -326 0
-221 -341 0
-221 -356 0
-221 -371 0
-221 -386 0
-221 -401 0
-221 -416 0
-236 -251 0
-236 -266 0
-236 -281 0
-236 -296 0
-236 -311 0
-236 -326 0
-236 -341 0
-236 -356 0
-236 -371 0
-236 -386 0
-236 -401 0
-236 -416 0
-251 -266 0
-251 -281 0
-251 -296 0
-251 -311 0
-251 -326 0
-251 -341 0
-251 -356 0
-251 -371 0
-251 -386 0
-251 -401 0
-251 -416 0
-266 -281 0
-266 -296 0
-266 -311 0
-266 -326 0
-266 -341 0
-266 -356 0
-266 -371 0
-266 -386 0
-266 -401 0
-266 -416 0
-281 -296 0
-281 -311 0
-281 -326 0
-281 -341 0
-281 -356 0
-281 -371 0
-281 -386 0
-281 -401 0
-281 -416 0
-296 -311 0
-296 -326 0
-296 -341 0
-296 -356 0
-296 -371 0
-296 -386 0
-296 -401 0
-296 -416 0
-311 -326 0
-311 -341 0
-311 -356 0
-311 -371 0
-311 -386 0
-311 -401 0
-311 -416 0
-326 -341 0
-326 -356 0
-326 -371 0
-326 -386 0
-326 -401 0
-326 -416 0
-341 -356 0
-341 -371 0
-341 -386 0
-341 -401 0
-341 -416 0
-356 -371 0
-356 -386 0
-356 -401 0
-356 -416 0
-371 -386 0
-371 -401 0
-371 -416 0
-386 -401 0
-386 -416 0
-401 -416 0
-222 -237 0
-222 -252 0
-222 -267 0
-222 -282 0
-222 -297 0
-222 -312 0
-222 -327 0
-222 -342 0
-222 -357 0
-222 -372 0
-222 -387 0
-222 -402 0
-222 -417 0
-237 -252 0
-237 -267 0
-237 -282 0
-237 -297 0
-237 -312 0
-237 -327 0
-237 -342 0
-237 -357 0
-237 -372 0
-237 -387 0
-237 -402 0
-237 -417 0
-252 -267 0
-252 -282 0
-252 -297 0
-252 -312 0
-252 -327 0
-252 -342 0
-252 -357 0
-252 -372 0
-252 -387 0
-252 -402 0
-252 -417 0
-267 -282 0
-267 -297 0
-267 -312 0
-267 -327 0
-267 -342 0
-267 -357 0
-267 -372 0
-267 -387 0
-267 -402 0
-267 -417 0
-282 -297 0
-282 -312 0
-282 -327 0
-282 -342 0
-282 -357 0
-282 -372 0
-282 -387 0
-282 -402 0
-282 -417 0
-297 -312 0
-297 -327 0
-297 -342 0
-297 -357 0
-297 -372 0
-297 -387 0
-297 -402 0
-297 -417 0
-312 -327 0
-312 -342 0
-312 -357 0
-312 -372 0
-312 -387 0
-312 -402 0
-312 -417 0
-327 -342 0
-327 -357 0
-327 -372 0
-327 -387 0
-327 -402 0
-327 -417 0
-342 -357 0
-342 -372 0
-342 -387 0
-342 -402 0
-342 -417 0
-357 -372 0
-357 -387 0
-357 -402 0
-357 -417 0
-372 -387 0
-372 -402 0
-372 -417 0
-387 -402 0
-387 -417 0
-402 -417 0
-223 -238 0
-223 -253 0
-223 -268 0
-223 -283 0
-223 -298 0
-223 -313 0
-223 -328 0
-223 -343 0
-223 -358 0
-223 -373 0
-223 -388 0
-223 -403 0
-223 -418 0
-238 -253 0
-238 -268 0
-238 -283 0
-238 -298 0
-238 -313 0
-238 -328 0
-238 -343 0
-238 -358 0
-238 -373 0
-238 -388 0
-238 -403 0
-238 -418 0
-253 -268 0
-253 -283 0
-253 -298 0
-253 -313 0
-253 -328 0
-253 -343 0
-253 -358 0
-253 -373 0
-253 -388 0
-253 -403 0
-253 -418 0
-268 -283 0
-268 -298 0
-268 -313 0
-268 -328 0
-268 -343 0
-268 -358 0
-268 -373 0
-268 -388 0
-268 -403 0
-268 -418 0
-283 -298 0
-283 -313 0
-283 -328 0
-283 -343 0
-283 -358 0
-283 -373 0
-283 -388 0
-283 -403 0
-283 -418 0
-298 -313 0
-298 -328 0
-298 -343 0
-298 -358 0
-298 -373 0
-298 -388 0
-298 -403 0
-298 -418 0
-313 -328 0
-313 -343 0
-313 -358 0
-313 -373 0
-313 -388 0
-313 -403 0
-313 -418 0
-328 -343 0
-328 -358 0
-328 -373 0
-328 -388 0
-328 -403 0
-328 -418 0
-343 -358 0
-343 -373 0
-343 -388 0
-343 -403 0
-343 -418 0
-358 -373 0
-358 -388 0
-358 -403 0
-358 -418 0
-373 -388 0
-373 -403 0
-373 -418 0
-388 -403 0
-388 -418 0
-403 -418 0
-224 -239 0
-224 -254 0
-224 -269 0
-224 -284 0
-224 -299 0
-224 -314 0
-224 -329 0
-224 -344 0
-224 -359 0
-224 -374 0
-224 -389 0
-224 -404 0
-224 -419 0
-239 -254 0
-239 -269 0
-239 -284 0
-239 -299 0
-239 -314 0
-239 -329 0
-239 -344 0
-239 -359 0
-239 -374 0
-239 -389 0
-239 -404 0
-239 -419 0
-254 -269 0
-254 -284 0
-254 -299 0
-254 -314 0
-254 -329 0
-254 -344 0
-254 -359 0
-254 -374 0
-254 -389 0
-254 -404 0
-254 -419 0
-269 -284 0
-269 -299 0
-269 -314 0
-269 -329 0
-269 -344 0
-269 -359 0
-269 -374 0
-269 -389 0
-269 -404 0
-269 -419 0
-284 -299 0
-284 -314 0
-284 -329 0
-284 -344 0
-284 -359 0
-284 -374 0
-284 -389 0
-284 -404 0
-284 -419 0
-299 -314 0
-299 -329 0
-299 -344 0
-299 -359 0
-299 -374 0
-299 -389 0
-299 -404 0
-299 -419 0
-314 -329 0
-314 -344 0
-314 -359 0
-314 -374 0
-314 -389 0
-314 -404 0
-314 -419 0
-329 -344 0
-329 -359 0
-329 -374 0
-329 -389 0
-329 -404 0
-329 -419 0
-344 -359 0
-344 -374 0
-344 -389 0
-344 -404 0
-344 -419 0
-359 -374 0
-359 -389 0
-359 -404 0
-359 -419 0
-374 -389 0
-374 -404 0
-374 -419 0
-389 -404 0
-389 -419 0
-404 -419 0
-225 -240 0
-225 -255 0
-225 -270 0
-225 -285 0
-225 -300 0
-225 -315 0
-225 -330 0
-225 -345 0
-225 -360 0
-225 -375 0
-225 -390 0
-225 -405 0
-225 -420 0
-240 -255 0
-240 -270 0
-240 -285 0
-240 -300 0
-240 -315 0
-240 -330 0
-240 -345 0
-240 -360 0
-240 -375 0
-240 -390 0
-240 -405 0
-240 -420 0
-255 -270 0
-255 -285 0
-255 -300 0
-255 -315 0
-255 -330 0
-255 -345 0
-255 -360 0
-255 -375 0
-255 -390 0
-255 -405 0
-255 -420 0
-270 -285 0
-270 -300 0
-270 -315 0
-270 -330 0
-270 -345 0
-270 -360 0
-270 -375 0
-270 -390 0
-270 -405 0
-270 -420 0
-285 -300 0
-285 -315 0
-285 -330 0
-285 -345 0
-285 -360 0
-285 -375 0
-285 -390 0
-285 -405 0
-285 -420 0
-300 -315 0
-300 -330 0
-300 -345 0
-300 -360 0
-300 -375 0
-300 -390 0
-300 -405 0
-300 -420 0
-315 -330 0
-315 -345 0
-315 -360 0
-315 -375 0
-315 -390 0
-315 -405 0
-315 -420 0
-330 -345 0
-330 -360 0
-330 -375 0
-330 -390 0
-330 -405 0
-330 -420 0
-345 -360 0
-345 -375 0
-345 -390 0
-345 -405 0
-345 -420 0
-360 -375 0
-360 -390 0
-360 -405 0
-360 -420 0
-375 -390 0
-375 -405 0
-375 -420 0
-390 -405 0
-390 -420 0
-405 -420 0
