c Phase 3 generated performance instance
c family=overlapping_hall_violation
c scale=16
c variant=default
c noise_percent=0
c expected=UNSATISFIABLE
p cnf 544 8465
-1 -2 0
-1 -3 0
-1 -4 0
-1 -5 0
-1 -6 0
-1 -7 0
-1 -8 0
-1 -9 0
-1 -10 0
-1 -11 0
-1 -12 0
-1 -13 0
-1 -14 0
-1 -15 0
-1 -16 0
-2 -3 0
-2 -4 0
-2 -5 0
-2 -6 0
-2 -7 0
-2 -8 0
-2 -9 0
-2 -10 0
-2 -11 0
-2 -12 0
-2 -13 0
-2 -14 0
-2 -15 0
-2 -16 0
-3 -4 0
-3 -5 0
-3 -6 0
-3 -7 0
-3 -8 0
-3 -9 0
-3 -10 0
-3 -11 0
-3 -12 0
-3 -13 0
-3 -14 0
-3 -15 0
-3 -16 0
-4 -5 0
-4 -6 0
-4 -7 0
-4 -8 0
-4 -9 0
-4 -10 0
-4 -11 0
-4 -12 0
-4 -13 0
-4 -14 0
-4 -15 0
-4 -16 0
-5 -6 0
-5 -7 0
-5 -8 0
-5 -9 0
-5 -10 0
-5 -11 0
-5 -12 0
-5 -13 0
-5 -14 0
-5 -15 0
-5 -16 0
-6 -7 0
-6 -8 0
-6 -9 0
-6 -10 0
-6 -11 0
-6 -12 0
-6 -13 0
-6 -14 0
-6 -15 0
-6 -16 0
-7 -8 0
-7 -9 0
-7 -10 0
-7 -11 0
-7 -12 0
-7 -13 0
-7 -14 0
-7 -15 0
-7 -16 0
-8 -9 0
-8 -10 0
-8 -11 0
-8 -12 0
-8 -13 0
-8 -14 0
-8 -15 0
-8 -16 0
-9 -10 0
-9 -11 0
-9 -12 0
-9 -13 0
-9 -14 0
-9 -15 0
-9 -16 0
-10 -11 0
-10 -12 0
-10 -13 0
-10 -14 0
-10 -15 0
-10 -16 0
-11 -12 0
-11 -13 0
-11 -14 0
-11 -15 0
-11 -16 0
-12 -13 0
-12 -14 0
-12 -15 0
-12 -16 0
-13 -14 0
-13 -15 0
-13 -16 0
-14 -15 0
-14 -16 0
-15 -16 0
1 2 3 4 5 6 7 8 9 10 11 12 13 14 15 16 0
-17 -18 0
-17 -19 0
-17 -20 0
-17 -21 0
-17 -22 0
-17 -23 0
-17 -24 0
-17 -25 0
-17 -26 0
-17 -27 0
-17 -28 0
-17 -29 0
-17 -30 0
-17 -31 0
-17 -32 0
-18 -19 0
-18 -20 0
-18 -21 0
-18 -22 0
-18 -23 0
-18 -24 0
-18 -25 0
-18 -26 0
-18 -27 0
-18 -28 0
-18 -29 0
-18 -30 0
-18 -31 0
-18 -32 0
-19 -20 0
-19 -21 0
-19 -22 0
-19 -23 0
-19 -24 0
-19 -25 0
-19 -26 0
-19 -27 0
-19 -28 0
-19 -29 0
-19 -30 0
-19 -31 0
-19 -32 0
-20 -21 0
-20 -22 0
-20 -23 0
-20 -24 0
-20 -25 0
-20 -26 0
-20 -27 0
-20 -28 0
-20 -29 0
-20 -30 0
-20 -31 0
-20 -32 0
-21 -22 0
-21 -23 0
-21 -24 0
-21 -25 0
-21 -26 0
-21 -27 0
-21 -28 0
-21 -29 0
-21 -30 0
-21 -31 0
-21 -32 0
-22 -23 0
-22 -24 0
-22 -25 0
-22 -26 0
-22 -27 0
-22 -28 0
-22 -29 0
-22 -30 0
-22 -31 0
-22 -32 0
-23 -24 0
-23 -25 0
-23 -26 0
-23 -27 0
-23 -28 0
-23 -29 0
-23 -30 0
-23 -31 0
-23 -32 0
-24 -25 0
-24 -26 0
-24 -27 0
-24 -28 0
-24 -29 0
-24 -30 0
-24 -31 0
-24 -32 0
-25 -26 0
-25 -27 0
-25 -28 0
-25 -29 0
-25 -30 0
-25 -31 0
-25 -32 0
-26 -27 0
-26 -28 0
-26 -29 0
-26 -30 0
-26 -31 0
-26 -32 0
-27 -28 0
-27 -29 0
-27 -30 0
-27 -31 0
-27 -32 0
-28 -29 0
-28 -30 0
-28 -31 0
-28 -32 0
-29 -30 0
-29 -31 0
-29 -32 0
-30 -31 0
-30 -32 0
-31 -32 0
17 18 19 20 21 22 23 24 25 26 27 28 29 30 31 32 0
-33 -34 0
-33 -35 0
-33 -36 0
-33 -37 0
-33 -38 0
-33 -39 0
-33 -40 0
-33 -41 0
-33 -42 0
-33 -43 0
-33 -44 0
-33 -45 0
-33 -46 0
-33 -47 0
-33 -48 0
-34 -35 0
-34 -36 0
-34 -37 0
-34 -38 0
-34 -39 0
-34 -40 0
-34 -41 0
-34 -42 0
-34 -43 0
-34 -44 0
-34 -45 0
-34 -46 0
-34 -47 0
-34 -48 0
-35 -36 0
-35 -37 0
-35 -38 0
-35 -39 0
-35 -40 0
-35 -41 0
-35 -42 0
-35 -43 0
-35 -44 0
-35 -45 0
-35 -46 0
-35 -47 0
-35 -48 0
-36 -37 0
-36 -38 0
-36 -39 0
-36 -40 0
-36 -41 0
-36 -42 0
-36 -43 0
-36 -44 0
-36 -45 0
-36 -46 0
-36 -47 0
-36 -48 0
-37 -38 0
-37 -39 0
-37 -40 0
-37 -41 0
-37 -42 0
-37 -43 0
-37 -44 0
-37 -45 0
-37 -46 0
-37 -47 0
-37 -48 0
-38 -39 0
-38 -40 0
-38 -41 0
-38 -42 0
-38 -43 0
-38 -44 0
-38 -45 0
-38 -46 0
-38 -47 0
-38 -48 0
-39 -40 0
-39 -41 0
-39 -42 0
-39 -43 0
-39 -44 0
-39 -45 0
-39 -46 0
-39 -47 0
-39 -48 0
-40 -41 0
-40 -42 0
-40 -43 0
-40 -44 0
-40 -45 0
-40 -46 0
-40 -47 0
-40 -48 0
-41 -42 0
-41 -43 0
-41 -44 0
-41 -45 0
-41 -46 0
-41 -47 0
-41 -48 0
-42 -43 0
-42 -44 0
-42 -45 0
-42 -46 0
-42 -47 0
-42 -48 0
-43 -44 0
-43 -45 0
-43 -46 0
-43 -47 0
-43 -48 0
-44 -45 0
-44 -46 0
-44 -47 0
-44 -48 0
-45 -46 0
-45 -47 0
-45 -48 0
-46 -47 0
-46 -48 0
-47 -48 0
33 34 35 36 37 38 39 40 41 42 43 44 45 46 47 48 0
-49 -50 0
-49 -51 0
-49 -52 0
-49 -53 0
-49 -54 0
-49 -55 0
-49 -56 0
-49 -57 0
-49 -58 0
-49 -59 0
-49 -60 0
-49 -61 0
-49 -62 0
-49 -63 0
-49 -64 0
-50 -51 0
-50 -52 0
-50 -53 0
-50 -54 0
-50 -55 0
-50 -56 0
-50 -57 0
-50 -58 0
-50 -59 0
-50 -60 0
-50 -61 0
-50 -62 0
-50 -63 0
-50 -64 0
-51 -52 0
-51 -53 0
-51 -54 0
-51 -55 0
-51 -56 0
-51 -57 0
-51 -58 0
-51 -59 0
-51 -60 0
-51 -61 0
-51 -62 0
-51 -63 0
-51 -64 0
-52 -53 0
-52 -54 0
-52 -55 0
-52 -56 0
-52 -57 0
-52 -58 0
-52 -59 0
-52 -60 0
-52 -61 0
-52 -62 0
-52 -63 0
-52 -64 0
-53 -54 0
-53 -55 0
-53 -56 0
-53 -57 0
-53 -58 0
-53 -59 0
-53 -60 0
-53 -61 0
-53 -62 0
-53 -63 0
-53 -64 0
-54 -55 0
-54 -56 0
-54 -57 0
-54 -58 0
-54 -59 0
-54 -60 0
-54 -61 0
-54 -62 0
-54 -63 0
-54 -64 0
-55 -56 0
-55 -57 0
-55 -58 0
-55 -59 0
-55 -60 0
-55 -61 0
-55 -62 0
-55 -63 0
-55 -64 0
-56 -57 0
-56 -58 0
-56 -59 0
-56 -60 0
-56 -61 0
-56 -62 0
-56 -63 0
-56 -64 0
-57 -58 0
-57 -59 0
-57 -60 0
-57 -61 0
-57 -62 0
-57 -63 0
-57 -64 0
-58 -59 0
-58 -60 0
-58 -61 0
-58 -62 0
-58 -63 0
-58 -64 0
-59 -60 0
-59 -61 0
-59 -62 0
-59 -63 0
-59 -64 0
-60 -61 0
-60 -62 0
-60 -63 0
-60 -64 0
-61 -62 0
-61 -63 0
-61 -64 0
-62 -63 0
-62 -64 0
-63 -64 0
49 50 51 52 53 54 55 56 57 58 59 60 61 62 63 64 0
-65 -66 0
-65 -67 0
-65 -68 0
-65 -69 0
-65 -70 0
-65 -71 0
-65 -72 0
-65 -73 0
-65 -74 0
-65 -75 0
-65 -76 0
-65 -77 0
-65 -78 0
-65 -79 0
-65 -80 0
-66 -67 0
-66 -68 0
-66 -69 0
-66 -70 0
-66 -71 0
-66 -72 0
-66 -73 0
-66 -74 0
-66 -75 0
-66 -76 0
-66 -77 0
-66 -78 0
-66 -79 0
-66 -80 0
-67 -68 0
-67 -69 0
-67 -70 0
-67 -71 0
-67 -72 0
-67 -73 0
-67 -74 0
-67 -75 0
-67 -76 0
-67 -77 0
-67 -78 0
-67 -79 0
-67 -80 0
-68 -69 0
-68 -70 0
-68 -71 0
-68 -72 0
-68 -73 0
-68 -74 0
-68 -75 0
-68 -76 0
-68 -77 0
-68 -78 0
-68 -79 0
-68 -80 0
-69 -70 0
-69 -71 0
-69 -72 0
-69 -73 0
-69 -74 0
-69 -75 0
-69 -76 0
-69 -77 0
-69 -78 0
-69 -79 0
-69 -80 0
-70 -71 0
-70 -72 0
-70 -73 0
-70 -74 0
-70 -75 0
-70 -76 0
-70 -77 0
-70 -78 0
-70 -79 0
-70 -80 0
-71 -72 0
-71 -73 0
-71 -74 0
-71 -75 0
-71 -76 0
-71 -77 0
-71 -78 0
-71 -79 0
-71 -80 0
-72 -73 0
-72 -74 0
-72 -75 0
-72 -76 0
-72 -77 0
-72 -78 0
-72 -79 0
-72 -80 0
-73 -74 0
-73 -75 0
-73 -76 0
-73 -77 0
-73 -78 0
-73 -79 0
-73 -80 0
-74 -75 0
-74 -76 0
-74 -77 0
-74 -78 0
-74 -79 0
-74 -80 0
-75 -76 0
-75 -77 0
-75 -78 0
-75 -79 0
-75 -80 0
-76 -77 0
-76 -78 0
-76 -79 0
-76 -80 0
-77 -78 0
-77 -79 0
-77 -80 0
-78 -79 0
-78 -80 0
-79 -80 0
65 66 67 68 69 70 71 72 73 74 75 76 77 78 79 80 0
-81 -82 0
-81 -83 0
-81 -84 0
-81 -85 0
-81 -86 0
-81 -87 0
-81 -88 0
-81 -89 0
-81 -90 0
-81 -91 0
-81 -92 0
-81 -93 0
-81 -94 0
-81 -95 0
-81 -96 0
-82 -83 0
-82 -84 0
-82 -85 0
-82 -86 0
-82 -87 0
-82 -88 0
-82 -89 0
-82 -90 0
-82 -91 0
-82 -92 0
-82 -93 0
-82 -94 0
-82 -95 0
-82 -96 0
-83 -84 0
-83 -85 0
-83 -86 0
-83 -87 0
-83 -88 0
-83 -89 0
-83 -90 0
-83 -91 0
-83 -92 0
-83 -93 0
-83 -94 0
-83 -95 0
-83 -96 0
-84 -85 0
-84 -86 0
-84 -87 0
-84 -88 0
-84 -89 0
-84 -90 0
-84 -91 0
-84 -92 0
-84 -93 0
-84 -94 0
-84 -95 0
-84 -96 0
-85 -86 0
-85 -87 0
-85 -88 0
-85 -89 0
-85 -90 0
-85 -91 0
-85 -92 0
-85 -93 0
-85 -94 0
-85 -95 0
-85 -96 0
-86 -87 0
-86 -88 0
-86 -89 0
-86 -90 0
-86 -91 0
-86 -92 0
-86 -93 0
-86 -94 0
-86 -95 0
-86 -96 0
-87 -88 0
-87 -89 0
-87 -90 0
-87 -91 0
-87 -92 0
-87 -93 0
-87 -94 0
-87 -95 0
-87 -96 0
-88 -89 0
-88 -90 0
-88 -91 0
-88 -92 0
-88 -93 0
-88 -94 0
-88 -95 0
-88 -96 0
-89 -90 0
-89 -91 0
-89 -92 0
-89 -93 0
-89 -94 0
-89 -95 0
-89 -96 0
-90 -91 0
-90 -92 0
-90 -93 0
-90 -94 0
-90 -95 0
-90 -96 0
-91 -92 0
-91 -93 0
-91 -94 0
-91 -95 0
-91 -96 0
-92 -93 0
-92 -94 0
-92 -95 0
-92 -96 0
-93 -94 0
-93 -95 0
-93 -96 0
-94 -95 0
-94 -96 0
-95 -96 0
81 82 83 84 85 86 87 88 89 90 91 92 93 94 95 96 0
-97 -98 0
-97 -99 0
-97 -100 0
-97 -101 0
-97 -102 0
-97 -103 0
-97 -104 0
-97 -105 0
-97 -106 0
-97 -107 0
-97 -108 0
-97 -109 0
-97 -110 0
-97 -111 0
-97 -112 0
-98 -99 0
-98 -100 0
-98 -101 0
-98 -102 0
-98 -103 0
-98 -104 0
-98 -105 0
-98 -106 0
-98 -107 0
-98 -108 0
-98 -109 0
-98 -110 0
-98 -111 0
-98 -112 0
-99 -100 0
-99 -101 0
-99 -102 0
-99 -103 0
-99 -104 0
-99 -105 0
-99 -106 0
-99 -107 0
-99 -108 0
-99 -109 0
-99 -110 0
-99 -111 0
-99 -112 0
-100 -101 0
-100 -102 0
-100 -103 0
-100 -104 0
-100 -105 0
-100 -106 0
-100 -107 0
-100 -108 0
-100 -109 0
-100 -110 0
-100 -111 0
-100 -112 0
-101 -102 0
-101 -103 0
-101 -104 0
-101 -105 0
-101 -106 0
-101 -107 0
-101 -108 0
-101 -109 0
-101 -110 0
-101 -111 0
-101 -112 0
-102 -103 0
-102 -104 0
-102 -105 0
-102 -106 0
-102 -107 0
-102 -108 0
-102 -109 0
-102 -110 0
-102 -111 0
-102 -112 0
-103 -104 0
-103 -105 0
-103 -106 0
-103 -107 0
-103 -108 0
-103 -109 0
-103 -110 0
-103 -111 0
-103 -112 0
-104 -105 0
-104 -106 0
-104 -107 0
-104 -108 0
-104 -109 0
-104 -110 0
-104 -111 0
-104 -112 0
-105 -106 0
-105 -107 0
-105 -108 0
-105 -109 0
-105 -110 0
-105 -111 0
-105 -112 0
-106 -107 0
-106 -108 0
-106 -109 0
-106 -110 0
-106 -111 0
-106 -112 0
-107 -108 0
-107 -109 0
-107 -110 0
-107 -111 0
-107 -112 0
-108 -109 0
-108 -110 0
-108 -111 0
-108 -112 0
-109 -110 0
-109 -111 0
-109 -112 0
-110 -111 0
-110 -112 0
-111 -112 0
97 98 99 100 101 102 103 104 105 106 107 108 109 110 111 112 0
-113 -114 0
-113 -115 0
-113 -116 0
-113 -117 0
-113 -118 0
-113 -119 0
-113 -120 0
-113 -121 0
-113 -122 0
-113 -123 0
-113 -124 0
-113 -125 0
-113 -126 0
-113 -127 0
-113 -128 0
-114 -115 0
-114 -116 0
-114 -117 0
-114 -118 0
-114 -119 0
-114 -120 0
-114 -121 0
-114 -122 0
-114 -123 0
-114 -124 0
-114 -125 0
-114 -126 0
-114 -127 0
-114 -128 0
-115 -116 0
-115 -117 0
-115 -118 0
-115 -119 0
-115 -120 0
-115 -121 0
-115 -122 0
-115 -123 0
-115 -124 0
-115 -125 0
-115 -126 0
-115 -127 0
-115 -128 0
-116 -117 0
-116 -118 0
-116 -119 0
-116 -120 0
-116 -121 0
-116 -122 0
-116 -123 0
-116 -124 0
-116 -125 0
-116 -126 0
-116 -127 0
-116 -128 0
-117 -118 0
-117 -119 0
-117 -120 0
-117 -121 0
-117 -122 0
-117 -123 0
-117 -124 0
-117 -125 0
-117 -126 0
-117 -127 0
-117 -128 0
-118 -119 0
-118 -120 0
-118 -121 0
-118 -122 0
-118 -123 0
-118 -124 0
-118 -125 0
-118 -126 0
-118 -127 0
-118 -128 0
-119 -120 0
-119 -121 0
-119 -122 0
-119 -123 0
-119 -124 0
-119 -125 0
-119 -126 0
-119 -127 0
-119 -128 0
-120 -121 0
-120 -122 0
-120 -123 0
-120 -124 0
-120 -125 0
-120 -126 0
-120 -127 0
-120 -128 0
-121 -122 0
-121 -123 0
-121 -124 0
-121 -125 0
-121 -126 0
-121 -127 0
-121 -128 0
-122 -123 0
-122 -124 0
-122 -125 0
-122 -126 0
-122 -127 0
-122 -128 0
-123 -124 0
-123 -125 0
-123 -126 0
-123 -127 0
-123 -128 0
-124 -125 0
-124 -126 0
-124 -127 0
-124 -128 0
-125 -126 0
-125 -127 0
-125 -128 0
-126 -127 0
-126 -128 0
-127 -128 0
113 114 115 116 117 118 119 120 121 122 123 124 125 126 127 128 0
-129 -130 0
-129 -131 0
-129 -132 0
-129 -133 0
-129 -134 0
-129 -135 0
-129 -136 0
-129 -137 0
-129 -138 0
-129 -139 0
-129 -140 0
-129 -141 0
-129 -142 0
-129 -143 0
-129 -144 0
-130 -131 0
-130 -132 0
-130 -133 0
-130 -134 0
-130 -135 0
-130 -136 0
-130 -137 0
-130 -138 0
-130 -139 0
-130 -140 0
-130 -141 0
-130 -142 0
-130 -143 0
-130 -144 0
-131 -132 0
-131 -133 0
-131 -134 0
-131 -135 0
-131 -136 0
-131 -137 0
-131 -138 0
-131 -139 0
-131 -140 0
-131 -141 0
-131 -142 0
-131 -143 0
-131 -144 0
-132 -133 0
-132 -134 0
-132 -135 0
-132 -136 0
-132 -137 0
-132 -138 0
-132 -139 0
-132 -140 0
-132 -141 0
-132 -142 0
-132 -143 0
-132 -144 0
-133 -134 0
-133 -135 0
-133 -136 0
-133 -137 0
-133 -138 0
-133 -139 0
-133 -140 0
-133 -141 0
-133 -142 0
-133 -143 0
-133 -144 0
-134 -135 0
-134 -136 0
-134 -137 0
-134 -138 0
-134 -139 0
-134 -140 0
-134 -141 0
-134 -142 0
-134 -143 0
-134 -144 0
-135 -136 0
-135 -137 0
-135 -138 0
-135 -139 0
-135 -140 0
-135 -141 0
-135 -142 0
-135 -143 0
-135 -144 0
-136 -137 0
-136 -138 0
-136 -139 0
-136 -140 0
-136 -141 0
-136 -142 0
-136 -143 0
-136 -144 0
-137 -138 0
-137 -139 0
-137 -140 0
-137 -141 0
-137 -142 0
-137 -143 0
-137 -144 0
-138 -139 0
-138 -140 0
-138 -141 0
-138 -142 0
-138 -143 0
-138 -144 0
-139 -140 0
-139 -141 0
-139 -142 0
-139 -143 0
-139 -144 0
-140 -141 0
-140 -142 0
-140 -143 0
-140 -144 0
-141 -142 0
-141 -143 0
-141 -144 0
-142 -143 0
-142 -144 0
-143 -144 0
129 130 131 132 133 134 135 136 137 138 139 140 141 142 143 144 0
-145 -146 0
-145 -147 0
-145 -148 0
-145 -149 0
-145 -150 0
-145 -151 0
-145 -152 0
-145 -153 0
-145 -154 0
-145 -155 0
-145 -156 0
-145 -157 0
-145 -158 0
-145 -159 0
-145 -160 0
-146 -147 0
-146 -148 0
-146 -149 0
-146 -150 0
-146 -151 0
-146 -152 0
-146 -153 0
-146 -154 0
-146 -155 0
-146 -156 0
-146 -157 0
-146 -158 0
-146 -159 0
-146 -160 0
-147 -148 0
-147 -149 0
-147 -150 0
-147 -151 0
-147 -152 0
-147 -153 0
-147 -154 0
-147 -155 0
-147 -156 0
-147 -157 0
-147 -158 0
-147 -159 0
-147 -160 0
-148 -149 0
-148 -150 0
-148 -151 0
-148 -152 0
-148 -153 0
-148 -154 0
-148 -155 0
-148 -156 0
-148 -157 0
-148 -158 0
-148 -159 0
-148 -160 0
-149 -150 0
-149 -151 0
-149 -152 0
-149 -153 0
-149 -154 0
-149 -155 0
-149 -156 0
-149 -157 0
-149 -158 0
-149 -159 0
-149 -160 0
-150 -151 0
-150 -152 0
-150 -153 0
-150 -154 0
-150 -155 0
-150 -156 0
-150 -157 0
-150 -158 0
-150 -159 0
-150 -160 0
-151 -152 0
-151 -153 0
-151 -154 0
-151 -155 0
-151 -156 0
-151 -157 0
-151 -158 0
-151 -159 0
-151 -160 0
-152 -153 0
-152 -154 0
-152 -155 0
-152 -156 0
-152 -157 0
-152 -158 0
-152 -159 0
-152 -160 0
-153 -154 0
-153 -155 0
-153 -156 0
-153 -157 0
-153 -158 0
-153 -159 0
-153 -160 0
-154 -155 0
-154 -156 0
-154 -157 0
-154 -158 0
-154 -159 0
-154 -160 0
-155 -156 0
-155 -157 0
-155 -158 0
-155 -159 0
-155 -160 0
-156 -157 0
-156 -158 0
-156 -159 0
-156 -160 0
-157 -158 0
-157 -159 0
-157 -160 0
-158 -159 0
-158 -160 0
-159 -160 0
145 146 147 148 149 150 151 152 153 154 155 156 157 158 159 160 0
-161 -162 0
-161 -163 0
-161 -164 0
-161 -165 0
-161 -166 0
-161 -167 0
-161 -168 0
-161 -169 0
-161 -170 0
-161 -171 0
-161 -172 0
-161 -173 0
-161 -174 0
-161 -175 0
-161 -176 0
-162 -163 0
-162 -164 0
-162 -165 0
-162 -166 0
-162 -167 0
-162 -168 0
-162 -169 0
-162 -170 0
-162 -171 0
-162 -172 0
-162 -173 0
-162 -174 0
-162 -175 0
-162 -176 0
-163 -164 0
-163 -165 0
-163 -166 0
-163 -167 0
-163 -168 0
-163 -169 0
-163 -170 0
-163 -171 0
-163 -172 0
-163 -173 0
-163 -174 0
-163 -175 0
-163 -176 0
-164 -165 0
-164 -166 0
-164 -167 0
-164 -168 0
-164 -169 0
-164 -170 0
-164 -171 0
-164 -172 0
-164 -173 0
-164 -174 0
-164 -175 0
-164 -176 0
-165 -166 0
-165 -167 0
-165 -168 0
-165 -169 0
-165 -170 0
-165 -171 0
-165 -172 0
-165 -173 0
-165 -174 0
-165 -175 0
-165 -176 0
-166 -167 0
-166 -168 0
-166 -169 0
-166 -170 0
-166 -171 0
-166 -172 0
-166 -173 0
-166 -174 0
-166 -175 0
-166 -176 0
-167 -168 0
-167 -169 0
-167 -170 0
-167 -171 0
-167 -172 0
-167 -173 0
-167 -174 0
-167 -175 0
-167 -176 0
-168 -169 0
-168 -170 0
-168 -171 0
-168 -172 0
-168 -173 0
-168 -174 0
-168 -175 0
-168 -176 0
-169 -170 0
-169 -171 0
-169 -172 0
-169 -173 0
-169 -174 0
-169 -175 0
-169 -176 0
-170 -171 0
-170 -172 0
-170 -173 0
-170 -174 0
-170 -175 0
-170 -176 0
-171 -172 0
-171 -173 0
-171 -174 0
-171 -175 0
-171 -176 0
-172 -173 0
-172 -174 0
-172 -175 0
-172 -176 0
-173 -174 0
-173 -175 0
-173 -176 0
-174 -175 0
-174 -176 0
-175 -176 0
161 162 163 164 165 166 167 168 169 170 171 172 173 174 175 176 0
-177 -178 0
-177 -179 0
-177 -180 0
-177 -181 0
-177 -182 0
-177 -183 0
-177 -184 0
-177 -185 0
-177 -186 0
-177 -187 0
-177 -188 0
-177 -189 0
-177 -190 0
-177 -191 0
-177 -192 0
-178 -179 0
-178 -180 0
-178 -181 0
-178 -182 0
-178 -183 0
-178 -184 0
-178 -185 0
-178 -186 0
-178 -187 0
-178 -188 0
-178 -189 0
-178 -190 0
-178 -191 0
-178 -192 0
-179 -180 0
-179 -181 0
-179 -182 0
-179 -183 0
-179 -184 0
-179 -185 0
-179 -186 0
-179 -187 0
-179 -188 0
-179 -189 0
-179 -190 0
-179 -191 0
-179 -192 0
-180 -181 0
-180 -182 0
-180 -183 0
-180 -184 0
-180 -185 0
-180 -186 0
-180 -187 0
-180 -188 0
-180 -189 0
-180 -190 0
-180 -191 0
-180 -192 0
-181 -182 0
-181 -183 0
-181 -184 0
-181 -185 0
-181 -186 0
-181 -187 0
-181 -188 0
-181 -189 0
-181 -190 0
-181 -191 0
-181 -192 0
-182 -183 0
-182 -184 0
-182 -185 0
-182 -186 0
-182 -187 0
-182 -188 0
-182 -189 0
-182 -190 0
-182 -191 0
-182 -192 0
-183 -184 0
-183 -185 0
-183 -186 0
-183 -187 0
-183 -188 0
-183 -189 0
-183 -190 0
-183 -191 0
-183 -192 0
-184 -185 0
-184 -186 0
-184 -187 0
-184 -188 0
-184 -189 0
-184 -190 0
-184 -191 0
-184 -192 0
-185 -186 0
-185 -187 0
-185 -188 0
-185 -189 0
-185 -190 0
-185 -191 0
-185 -192 0
-186 -187 0
-186 -188 0
-186 -189 0
-186 -190 0
-186 -191 0
-186 -192 0
-187 -188 0
-187 -189 0
-187 -190 0
-187 -191 0
-187 -192 0
-188 -189 0
-188 -190 0
-188 -191 0
-188 -192 0
-189 -190 0
-189 -191 0
-189 -192 0
-190 -191 0
-190 -192 0
-191 -192 0
177 178 179 180 181 182 183 184 185 186 187 188 189 190 191 192 0
-193 -194 0
-193 -195 0
-193 -196 0
-193 -197 0
-193 -198 0
-193 -199 0
-193 -200 0
-193 -201 0
-193 -202 0
-193 -203 0
-193 -204 0
-193 -205 0
-193 -206 0
-193 -207 0
-193 -208 0
-194 -195 0
-194 -196 0
-194 -197 0
-194 -198 0
-194 -199 0
-194 -200 0
-194 -201 0
-194 -202 0
-194 -203 0
-194 -204 0
-194 -205 0
-194 -206 0
-194 -207 0
-194 -208 0
-195 -196 0
-195 -197 0
-195 -198 0
-195 -199 0
-195 -200 0
-195 -201 0
-195 -202 0
-195 -203 0
-195 -204 0
-195 -205 0
-195 -206 0
-195 -207 0
-195 -208 0
-196 -197 0
-196 -198 0
-196 -199 0
-196 -200 0
-196 -201 0
-196 -202 0
-196 -203 0
-196 -204 0
-196 -205 0
-196 -206 0
-196 -207 0
-196 -208 0
-197 -198 0
-197 -199 0
-197 -200 0
-197 -201 0
-197 -202 0
-197 -203 0
-197 -204 0
-197 -205 0
-197 -206 0
-197 -207 0
-197 -208 0
-198 -199 0
-198 -200 0
-198 -201 0
-198 -202 0
-198 -203 0
-198 -204 0
-198 -205 0
-198 -206 0
-198 -207 0
-198 -208 0
-199 -200 0
-199 -201 0
-199 -202 0
-199 -203 0
-199 -204 0
-199 -205 0
-199 -206 0
-199 -207 0
-199 -208 0
-200 -201 0
-200 -202 0
-200 -203 0
-200 -204 0
-200 -205 0
-200 -206 0
-200 -207 0
-200 -208 0
-201 -202 0
-201 -203 0
-201 -204 0
-201 -205 0
-201 -206 0
-201 -207 0
-201 -208 0
-202 -203 0
-202 -204 0
-202 -205 0
-202 -206 0
-202 -207 0
-202 -208 0
-203 -204 0
-203 -205 0
-203 -206 0
-203 -207 0
-203 -208 0
-204 -205 0
-204 -206 0
-204 -207 0
-204 -208 0
-205 -206 0
-205 -207 0
-205 -208 0
-206 -207 0
-206 -208 0
-207 -208 0
193 194 195 196 197 198 199 200 201 202 203 204 205 206 207 208 0
-209 -210 0
-209 -211 0
-209 -212 0
-209 -213 0
-209 -214 0
-209 -215 0
-209 -216 0
-209 -217 0
-209 -218 0
-209 -219 0
-209 -220 0
-209 -221 0
-209 -222 0
-209 -223 0
-209 -224 0
-210 -211 0
-210 -212 0
-210 -213 0
-210 -214 0
-210 -215 0
-210 -216 0
-210 -217 0
-210 -218 0
-210 -219 0
-210 -220 0
-210 -221 0
-210 -222 0
-210 -223 0
-210 -224 0
-211 -212 0
-211 -213 0
-211 -214 0
-211 -215 0
-211 -216 0
-211 -217 0
-211 -218 0
-211 -219 0
-211 -220 0
-211 -221 0
-211 -222 0
-211 -223 0
-211 -224 0
-212 -213 0
-212 -214 0
-212 -215 0
-212 -216 0
-212 -217 0
-212 -218 0
-212 -219 0
-212 -220 0
-212 -221 0
-212 -222 0
-212 -223 0
-212 -224 0
-213 -214 0
-213 -215 0
-213 -216 0
-213 -217 0
-213 -218 0
-213 -219 0
-213 -220 0
-213 -221 0
-213 -222 0
-213 -223 0
-213 -224 0
-214 -215 0
-214 -216 0
-214 -217 0
-214 -218 0
-214 -219 0
-214 -220 0
-214 -221 0
-214 -222 0
-214 -223 0
-214 -224 0
-215 -216 0
-215 -217 0
-215 -218 0
-215 -219 0
-215 -220 0
-215 -221 0
-215 -222 0
-215 -223 0
-215 -224 0
-216 -217 0
-216 -218 0
-216 -219 0
-216 -220 0
-216 -221 0
-216 -222 0
-216 -223 0
-216 -224 0
-217 -218 0
-217 -219 0
-217 -220 0
-217 -221 0
-217 -222 0
-217 -223 0
-217 -224 0
-218 -219 0
-218 -220 0
-218 -221 0
-218 -222 0
-218 -223 0
-218 -224 0
-219 -220 0
-219 -221 0
-219 -222 0
-219 -223 0
-219 -224 0
-220 -221 0
-220 -222 0
-220 -223 0
-220 -224 0
-221 -222 0
-221 -223 0
-221 -224 0
-222 -223 0
-222 -224 0
-223 -224 0
209 210 211 212 213 214 215 216 217 218 219 220 221 222 223 224 0
-225 -226 0
-225 -227 0
-225 -228 0
-225 -229 0
-225 -230 0
-225 -231 0
-225 -232 0
-225 -233 0
-225 -234 0
-225 -235 0
-225 -236 0
-225 -237 0
-225 -238 0
-225 -239 0
-225 -240 0
-226 -227 0
-226 -228 0
-226 -229 0
-226 -230 0
-226 -231 0
-226 -232 0
-226 -233 0
-226 -234 0
-226 -235 0
-226 -236 0
-226 -237 0
-226 -238 0
-226 -239 0
-226 -240 0
-227 -228 0
-227 -229 0
-227 -230 0
-227 -231 0
-227 -232 0
-227 -233 0
-227 -234 0
-227 -235 0
-227 -236 0
-227 -237 0
-227 -238 0
-227 -239 0
-227 -240 0
-228 -229 0
-228 -230 0
-228 -231 0
-228 -232 0
-228 -233 0
-228 -234 0
-228 -235 0
-228 -236 0
-228 -237 0
-228 -238 0
-228 -239 0
-228 -240 0
-229 -230 0
-229 -231 0
-229 -232 0
-229 -233 0
-229 -234 0
-229 -235 0
-229 -236 0
-229 -237 0
-229 -238 0
-229 -239 0
-229 -240 0
-230 -231 0
-230 -232 0
-230 -233 0
-230 -234 0
-230 -235 0
-230 -236 0
-230 -237 0
-230 -238 0
-230 -239 0
-230 -240 0
-231 -232 0
-231 -233 0
-231 -234 0
-231 -235 0
-231 -236 0
-231 -237 0
-231 -238 0
-231 -239 0
-231 -240 0
-232 -233 0
-232 -234 0
-232 -235 0
-232 -236 0
-232 -237 0
-232 -238 0
-232 -239 0
-232 -240 0
-233 -234 0
-233 -235 0
-233 -236 0
-233 -237 0
-233 -238 0
-233 -239 0
-233 -240 0
-234 -235 0
-234 -236 0
-234 -237 0
-234 -238 0
-234 -239 0
-234 -240 0
-235 -236 0
-235 -237 0
-235 -238 0
-235 -239 0
-235 -240 0
-236 -237 0
-236 -238 0
-236 -239 0
-236 -240 0
-237 -238 0
-237 -239 0
-237 -240 0
-238 -239 0
-238 -240 0
-239 -240 0
225 226 227 228 229 230 231 232 233 234 235 236 237 238 239 240 0
-241 -242 0
-241 -243 0
-241 -244 0
-241 -245 0
-241 -246 0
-241 -247 0
-241 -248 0
-241 -249 0
-241 -250 0
-241 -251 0
-241 -252 0
-241 -253 0
-241 -254 0
-241 -255 0
-241 -256 0
-242 -243 0
-242 -244 0
-242 -245 0
-242 -246 0
-242 -247 0
-242 -248 0
-242 -249 0
-242 -250 0
-242 -251 0
-242 -252 0
-242 -253 0
-242 -254 0
-242 -255 0
-242 -256 0
-243 -244 0
-243 -245 0
-243 -246 0
-243 -247 0
-243 -248 0
-243 -249 0
-243 -250 0
-243 -251 0
-243 -252 0
-243 -253 0
-243 -254 0
-243 -255 0
-243 -256 0
-244 -245 0
-244 -246 0
-244 -247 0
-244 -248 0
-244 -249 0
-244 -250 0
-244 -251 0
-244 -252 0
-244 -253 0
-244 -254 0
-244 -255 0
-244 -256 0
-245 -246 0
-245 -247 0
-245 -248 0
-245 -249 0
-245 -250 0
-245 -251 0
-245 -252 0
-245 -253 0
-245 -254 0
-245 -255 0
-245 -256 0
-246 -247 0
-246 -248 0
-246 -249 0
-246 -250 0
-246 -251 0
-246 -252 0
-246 -253 0
-246 -254 0
-246 -255 0
-246 -256 0
-247 -248 0
-247 -249 0
-247 -250 0
-247 -251 0
-247 -252 0
-247 -253 0
-247 -254 0
-247 -255 0
-247 -256 0
-248 -249 0
-248 -250 0
-248 -251 0
-248 -252 0
-248 -253 0
-248 -254 0
-248 -255 0
-248 -256 0
-249 -250 0
-249 -251 0
-249 -252 0
-249 -253 0
-249 -254 0
-249 -255 0
-249 -256 0
-250 -251 0
-250 -252 0
-250 -253 0
-250 -254 0
-250 -255 0
-250 -256 0
-251 -252 0
-251 -253 0
-251 -254 0
-251 -255 0
-251 -256 0
-252 -253 0
-252 -254 0
-252 -255 0
-252 -256 0
-253 -254 0
-253 -255 0
-253 -256 0
-254 -255 0
-254 -256 0
-255 -256 0
241 242 243 244 245 246 247 248 249 250 251 252 253 254 255 256 0
-257 -258 0
-257 -259 0
-257 -260 0
-257 -261 0
-257 -262 0
-257 -263 0
-257 -264 0
-257 -265 0
-257 -266 0
-257 -267 0
-257 -268 0
-257 -269 0
-257 -270 0
-257 -271 0
-257 -272 0
-258 -259 0
-258 -260 0
-258 -261 0
-258 -262 0
-258 -263 0
-258 -264 0
-258 -265 0
-258 -266 0
-258 -267 0
-258 -268 0
-258 -269 0
-258 -270 0
-258 -271 0
-258 -272 0
-259 -260 0
-259 -261 0
-259 -262 0
-259 -263 0
-259 -264 0
-259 -265 0
-259 -266 0
-259 -267 0
-259 -268 0
-259 -269 0
-259 -270 0
-259 -271 0
-259 -272 0
-260 -261 0
-260 -262 0
-260 -263 0
-260 -264 0
-260 -265 0
-260 -266 0
-260 -267 0
-260 -268 0
-260 -269 0
-260 -270 0
-260 -271 0
-260 -272 0
-261 -262 0
-261 -263 0
-261 -264 0
-261 -265 0
-261 -266 0
-261 -267 0
-261 -268 0
-261 -269 0
-261 -270 0
-261 -271 0
-261 -272 0
-262 -263 0
-262 -264 0
-262 -265 0
-262 -266 0
-262 -267 0
-262 -268 0
-262 -269 0
-262 -270 0
-262 -271 0
-262 -272 0
-263 -264 0
-263 -265 0
-263 -266 0
-263 -267 0
-263 -268 0
-263 -269 0
-263 -270 0
-263 -271 0
-263 -272 0
-264 -265 0
-264 -266 0
-264 -267 0
-264 -268 0
-264 -269 0
-264 -270 0
-264 -271 0
-264 -272 0
-265 -266 0
-265 -267 0
-265 -268 0
-265 -269 0
-265 -270 0
-265 -271 0
-265 -272 0
-266 -267 0
-266 -268 0
-266 -269 0
-266 -270 0
-266 -271 0
-266 -272 0
-267 -268 0
-267 -269 0
-267 -270 0
-267 -271 0
-267 -272 0
-268 -269 0
-268 -270 0
-268 -271 0
-268 -272 0
-269 -270 0
-269 -271 0
-269 -272 0
-270 -271 0
-270 -272 0
-271 -272 0
257 258 259 260 261 262 263 264 265 266 267 268 269 270 271 272 0
-273 -274 0
-273 -275 0
-273 -276 0
-273 -277 0
-273 -278 0
-273 -279 0
-273 -280 0
-273 -281 0
-273 -282 0
-273 -283 0
-273 -284 0
-273 -285 0
-273 -286 0
-273 -287 0
-273 -288 0
-273 -289 0
-274 -275 0
-274 -276 0
-274 -277 0
-274 -278 0
-274 -279 0
-274 -280 0
-274 -281 0
-274 -282 0
-274 -283 0
-274 -284 0
-274 -285 0
-274 -286 0
-274 -287 0
-274 -288 0
-274 -289 0
-275 -276 0
-275 -277 0
-275 -278 0
-275 -279 0
-275 -280 0
-275 -281 0
-275 -282 0
-275 -283 0
-275 -284 0
-275 -285 0
-275 -286 0
-275 -287 0
-275 -288 0
-275 -289 0
-276 -277 0
-276 -278 0
-276 -279 0
-276 -280 0
-276 -281 0
-276 -282 0
-276 -283 0
-276 -284 0
-276 -285 0
-276 -286 0
-276 -287 0
-276 -288 0
-276 -289 0
-277 -278 0
-277 -279 0
-277 -280 0
-277 -281 0
-277 -282 0
-277 -283 0
-277 -284 0
-277 -285 0
-277 -286 0
-277 -287 0
-277 -288 0
-277 -289 0
-278 -279 0
-278 -280 0
-278 -281 0
-278 -282 0
-278 -283 0
-278 -284 0
-278 -285 0
-278 -286 0
-278 -287 0
-278 -288 0
-278 -289 0
-279 -280 0
-279 -281 0
-279 -282 0
-279 -283 0
-279 -284 0
-279 -285 0
-279 -286 0
-279 -287 0
-279 -288 0
-279 -289 0
-280 -281 0
-280 -282 0
-280 -283 0
-280 -284 0
-280 -285 0
-280 -286 0
-280 -287 0
-280 -288 0
-280 -289 0
-281 -282 0
-281 -283 0
-281 -284 0
-281 -285 0
-281 -286 0
-281 -287 0
-281 -288 0
-281 -289 0
-282 -283 0
-282 -284 0
-282 -285 0
-282 -286 0
-282 -287 0
-282 -288 0
-282 -289 0
-283 -284 0
-283 -285 0
-283 -286 0
-283 -287 0
-283 -288 0
-283 -289 0
-284 -285 0
-284 -286 0
-284 -287 0
-284 -288 0
-284 -289 0
-285 -286 0
-285 -287 0
-285 -288 0
-285 -289 0
-286 -287 0
-286 -288 0
-286 -289 0
-287 -288 0
-287 -289 0
-288 -289 0
273 274 275 276 277 278 279 280 281 282 283 284 285 286 287 288 289 0
-290 -291 0
-290 -292 0
-290 -293 0
-290 -294 0
-290 -295 0
-290 -296 0
-290 -297 0
-290 -298 0
-290 -299 0
-290 -300 0
-290 -301 0
-290 -302 0
-290 -303 0
-290 -304 0
-290 -305 0
-290 -306 0
-291 -292 0
-291 -293 0
-291 -294 0
-291 -295 0
-291 -296 0
-291 -297 0
-291 -298 0
-291 -299 0
-291 -300 0
-291 -301 0
-291 -302 0
-291 -303 0
-291 -304 0
-291 -305 0
-291 -306 0
-292 -293 0
-292 -294 0
-292 -295 0
-292 -296 0
-292 -297 0
-292 -298 0
-292 -299 0
-292 -300 0
-292 -301 0
-292 -302 0
-292 -303 0
-292 -304 0
-292 -305 0
-292 -306 0
-293 -294 0
-293 -295 0
-293 -296 0
-293 -297 0
-293 -298 0
-293 -299 0
-293 -300 0
-293 -301 0
-293 -302 0
-293 -303 0
-293 -304 0
-293 -305 0
-293 -306 0
-294 -295 0
-294 -296 0
-294 -297 0
-294 -298 0
-294 -299 0
-294 -300 0
-294 -301 0
-294 -302 0
-294 -303 0
-294 -304 0
-294 -305 0
-294 -306 0
-295 -296 0
-295 -297 0
-295 -298 0
-295 -299 0
-295 -300 0
-295 -301 0
-295 -302 0
-295 -303 0
-295 -304 0
-295 -305 0
-295 -306 0
-296 -297 0
-296 -298 0
-296 -299 0
-296 -300 0
-296 -301 0
-296 -302 0
-296 -303 0
-296 -304 0
-296 -305 0
-296 -306 0
-297 -298 0
-297 -299 0
-297 -300 0
-297 -301 0
-297 -302 0
-297 -303 0
-297 -304 0
-297 -305 0
-297 -306 0
-298 -299 0
-298 -300 0
-298 -301 0
-298 -302 0
-298 -303 0
-298 -304 0
-298 -305 0
-298 -306 0
-299 -300 0
-299 -301 0
-299 -302 0
-299 -303 0
-299 -304 0
-299 -305 0
-299 -306 0
-300 -301 0
-300 -302 0
-300 -303 0
-300 -304 0
-300 -305 0
-300 -306 0
-301 -302 0
-301 -303 0
-301 -304 0
-301 -305 0
-301 -306 0
-302 -303 0
-302 -304 0
-302 -305 0
-302 -306 0
-303 -304 0
-303 -305 0
-303 -306 0
-304 -305 0
-304 -306 0
-305 -306 0
290 291 292 293 294 295 296 297 298 299 300 301 302 303 304 305 306 0
-307 -308 0
-307 -309 0
-307 -310 0
-307 -311 0
-307 -312 0
-307 -313 0
-307 -314 0
-307 -315 0
-307 -316 0
-307 -317 0
-307 -318 0
-307 -319 0
-307 -320 0
-307 -321 0
-307 -322 0
-307 -323 0
-308 -309 0
-308 -310 0
-308 -311 0
-308 -312 0
-308 -313 0
-308 -314 0
-308 -315 0
-308 -316 0
-308 -317 0
-308 -318 0
-308 -319 0
-308 -320 0
-308 -321 0
-308 -322 0
-308 -323 0
-309 -310 0
-309 -311 0
-309 -312 0
-309 -313 0
-309 -314 0
-309 -315 0
-309 -316 0
-309 -317 0
-309 -318 0
-309 -319 0
-309 -320 0
-309 -321 0
-309 -322 0
-309 -323 0
-310 -311 0
-310 -312 0
-310 -313 0
-310 -314 0
-310 -315 0
-310 -316 0
-310 -317 0
-310 -318 0
-310 -319 0
-310 -320 0
-310 -321 0
-310 -322 0
-310 -323 0
-311 -312 0
-311 -313 0
-311 -314 0
-311 -315 0
-311 -316 0
-311 -317 0
-311 -318 0
-311 -319 0
-311 -320 0
-311 -321 0
-311 -322 0
-311 -323 0
-312 -313 0
-312 -314 0
-312 -315 0
-312 -316 0
-312 -317 0
-312 -318 0
-312 -319 0
-312 -320 0
-312 -321 0
-312 -322 0
-312 -323 0
-313 -314 0
-313 -315 0
-313 -316 0
-313 -317 0
-313 -318 0
-313 -319 0
-313 -320 0
-313 -321 0
-313 -322 0
-313 -323 0
-314 -315 0
-314 -316 0
-314 -317 0
-314 -318 0
-314 -319 0
-314 -320 0
-314 -321 0
-314 -322 0
-314 -323 0
-315 -316 0
-315 -317 0
-315 -318 0
-315 -319 0
-315 -320 0
-315 -321 0
-315 -322 0
-315 -323 0
-316 -317 0
-316 -318 0
-316 -319 0
-316 -320 0
-316 -321 0
-316 -322 0
-316 -323 0
-317 -318 0
-317 -319 0
-317 -320 0
-317 -321 0
-317 -322 0
-317 -323 0
-318 -319 0
-318 -320 0
-318 -321 0
-318 -322 0
-318 -323 0
-319 -320 0
-319 -321 0
-319 -322 0
-319 -323 0
-320 -321 0
-320 -322 0
-320 -323 0
-321 -322 0
-321 -323 0
-322 -323 0
307 308 309 310 311 312 313 314 315 316 317 318 319 320 321 322 323 0
-324 -325 0
-324 -326 0
-324 -327 0
-324 -328 0
-324 -329 0
-324 -330 0
-324 -331 0
-324 -332 0
-324 -333 0
-324 -334 0
-324 -335 0
-324 -336 0
-324 -337 0
-324 -338 0
-324 -339 0
-324 -340 0
-325 -326 0
-325 -327 0
-325 -328 0
-325 -329 0
-325 -330 0
-325 -331 0
-325 -332 0
-325 -333 0
-325 -334 0
-325 -335 0
-325 -336 0
-325 -337 0
-325 -338 0
-325 -339 0
-325 -340 0
-326 -327 0
-326 -328 0
-326 -329 0
-326 -330 0
-326 -331 0
-326 -332 0
-326 -333 0
-326 -334 0
-326 -335 0
-326 -336 0
-326 -337 0
-326 -338 0
-326 -339 0
-326 -340 0
-327 -328 0
-327 -329 0
-327 -330 0
-327 -331 0
-327 -332 0
-327 -333 0
-327 -334 0
-327 -335 0
-327 -336 0
-327 -337 0
-327 -338 0
-327 -339 0
-327 -340 0
-328 -329 0
-328 -330 0
-328 -331 0
-328 -332 0
-328 -333 0
-328 -334 0
-328 -335 0
-328 -336 0
-328 -337 0
-328 -338 0
-328 -339 0
-328 -340 0
-329 -330 0
-329 -331 0
-329 -332 0
-329 -333 0
-329 -334 0
-329 -335 0
-329 -336 0
-329 -337 0
-329 -338 0
-329 -339 0
-329 -340 0
-330 -331 0
-330 -332 0
-330 -333 0
-330 -334 0
-330 -335 0
-330 -336 0
-330 -337 0
-330 -338 0
-330 -339 0
-330 -340 0
-331 -332 0
-331 -333 0
-331 -334 0
-331 -335 0
-331 -336 0
-331 -337 0
-331 -338 0
-331 -339 0
-331 -340 0
-332 -333 0
-332 -334 0
-332 -335 0
-332 -336 0
-332 -337 0
-332 -338 0
-332 -339 0
-332 -340 0
-333 -334 0
-333 -335 0
-333 -336 0
-333 -337 0
-333 -338 0
-333 -339 0
-333 -340 0
-334 -335 0
-334 -336 0
-334 -337 0
-334 -338 0
-334 -339 0
-334 -340 0
-335 -336 0
-335 -337 0
-335 -338 0
-335 -339 0
-335 -340 0
-336 -337 0
-336 -338 0
-336 -339 0
-336 -340 0
-337 -338 0
-337 -339 0
-337 -340 0
-338 -339 0
-338 -340 0
-339 -340 0
324 325 326 327 328 329 330 331 332 333 334 335 336 337 338 339 340 0
-341 -342 0
-341 -343 0
-341 -344 0
-341 -345 0
-341 -346 0
-341 -347 0
-341 -348 0
-341 -349 0
-341 -350 0
-341 -351 0
-341 -352 0
-341 -353 0
-341 -354 0
-341 -355 0
-341 -356 0
-341 -357 0
-342 -343 0
-342 -344 0
-342 -345 0
-342 -346 0
-342 -347 0
-342 -348 0
-342 -349 0
-342 -350 0
-342 -351 0
-342 -352 0
-342 -353 0
-342 -354 0
-342 -355 0
-342 -356 0
-342 -357 0
-343 -344 0
-343 -345 0
-343 -346 0
-343 -347 0
-343 -348 0
-343 -349 0
-343 -350 0
-343 -351 0
-343 -352 0
-343 -353 0
-343 -354 0
-343 -355 0
-343 -356 0
-343 -357 0
-344 -345 0
-344 -346 0
-344 -347 0
-344 -348 0
-344 -349 0
-344 -350 0
-344 -351 0
-344 -352 0
-344 -353 0
-344 -354 0
-344 -355 0
-344 -356 0
-344 -357 0
-345 -346 0
-345 -347 0
-345 -348 0
-345 -349 0
-345 -350 0
-345 -351 0
-345 -352 0
-345 -353 0
-345 -354 0
-345 -355 0
-345 -356 0
-345 -357 0
-346 -347 0
-346 -348 0
-346 -349 0
-346 -350 0
-346 -351 0
-346 -352 0
-346 -353 0
-346 -354 0
-346 -355 0
-346 -356 0
-346 -357 0
-347 -348 0
-347 -349 0
-347 -350 0
-347 -351 0
-347 -352 0
-347 -353 0
-347 -354 0
-347 -355 0
-347 -356 0
-347 -357 0
-348 -349 0
-348 -350 0
-348 -351 0
-348 -352 0
-348 -353 0
-348 -354 0
-348 -355 0
-348 -356 0
-348 -357 0
-349 -350 0
-349 -351 0
-349 -352 0
-349 -353 0
-349 -354 0
-349 -355 0
-349 -356 0
-349 -357 0
-350 -351 0
-350 -352 0
-350 -353 0
-350 -354 0
-350 -355 0
-350 -356 0
-350 -357 0
-351 -352 0
-351 -353 0
-351 -354 0
-351 -355 0
-351 -356 0
-351 -357 0
-352 -353 0
-352 -354 0
-352 -355 0
-352 -356 0
-352 -357 0
-353 -354 0
-353 -355 0
-353 -356 0
-353 -357 0
-354 -355 0
-354 -356 0
-354 -357 0
-355 -356 0
-355 -357 0
-356 -357 0
341 342 343 344 345 346 347 348 349 350 351 352 353 354 355 356 357 0
-358 -359 0
-358 -360 0
-358 -361 0
-358 -362 0
-358 -363 0
-358 -364 0
-358 -365 0
-358 -366 0
-358 -367 0
-358 -368 0
-358 -369 0
-358 -370 0
-358 -371 0
-358 -372 0
-358 -373 0
-358 -374 0
-359 -360 0
-359 -361 0
-359 -362 0
-359 -363 0
-359 -364 0
-359 -365 0
-359 -366 0
-359 -367 0
-359 -368 0
-359 -369 0
-359 -370 0
-359 -371 0
-359 -372 0
-359 -373 0
-359 -374 0
-360 -361 0
-360 -362 0
-360 -363 0
-360 -364 0
-360 -365 0
-360 -366 0
-360 -367 0
-360 -368 0
-360 -369 0
-360 -370 0
-360 -371 0
-360 -372 0
-360 -373 0
-360 -374 0
-361 -362 0
-361 -363 0
-361 -364 0
-361 -365 0
-361 -366 0
-361 -367 0
-361 -368 0
-361 -369 0
-361 -370 0
-361 -371 0
-361 -372 0
-361 -373 0
-361 -374 0
-362 -363 0
-362 -364 0
-362 -365 0
-362 -366 0
-362 -367 0
-362 -368 0
-362 -369 0
-362 -370 0
-362 -371 0
-362 -372 0
-362 -373 0
-362 -374 0
-363 -364 0
-363 -365 0
-363 -366 0
-363 -367 0
-363 -368 0
-363 -369 0
-363 -370 0
-363 -371 0
-363 -372 0
-363 -373 0
-363 -374 0
-364 -365 0
-364 -366 0
-364 -367 0
-364 -368 0
-364 -369 0
-364 -370 0
-364 -371 0
-364 -372 0
-364 -373 0
-364 -374 0
-365 -366 0
-365 -367 0
-365 -368 0
-365 -369 0
-365 -370 0
-365 -371 0
-365 -372 0
-365 -373 0
-365 -374 0
-366 -367 0
-366 -368 0
-366 -369 0
-366 -370 0
-366 -371 0
-366 -372 0
-366 -373 0
-366 -374 0
-367 -368 0
-367 -369 0
-367 -370 0
-367 -371 0
-367 -372 0
-367 -373 0
-367 -374 0
-368 -369 0
-368 -370 0
-368 -371 0
-368 -372 0
-368 -373 0
-368 -374 0
-369 -370 0
-369 -371 0
-369 -372 0
-369 -373 0
-369 -374 0
-370 -371 0
-370 -372 0
-370 -373 0
-370 -374 0
-371 -372 0
-371 -373 0
-371 -374 0
-372 -373 0
-372 -374 0
-373 -374 0
358 359 360 361 362 363 364 365 366 367 368 369 370 371 372 373 374 0
-375 -376 0
-375 -377 0
-375 -378 0
-375 -379 0
-375 -380 0
-375 -381 0
-375 -382 0
-375 -383 0
-375 -384 0
-375 -385 0
-375 -386 0
-375 -387 0
-375 -388 0
-375 -389 0
-375 -390 0
-375 -391 0
-376 -377 0
-376 -378 0
-376 -379 0
-376 -380 0
-376 -381 0
-376 -382 0
-376 -383 0
-376 -384 0
-376 -385 0
-376 -386 0
-376 -387 0
-376 -388 0
-376 -389 0
-376 -390 0
-376 -391 0
-377 -378 0
-377 -379 0
-377 -380 0
-377 -381 0
-377 -382 0
-377 -383 0
-377 -384 0
-377 -385 0
-377 -386 0
-377 -387 0
-377 -388 0
-377 -389 0
-377 -390 0
-377 -391 0
-378 -379 0
-378 -380 0
-378 -381 0
-378 -382 0
-378 -383 0
-378 -384 0
-378 -385 0
-378 -386 0
-378 -387 0
-378 -388 0
-378 -389 0
-378 -390 0
-378 -391 0
-379 -380 0
-379 -381 0
-379 -382 0
-379 -383 0
-379 -384 0
-379 -385 0
-379 -386 0
-379 -387 0
-379 -388 0
-379 -389 0
-379 -390 0
-379 -391 0
-380 -381 0
-380 -382 0
-380 -383 0
-380 -384 0
-380 -385 0
-380 -386 0
-380 -387 0
-380 -388 0
-380 -389 0
-380 -390 0
-380 -391 0
-381 -382 0
-381 -383 0
-381 -384 0
-381 -385 0
-381 -386 0
-381 -387 0
-381 -388 0
-381 -389 0
-381 -390 0
-381 -391 0
-382 -383 0
-382 -384 0
-382 -385 0
-382 -386 0
-382 -387 0
-382 -388 0
-382 -389 0
-382 -390 0
-382 -391 0
-383 -384 0
-383 -385 0
-383 -386 0
-383 -387 0
-383 -388 0
-383 -389 0
-383 -390 0
-383 -391 0
-384 -385 0
-384 -386 0
-384 -387 0
-384 -388 0
-384 -389 0
-384 -390 0
-384 -391 0
-385 -386 0
-385 -387 0
-385 -388 0
-385 -389 0
-385 -390 0
-385 -391 0
-386 -387 0
-386 -388 0
-386 -389 0
-386 -390 0
-386 -391 0
-387 -388 0
-387 -389 0
-387 -390 0
-387 -391 0
-388 -389 0
-388 -390 0
-388 -391 0
-389 -390 0
-389 -391 0
-390 -391 0
375 376 377 378 379 380 381 382 383 384 385 386 387 388 389 390 391 0
-392 -393 0
-392 -394 0
-392 -395 0
-392 -396 0
-392 -397 0
-392 -398 0
-392 -399 0
-392 -400 0
-392 -401 0
-392 -402 0
-392 -403 0
-392 -404 0
-392 -405 0
-392 -406 0
-392 -407 0
-392 -408 0
-393 -394 0
-393 -395 0
-393 -396 0
-393 -397 0
-393 -398 0
-393 -399 0
-393 -400 0
-393 -401 0
-393 -402 0
-393 -403 0
-393 -404 0
-393 -405 0
-393 -406 0
-393 -407 0
-393 -408 0
-394 -395 0
-394 -396 0
-394 -397 0
-394 -398 0
-394 -399 0
-394 -400 0
-394 -401 0
-394 -402 0
-394 -403 0
-394 -404 0
-394 -405 0
-394 -406 0
-394 -407 0
-394 -408 0
-395 -396 0
-395 -397 0
-395 -398 0
-395 -399 0
-395 -400 0
-395 -401 0
-395 -402 0
-395 -403 0
-395 -404 0
-395 -405 0
-395 -406 0
-395 -407 0
-395 -408 0
-396 -397 0
-396 -398 0
-396 -399 0
-396 -400 0
-396 -401 0
-396 -402 0
-396 -403 0
-396 -404 0
-396 -405 0
-396 -406 0
-396 -407 0
-396 -408 0
-397 -398 0
-397 -399 0
-397 -400 0
-397 -401 0
-397 -402 0
-397 -403 0
-397 -404 0
-397 -405 0
-397 -406 0
-397 -407 0
-397 -408 0
-398 -399 0
-398 -400 0
-398 -401 0
-398 -402 0
-398 -403 0
-398 -404 0
-398 -405 0
-398 -406 0
-398 -407 0
-398 -408 0
-399 -400 0
-399 -401 0
-399 -402 0
-399 -403 0
-399 -404 0
-399 -405 0
-399 -406 0
-399 -407 0
-399 -408 0
-400 -401 0
-400 -402 0
-400 -403 0
-400 -404 0
-400 -405 0
-400 -406 0
-400 -407 0
-400 -408 0
-401 -402 0
-401 -403 0
-401 -404 0
-401 -405 0
-401 -406 0
-401 -407 0
-401 -408 0
-402 -403 0
-402 -404 0
-402 -405 0
-402 -406 0
-402 -407 0
-402 -408 0
-403 -404 0
-403 -405 0
-403 -406 0
-403 -407 0
-403 -408 0
-404 -405 0
-404 -406 0
-404 -407 0
-404 -408 0
-405 -406 0
-405 -407 0
-405 -408 0
-406 -407 0
-406 -408 0
-407 -408 0
392 393 394 395 396 397 398 399 400 401 402 403 404 405 406 407 408 0
-409 -410 0
-409 -411 0
-409 -412 0
-409 -413 0
-409 -414 0
-409 -415 0
-409 -416 0
-409 -417 0
-409 -418 0
-409 -419 0
-409 -420 0
-409 -421 0
-409 -422 0
-409 -423 0
-409 -424 0
-409 -425 0
-410 -411 0
-410 -412 0
-410 -413 0
-410 -414 0
-410 -415 0
-410 -416 0
-410 -417 0
-410 -418 0
-410 -419 0
-410 -420 0
-410 -421 0
-410 -422 0
-410 -423 0
-410 -424 0
-410 -425 0
-411 -412 0
-411 -413 0
-411 -414 0
-411 -415 0
-411 -416 0
-411 -417 0
-411 -418 0
-411 -419 0
-411 -420 0
-411 -421 0
-411 -422 0
-411 -423 0
-411 -424 0
-411 -425 0
-412 -413 0
-412 -414 0
-412 -415 0
-412 -416 0
-412 -417 0
-412 -418 0
-412 -419 0
-412 -420 0
-412 -421 0
-412 -422 0
-412 -423 0
-412 -424 0
-412 -425 0
-413 -414 0
-413 -415 0
-413 -416 0
-413 -417 0
-413 -418 0
-413 -419 0
-413 -420 0
-413 -421 0
-413 -422 0
-413 -423 0
-413 -424 0
-413 -425 0
-414 -415 0
-414 -416 0
-414 -417 0
-414 -418 0
-414 -419 0
-414 -420 0
-414 -421 0
-414 -422 0
-414 -423 0
-414 -424 0
-414 -425 0
-415 -416 0
-415 -417 0
-415 -418 0
-415 -419 0
-415 -420 0
-415 -421 0
-415 -422 0
-415 -423 0
-415 -424 0
-415 -425 0
-416 -417 0
-416 -418 0
-416 -419 0
-416 -420 0
-416 -421 0
-416 -422 0
-416 -423 0
-416 -424 0
-416 -425 0
-417 -418 0
-417 -419 0
-417 -420 0
-417 -421 0
-417 -422 0
-417 -423 0
-417 -424 0
-417 -425 0
-418 -419 0
-418 -420 0
-418 -421 0
-418 -422 0
-418 -423 0
-418 -424 0
-418 -425 0
-419 -420 0
-419 -421 0
-419 -422 0
-419 -423 0
-419 -424 0
-419 -425 0
-420 -421 0
-420 -422 0
-420 -423 0
-420 -424 0
-420 -425 0
-421 -422 0
-421 -423 0
-421 -424 0
-421 -425 0
-422 -423 0
-422 -424 0
-422 -425 0
-423 -424 0
-423 -425 0
-424 -425 0
409 410 411 412 413 414 415 416 417 418 419 420 421 422 423 424 425 0
-426 -427 0
-426 -428 0
-426 -429 0
-426 -430 0
-426 -431 0
-426 -432 0
-426 -433 0
-426 -434 0
-426 -435 0
-426 -436 0
-426 -437 0
-426 -438 0
-426 -439 0
-426 -440 0
-426 -441 0
-426 -442 0
-427 -428 0
-427 -429 0
-427 -430 0
-427 -431 0
-427 -432 0
-427 -433 0
-427 -434 0
-427 -435 0
-427 -436 0
-427 -437 0
-427 -438 0
-427 -439 0
-427 -440 0
-427 -441 0
-427 -442 0
-428 -429 0
-428 -430 0
-428 -431 0
-428 -432 0
-428 -433 0
-428 -434 0
-428 -435 0
-428 -436 0
-428 -437 0
-428 -438 0
-428 -439 0
-428 -440 0
-428 -441 0
-428 -442 0
-429 -430 0
-429 -431 0
-429 -432 0
-429 -433 0
-429 -434 0
-429 -435 0
-429 -436 0
-429 -437 0
-429 -438 0
-429 -439 0
-429 -440 0
-429 -441 0
-429 -442 0
-430 -431 0
-430 -432 0
-430 -433 0
-430 -434 0
-430 -435 0
-430 -436 0
-430 -437 0
-430 -438 0
-430 -439 0
-430 -440 0
-430 -441 0
-430 -442 0
-431 -432 0
-431 -433 0
-431 -434 0
-431 -435 0
-431 -436 0
-431 -437 0
-431 -438 0
-431 -439 0
-431 -440 0
-431 -441 0
-431 -442 0
-432 -433 0
-432 -434 0
-432 -435 0
-432 -436 0
-432 -437 0
-432 -438 0
-432 -439 0
-432 -440 0
-432 -441 0
-432 -442 0
-433 -434 0
-433 -435 0
-433 -436 0
-433 -437 0
-433 -438 0
-433 -439 0
-433 -440 0
-433 -441 0
-433 -442 0
-434 -435 0
-434 -436 0
-434 -437 0
-434 -438 0
-434 -439 0
-434 -440 0
-434 -441 0
-434 -442 0
-435 -436 0
-435 -437 0
-435 -438 0
-435 -439 0
-435 -440 0
-435 -441 0
-435 -442 0
-436 -437 0
-436 -438 0
-436 -439 0
-436 -440 0
-436 -441 0
-436 -442 0
-437 -438 0
-437 -439 0
-437 -440 0
-437 -441 0
-437 -442 0
-438 -439 0
-438 -440 0
-438 -441 0
-438 -442 0
-439 -440 0
-439 -441 0
-439 -442 0
-440 -441 0
-440 -442 0
-441 -442 0
426 427 428 429 430 431 432 433 434 435 436 437 438 439 440 441 442 0
-443 -444 0
-443 -445 0
-443 -446 0
-443 -447 0
-443 -448 0
-443 -449 0
-443 -450 0
-443 -451 0
-443 -452 0
-443 -453 0
-443 -454 0
-443 -455 0
-443 -456 0
-443 -457 0
-443 -458 0
-443 -459 0
-444 -445 0
-444 -446 0
-444 -447 0
-444 -448 0
-444 -449 0
-444 -450 0
-444 -451 0
-444 -452 0
-444 -453 0
-444 -454 0
-444 -455 0
-444 -456 0
-444 -457 0
-444 -458 0
-444 -459 0
-445 -446 0
-445 -447 0
-445 -448 0
-445 -449 0
-445 -450 0
-445 -451 0
-445 -452 0
-445 -453 0
-445 -454 0
-445 -455 0
-445 -456 0
-445 -457 0
-445 -458 0
-445 -459 0
-446 -447 0
-446 -448 0
-446 -449 0
-446 -450 0
-446 -451 0
-446 -452 0
-446 -453 0
-446 -454 0
-446 -455 0
-446 -456 0
-446 -457 0
-446 -458 0
-446 -459 0
-447 -448 0
-447 -449 0
-447 -450 0
-447 -451 0
-447 -452 0
-447 -453 0
-447 -454 0
-447 -455 0
-447 -456 0
-447 -457 0
-447 -458 0
-447 -459 0
-448 -449 0
-448 -450 0
-448 -451 0
-448 -452 0
-448 -453 0
-448 -454 0
-448 -455 0
-448 -456 0
-448 -457 0
-448 -458 0
-448 -459 0
-449 -450 0
-449 -451 0
-449 -452 0
-449 -453 0
-449 -454 0
-449 -455 0
-449 -456 0
-449 -457 0
-449 -458 0
-449 -459 0
-450 -451 0
-450 -452 0
-450 -453 0
-450 -454 0
-450 -455 0
-450 -456 0
-450 -457 0
-450 -458 0
-450 -459 0
-451 -452 0
-451 -453 0
-451 -454 0
-451 -455 0
-451 -456 0
-451 -457 0
-451 -458 0
-451 -459 0
-452 -453 0
-452 -454 0
-452 -455 0
-452 -456 0
-452 -457 0
-452 -458 0
-452 -459 0
-453 -454 0
-453 -455 0
-453 -456 0
-453 -457 0
-453 -458 0
-453 -459 0
-454 -455 0
-454 -456 0
-454 -457 0
-454 -458 0
-454 -459 0
-455 -456 0
-455 -457 0
-455 -458 0
-455 -459 0
-456 -457 0
-456 -458 0
-456 -459 0
-457 -458 0
-457 -459 0
-458 -459 0
443 444 445 446 447 448 449 450 451 452 453 454 455 456 457 458 459 0
-460 -461 0
-460 -462 0
-460 -463 0
-460 -464 0
-460 -465 0
-460 -466 0
-460 -467 0
-460 -468 0
-460 -469 0
-460 -470 0
-460 -471 0
-460 -472 0
-460 -473 0
-460 -474 0
-460 -475 0
-460 -476 0
-461 -462 0
-461 -463 0
-461 -464 0
-461 -465 0
-461 -466 0
-461 -467 0
-461 -468 0
-461 -469 0
-461 -470 0
-461 -471 0
-461 -472 0
-461 -473 0
-461 -474 0
-461 -475 0
-461 -476 0
-462 -463 0
-462 -464 0
-462 -465 0
-462 -466 0
-462 -467 0
-462 -468 0
-462 -469 0
-462 -470 0
-462 -471 0
-462 -472 0
-462 -473 0
-462 -474 0
-462 -475 0
-462 -476 0
-463 -464 0
-463 -465 0
-463 -466 0
-463 -467 0
-463 -468 0
-463 -469 0
-463 -470 0
-463 -471 0
-463 -472 0
-463 -473 0
-463 -474 0
-463 -475 0
-463 -476 0
-464 -465 0
-464 -466 0
-464 -467 0
-464 -468 0
-464 -469 0
-464 -470 0
-464 -471 0
-464 -472 0
-464 -473 0
-464 -474 0
-464 -475 0
-464 -476 0
-465 -466 0
-465 -467 0
-465 -468 0
-465 -469 0
-465 -470 0
-465 -471 0
-465 -472 0
-465 -473 0
-465 -474 0
-465 -475 0
-465 -476 0
-466 -467 0
-466 -468 0
-466 -469 0
-466 -470 0
-466 -471 0
-466 -472 0
-466 -473 0
-466 -474 0
-466 -475 0
-466 -476 0
-467 -468 0
-467 -469 0
-467 -470 0
-467 -471 0
-467 -472 0
-467 -473 0
-467 -474 0
-467 -475 0
-467 -476 0
-468 -469 0
-468 -470 0
-468 -471 0
-468 -472 0
-468 -473 0
-468 -474 0
-468 -475 0
-468 -476 0
-469 -470 0
-469 -471 0
-469 -472 0
-469 -473 0
-469 -474 0
-469 -475 0
-469 -476 0
-470 -471 0
-470 -472 0
-470 -473 0
-470 -474 0
-470 -475 0
-470 -476 0
-471 -472 0
-471 -473 0
-471 -474 0
-471 -475 0
-471 -476 0
-472 -473 0
-472 -474 0
-472 -475 0
-472 -476 0
-473 -474 0
-473 -475 0
-473 -476 0
-474 -475 0
-474 -476 0
-475 -476 0
460 461 462 463 464 465 466 467 468 469 470 471 472 473 474 475 476 0
-477 -478 0
-477 -479 0
-477 -480 0
-477 -481 0
-477 -482 0
-477 -483 0
-477 -484 0
-477 -485 0
-477 -486 0
-477 -487 0
-477 -488 0
-477 -489 0
-477 -490 0
-477 -491 0
-477 -492 0
-477 -493 0
-478 -479 0
-478 -480 0
-478 -481 0
-478 -482 0
-478 -483 0
-478 -484 0
-478 -485 0
-478 -486 0
-478 -487 0
-478 -488 0
-478 -489 0
-478 -490 0
-478 -491 0
-478 -492 0
-478 -493 0
-479 -480 0
-479 -481 0
-479 -482 0
-479 -483 0
-479 -484 0
-479 -485 0
-479 -486 0
-479 -487 0
-479 -488 0
-479 -489 0
-479 -490 0
-479 -491 0
-479 -492 0
-479 -493 0
-480 -481 0
-480 -482 0
-480 -483 0
-480 -484 0
-480 -485 0
-480 -486 0
-480 -487 0
-480 -488 0
-480 -489 0
-480 -490 0
-480 -491 0
-480 -492 0
-480 -493 0
-481 -482 0
-481 -483 0
-481 -484 0
-481 -485 0
-481 -486 0
-481 -487 0
-481 -488 0
-481 -489 0
-481 -490 0
-481 -491 0
-481 -492 0
-481 -493 0
-482 -483 0
-482 -484 0
-482 -485 0
-482 -486 0
-482 -487 0
-482 -488 0
-482 -489 0
-482 -490 0
-482 -491 0
-482 -492 0
-482 -493 0
-483 -484 0
-483 -485 0
-483 -486 0
-483 -487 0
-483 -488 0
-483 -489 0
-483 -490 0
-483 -491 0
-483 -492 0
-483 -493 0
-484 -485 0
-484 -486 0
-484 -487 0
-484 -488 0
-484 -489 0
-484 -490 0
-484 -491 0
-484 -492 0
-484 -493 0
-485 -486 0
-485 -487 0
-485 -488 0
-485 -489 0
-485 -490 0
-485 -491 0
-485 -492 0
-485 -493 0
-486 -487 0
-486 -488 0
-486 -489 0
-486 -490 0
-486 -491 0
-486 -492 0
-486 -493 0
-487 -488 0
-487 -489 0
-487 -490 0
-487 -491 0
-487 -492 0
-487 -493 0
-488 -489 0
-488 -490 0
-488 -491 0
-488 -492 0
-488 -493 0
-489 -490 0
-489 -491 0
-489 -492 0
-489 -493 0
-490 -491 0
-490 -492 0
-490 -493 0
-491 -492 0
-491 -493 0
-492 -493 0
477 478 479 480 481 482 483 484 485 486 487 488 489 490 491 492 493 0
-494 -495 0
-494 -496 0
-494 -497 0
-494 -498 0
-494 -499 0
-494 -500 0
-494 -501 0
-494 -502 0
-494 -503 0
-494 -504 0
-494 -505 0
-494 -506 0
-494 -507 0
-494 -508 0
-494 -509 0
-494 -510 0
-495 -496 0
-495 -497 0
-495 -498 0
-495 -499 0
-495 -500 0
-495 -501 0
-495 -502 0
-495 -503 0
-495 -504 0
-495 -505 0
-495 -506 0
-495 -507 0
-495 -508 0
-495 -509 0
-495 -510 0
-496 -497 0
-496 -498 0
-496 -499 0
-496 -500 0
-496 -501 0
-496 -502 0
-496 -503 0
-496 -504 0
-496 -505 0
-496 -506 0
-496 -507 0
-496 -508 0
-496 -509 0
-496 -510 0
-497 -498 0
-497 -499 0
-497 -500 0
-497 -501 0
-497 -502 0
-497 -503 0
-497 -504 0
-497 -505 0
-497 -506 0
-497 -507 0
-497 -508 0
-497 -509 0
-497 -510 0
-498 -499 0
-498 -500 0
-498 -501 0
-498 -502 0
-498 -503 0
-498 -504 0
-498 -505 0
-498 -506 0
-498 -507 0
-498 -508 0
-498 -509 0
-498 -510 0
-499 -500 0
-499 -501 0
-499 -502 0
-499 -503 0
-499 -504 0
-499 -505 0
-499 -506 0
-499 -507 0
-499 -508 0
-499 -509 0
-499 -510 0
-500 -501 0
-500 -502 0
-500 -503 0
-500 -504 0
-500 -505 0
-500 -506 0
-500 -507 0
-500 -508 0
-500 -509 0
-500 -510 0
-501 -502 0
-501 -503 0
-501 -504 0
-501 -505 0
-501 -506 0
-501 -507 0
-501 -508 0
-501 -509 0
-501 -510 0
-502 -503 0
-502 -504 0
-502 -505 0
-502 -506 0
-502 -507 0
-502 -508 0
-502 -509 0
-502 -510 0
-503 -504 0
-503 -505 0
-503 -506 0
-503 -507 0
-503 -508 0
-503 -509 0
-503 -510 0
-504 -505 0
-504 -506 0
-504 -507 0
-504 -508 0
-504 -509 0
-504 -510 0
-505 -506 0
-505 -507 0
-505 -508 0
-505 -509 0
-505 -510 0
-506 -507 0
-506 -508 0
-506 -509 0
-506 -510 0
-507 -508 0
-507 -509 0
-507 -510 0
-508 -509 0
-508 -510 0
-509 -510 0
494 495 496 497 498 499 500 501 502 503 504 505 506 507 508 509 510 0
-511 -512 0
-511 -513 0
-511 -514 0
-511 -515 0
-511 -516 0
-511 -517 0
-511 -518 0
-511 -519 0
-511 -520 0
-511 -521 0
-511 -522 0
-511 -523 0
-511 -524 0
-511 -525 0
-511 -526 0
-511 -527 0
-512 -513 0
-512 -514 0
-512 -515 0
-512 -516 0
-512 -517 0
-512 -518 0
-512 -519 0
-512 -520 0
-512 -521 0
-512 -522 0
-512 -523 0
-512 -524 0
-512 -525 0
-512 -526 0
-512 -527 0
-513 -514 0
-513 -515 0
-513 -516 0
-513 -517 0
-513 -518 0
-513 -519 0
-513 -520 0
-513 -521 0
-513 -522 0
-513 -523 0
-513 -524 0
-513 -525 0
-513 -526 0
-513 -527 0
-514 -515 0
-514 -516 0
-514 -517 0
-514 -518 0
-514 -519 0
-514 -520 0
-514 -521 0
-514 -522 0
-514 -523 0
-514 -524 0
-514 -525 0
-514 -526 0
-514 -527 0
-515 -516 0
-515 -517 0
-515 -518 0
-515 -519 0
-515 -520 0
-515 -521 0
-515 -522 0
-515 -523 0
-515 -524 0
-515 -525 0
-515 -526 0
-515 -527 0
-516 -517 0
-516 -518 0
-516 -519 0
-516 -520 0
-516 -521 0
-516 -522 0
-516 -523 0
-516 -524 0
-516 -525 0
-516 -526 0
-516 -527 0
-517 -518 0
-517 -519 0
-517 -520 0
-517 -521 0
-517 -522 0
-517 -523 0
-517 -524 0
-517 -525 0
-517 -526 0
-517 -527 0
-518 -519 0
-518 -520 0
-518 -521 0
-518 -522 0
-518 -523 0
-518 -524 0
-518 -525 0
-518 -526 0
-518 -527 0
-519 -520 0
-519 -521 0
-519 -522 0
-519 -523 0
-519 -524 0
-519 -525 0
-519 -526 0
-519 -527 0
-520 -521 0
-520 -522 0
-520 -523 0
-520 -524 0
-520 -525 0
-520 -526 0
-520 -527 0
-521 -522 0
-521 -523 0
-521 -524 0
-521 -525 0
-521 -526 0
-521 -527 0
-522 -523 0
-522 -524 0
-522 -525 0
-522 -526 0
-522 -527 0
-523 -524 0
-523 -525 0
-523 -526 0
-523 -527 0
-524 -525 0
-524 -526 0
-524 -527 0
-525 -526 0
-525 -527 0
-526 -527 0
511 512 513 514 515 516 517 518 519 520 521 522 523 524 525 526 527 0
-528 -529 0
-528 -530 0
-528 -531 0
-528 -532 0
-528 -533 0
-528 -534 0
-528 -535 0
-528 -536 0
-528 -537 0
-528 -538 0
-528 -539 0
-528 -540 0
-528 -541 0
-528 -542 0
-528 -543 0
-528 -544 0
-529 -530 0
-529 -531 0
-529 -532 0
-529 -533 0
-529 -534 0
-529 -535 0
-529 -536 0
-529 -537 0
-529 -538 0
-529 -539 0
-529 -540 0
-529 -541 0
-529 -542 0
-529 -543 0
-529 -544 0
-530 -531 0
-530 -532 0
-530 -533 0
-530 -534 0
-530 -535 0
-530 -536 0
-530 -537 0
-530 -538 0
-530 -539 0
-530 -540 0
-530 -541 0
-530 -542 0
-530 -543 0
-530 -544 0
-531 -532 0
-531 -533 0
-531 -534 0
-531 -535 0
-531 -536 0
-531 -537 0
-531 -538 0
-531 -539 0
-531 -540 0
-531 -541 0
-531 -542 0
-531 -543 0
-531 -544 0
-532 -533 0
-532 -534 0
-532 -535 0
-532 -536 0
-532 -537 0
-532 -538 0
-532 -539 0
-532 -540 0
-532 -541 0
-532 -542 0
-532 -543 0
-532 -544 0
-533 -534 0
-533 -535 0
-533 -536 0
-533 -537 0
-533 -538 0
-533 -539 0
-533 -540 0
-533 -541 0
-533 -542 0
-533 -543 0
-533 -544 0
-534 -535 0
-534 -536 0
-534 -537 0
-534 -538 0
-534 -539 0
-534 -540 0
-534 -541 0
-534 -542 0
-534 -543 0
-534 -544 0
-535 -536 0
-535 -537 0
-535 -538 0
-535 -539 0
-535 -540 0
-535 -541 0
-535 -542 0
-535 -543 0
-535 -544 0
-536 -537 0
-536 -538 0
-536 -539 0
-536 -540 0
-536 -541 0
-536 -542 0
-536 -543 0
-536 -544 0
-537 -538 0
-537 -539 0
-537 -540 0
-537 -541 0
-537 -542 0
-537 -543 0
-537 -544 0
-538 -539 0
-538 -540 0
-538 -541 0
-538 -542 0
-538 -543 0
-538 -544 0
-539 -540 0
-539 -541 0
-539 -542 0
-539 -543 0
-539 -544 0
-540 -541 0
-540 -542 0
-540 -543 0
-540 -544 0
-541 -542 0
-541 -543 0
-541 -544 0
-542 -543 0
-542 -544 0
-543 -544 0
528 529 530 531 532 533 534 535 536 537 538 539 540 541 542 543 544 0
-1 -17 0
-1 -33 0
-1 -49 0
-1 -65 0
-1 -81 0
-1 -97 0
-1 -113 0
-1 -129 0
-1 -145 0
-1 -161 0
-1 -177 0
-1 -193 0
-1 -209 0
-1 -225 0
-1 -241 0
-1 -257 0
-17 -33 0
-17 -49 0
-17 -65 0
-17 -81 0
-17 -97 0
-17 -113 0
-17 -129 0
-17 -145 0
-17 -161 0
-17 -177 0
-17 -193 0
-17 -209 0
-17 -225 0
-17 -241 0
-17 -257 0
-33 -49 0
-33 -65 0
-33 -81 0
-33 -97 0
-33 -113 0
-33 -129 0
-33 -145 0
-33 -161 0
-33 -177 0
-33 -193 0
-33 -209 0
-33 -225 0
-33 -241 0
-33 -257 0
-49 -65 0
-49 -81 0
-49 -97 0
-49 -113 0
-49 -129 0
-49 -145 0
-49 -161 0
-49 -177 0
-49 -193 0
-49 -209 0
-49 -225 0
-49 -241 0
-49 -257 0
-65 -81 0
-65 -97 0
-65 -113 0
-65 -129 0
-65 -145 0
-65 -161 0
-65 -177 0
-65 -193 0
-65 -209 0
-65 -225 0
-65 -241 0
-65 -257 0
-81 -97 0
-81 -113 0
-81 -129 0
-81 -145 0
-81 -161 0
-81 -177 0
-81 -193 0
-81 -209 0
-81 -225 0
-81 -241 0
-81 -257 0
-97 -113 0
-97 -129 0
-97 -145 0
-97 -161 0
-97 -177 0
-97 -193 0
-97 -209 0
-97 -225 0
-97 -241 0
-97 -257 0
-113 -129 0
-113 -145 0
-113 -161 0
-113 -177 0
-113 -193 0
-113 -209 0
-113 -225 0
-113 -241 0
-113 -257 0
-129 -145 0
-129 -161 0
-129 -177 0
-129 -193 0
-129 -209 0
-129 -225 0
-129 -241 0
-129 -257 0
-145 -161 0
-145 -177 0
-145 -193 0
-145 -209 0
-145 -225 0
-145 -241 0
-145 -257 0
-161 -177 0
-161 -193 0
-161 -209 0
-161 -225 0
-161 -241 0
-161 -257 0
-177 -193 0
-177 -209 0
-177 -225 0
-177 -241 0
-177 -257 0
-193 -209 0
-193 -225 0
-193 -241 0
-193 -257 0
-209 -225 0
-209 -241 0
-209 -257 0
-225 -241 0
-225 -257 0
-241 -257 0
-2 -18 0
-2 -34 0
-2 -50 0
-2 -66 0
-2 -82 0
-2 -98 0
-2 -114 0
-2 -130 0
-2 -146 0
-2 -162 0
-2 -178 0
-2 -194 0
-2 -210 0
-2 -226 0
-2 -242 0
-2 -258 0
-18 -34 0
-18 -50 0
-18 -66 0
-18 -82 0
-18 -98 0
-18 -114 0
-18 -130 0
-18 -146 0
-18 -162 0
-18 -178 0
-18 -194 0
-18 -210 0
-18 -226 0
-18 -242 0
-18 -258 0
-34 -50 0
-34 -66 0
-34 -82 0
-34 -98 0
-34 -114 0
-34 -130 0
-34 -146 0
-34 -162 0
-34 -178 0
-34 -194 0
-34 -210 0
-34 -226 0
-34 -242 0
-34 -258 0
-50 -66 0
-50 -82 0
-50 -98 0
-50 -114 0
-50 -130 0
-50 -146 0
-50 -162 0
-50 -178 0
-50 -194 0
-50 -210 0
-50 -226 0
-50 -242 0
-50 -258 0
-66 -82 0
-66 -98 0
-66 -114 0
-66 -130 0
-66 -146 0
-66 -162 0
-66 -178 0
-66 -194 0
-66 -210 0
-66 -226 0
-66 -242 0
-66 -258 0
-82 -98 0
-82 -114 0
-82 -130 0
-82 -146 0
-82 -162 0
-82 -178 0
-82 -194 0
-82 -210 0
-82 -226 0
-82 -242 0
-82 -258 0
-98 -114 0
-98 -130 0
-98 -146 0
-98 -162 0
-98 -178 0
-98 -194 0
-98 -210 0
-98 -226 0
-98 -242 0
-98 -258 0
-114 -130 0
-114 -146 0
-114 -162 0
-114 -178 0
-114 -194 0
-114 -210 0
-114 -226 0
-114 -242 0
-114 -258 0
-130 -146 0
-130 -162 0
-130 -178 0
-130 -194 0
-130 -210 0
-130 -226 0
-130 -242 0
-130 -258 0
-146 -162 0
-146 -178 0
-146 -194 0
-146 -210 0
-146 -226 0
-146 -242 0
-146 -258 0
-162 -178 0
-162 -194 0
-162 -210 0
-162 -226 0
-162 -242 0
-162 -258 0
-178 -194 0
-178 -210 0
-178 -226 0
-178 -242 0
-178 -258 0
-194 -210 0
-194 -226 0
-194 -242 0
-194 -258 0
-210 -226 0
-210 -242 0
-210 -258 0
-226 -242 0
-226 -258 0
-242 -258 0
-3 -19 0
-3 -35 0
-3 -51 0
-3 -67 0
-3 -83 0
-3 -99 0
-3 -115 0
-3 -131 0
-3 -147 0
-3 -163 0
-3 -179 0
-3 -195 0
-3 -211 0
-3 -227 0
-3 -243 0
-3 -259 0
-19 -35 0
-19 -51 0
-19 -67 0
-19 -83 0
-19 -99 0
-19 -115 0
-19 -131 0
-19 -147 0
-19 -163 0
-19 -179 0
-19 -195 0
-19 -211 0
-19 -227 0
-19 -243 0
-19 -259 0
-35 -51 0
-35 -67 0
-35 -83 0
-35 -99 0
-35 -115 0
-35 -131 0
-35 -147 0
-35 -163 0
-35 -179 0
-35 -195 0
-35 -211 0
-35 -227 0
-35 -243 0
-35 -259 0
-51 -67 0
-51 -83 0
-51 -99 0
-51 -115 0
-51 -131 0
-51 -147 0
-51 -163 0
-51 -179 0
-51 -195 0
-51 -211 0
-51 -227 0
-51 -243 0
-51 -259 0
-67 -83 0
-67 -99 0
-67 -115 0
-67 -131 0
-67 -147 0
-67 -163 0
-67 -179 0
-67 -195 0
-67 -211 0
-67 -227 0
-67 -243 0
-67 -259 0
-83 -99 0
-83 -115 0
-83 -131 0
-83 -147 0
-83 -163 0
-83 -179 0
-83 -195 0
-83 -211 0
-83 -227 0
-83 -243 0
-83 -259 0
-99 -115 0
-99 -131 0
-99 -147 0
-99 -163 0
-99 -179 0
-99 -195 0
-99 -211 0
-99 -227 0
-99 -243 0
-99 -259 0
-115 -131 0
-115 -147 0
-115 -163 0
-115 -179 0
-115 -195 0
-115 -211 0
-115 -227 0
-115 -243 0
-115 -259 0
-131 -147 0
-131 -163 0
-131 -179 0
-131 -195 0
-131 -211 0
-131 -227 0
-131 -243 0
-131 -259 0
-147 -163 0
-147 -179 0
-147 -195 0
-147 -211 0
-147 -227 0
-147 -243 0
-147 -259 0
-163 -179 0
-163 -195 0
-163 -211 0
-163 -227 0
-163 -243 0
-163 -259 0
-179 -195 0
-179 -211 0
-179 -227 0
-179 -243 0
-179 -259 0
-195 -211 0
-195 -227 0
-195 -243 0
-195 -259 0
-211 -227 0
-211 -243 0
-211 -259 0
-227 -243 0
-227 -259 0
-243 -259 0
-4 -20 0
-4 -36 0
-4 -52 0
-4 -68 0
-4 -84 0
-4 -100 0
-4 -116 0
-4 -132 0
-4 -148 0
-4 -164 0
-4 -180 0
-4 -196 0
-4 -212 0
-4 -228 0
-4 -244 0
-4 -260 0
-20 -36 0
-20 -52 0
-20 -68 0
-20 -84 0
-20 -100 0
-20 -116 0
-20 -132 0
-20 -148 0
-20 -164 0
-20 -180 0
-20 -196 0
-20 -212 0
-20 -228 0
-20 -244 0
-20 -260 0
-36 -52 0
-36 -68 0
-36 -84 0
-36 -100 0
-36 -116 0
-36 -132 0
-36 -148 0
-36 -164 0
-36 -180 0
-36 -196 0
-36 -212 0
-36 -228 0
-36 -244 0
-36 -260 0
-52 -68 0
-52 -84 0
-52 -100 0
-52 -116 0
-52 -132 0
-52 -148 0
-52 -164 0
-52 -180 0
-52 -196 0
-52 -212 0
-52 -228 0
-52 -244 0
-52 -260 0
-68 -84 0
-68 -100 0
-68 -116 0
-68 -132 0
-68 -148 0
-68 -164 0
-68 -180 0
-68 -196 0
-68 -212 0
-68 -228 0
-68 -244 0
-68 -260 0
-84 -100 0
-84 -116 0
-84 -132 0
-84 -148 0
-84 -164 0
-84 -180 0
-84 -196 0
-84 -212 0
-84 -228 0
-84 -244 0
-84 -260 0
-100 -116 0
-100 -132 0
-100 -148 0
-100 -164 0
-100 -180 0
-100 -196 0
-100 -212 0
-100 -228 0
-100 -244 0
-100 -260 0
-116 -132 0
-116 -148 0
-116 -164 0
-116 -180 0
-116 -196 0
-116 -212 0
-116 -228 0
-116 -244 0
-116 -260 0
-132 -148 0
-132 -164 0
-132 -180 0
-132 -196 0
-132 -212 0
-132 -228 0
-132 -244 0
-132 -260 0
-148 -164 0
-148 -180 0
-148 -196 0
-148 -212 0
-148 -228 0
-148 -244 0
-148 -260 0
-164 -180 0
-164 -196 0
-164 -212 0
-164 -228 0
-164 -244 0
-164 -260 0
-180 -196 0
-180 -212 0
-180 -228 0
-180 -244 0
-180 -260 0
-196 -212 0
-196 -228 0
-196 -244 0
-196 -260 0
-212 -228 0
-212 -244 0
-212 -260 0
-228 -244 0
-228 -260 0
-244 -260 0
-5 -21 0
-5 -37 0
-5 -53 0
-5 -69 0
-5 -85 0
-5 -101 0
-5 -117 0
-5 -133 0
-5 -149 0
-5 -165 0
-5 -181 0
-5 -197 0
-5 -213 0
-5 -229 0
-5 -245 0
-5 -261 0
-21 -37 0
-21 -53 0
-21 -69 0
-21 -85 0
-21 -101 0
-21 -117 0
-21 -133 0
-21 -149 0
-21 -165 0
-21 -181 0
-21 -197 0
-21 -213 0
-21 -229 0
-21 -245 0
-21 -261 0
-37 -53 0
-37 -69 0
-37 -85 0
-37 -101 0
-37 -117 0
-37 -133 0
-37 -149 0
-37 -165 0
-37 -181 0
-37 -197 0
-37 -213 0
-37 -229 0
-37 -245 0
-37 -261 0
-53 -69 0
-53 -85 0
-53 -101 0
-53 -117 0
-53 -133 0
-53 -149 0
-53 -165 0
-53 -181 0
-53 -197 0
-53 -213 0
-53 -229 0
-53 -245 0
-53 -261 0
-69 -85 0
-69 -101 0
-69 -117 0
-69 -133 0
-69 -149 0
-69 -165 0
-69 -181 0
-69 -197 0
-69 -213 0
-69 -229 0
-69 -245 0
-69 -261 0
-85 -101 0
-85 -117 0
-85 -133 0
-85 -149 0
-85 -165 0
-85 -181 0
-85 -197 0
-85 -213 0
-85 -229 0
-85 -245 0
-85 -261 0
-101 -117 0
-101 -133 0
-101 -149 0
-101 -165 0
-101 -181 0
-101 -197 0
-101 -213 0
-101 -229 0
-101 -245 0
-101 -261 0
-117 -133 0
-117 -149 0
-117 -165 0
-117 -181 0
-117 -197 0
-117 -213 0
-117 -229 0
-117 -245 0
-117 -261 0
-133 -149 0
-133 -165 0
-133 -181 0
-133 -197 0
-133 -213 0
-133 -229 0
-133 -245 0
-133 -261 0
-149 -165 0
-149 -181 0
-149 -197 0
-149 -213 0
-149 -229 0
-149 -245 0
-149 -261 0
-165 -181 0
-165 -197 0
-165 -213 0
-165 -229 0
-165 -245 0
-165 -261 0
-181 -197 0
-181 -213 0
-181 -229 0
-181 -245 0
-181 -261 0
-197 -213 0
-197 -229 0
-197 -245 0
-197 -261 0
-213 -229 0
-213 -245 0
-213 -261 0
-229 -245 0
-229 -261 0
-245 -261 0
-6 -22 0
-6 -38 0
-6 -54 0
-6 -70 0
-6 -86 0
-6 -102 0
-6 -118 0
-6 -134 0
-6 -150 0
-6 -166 0
-6 -182 0
-6 -198 0
-6 -214 0
-6 -230 0
-6 -246 0
-6 -262 0
-22 -38 0
-22 -54 0
-22 -70 0
-22 -86 0
-22 -102 0
-22 -118 0
-22 -134 0
-22 -150 0
-22 -166 0
-22 -182 0
-22 -198 0
-22 -214 0
-22 -230 0
-22 -246 0
-22 -262 0
-38 -54 0
-38 -70 0
-38 -86 0
-38 -102 0
-38 -118 0
-38 -134 0
-38 -150 0
-38 -166 0
-38 -182 0
-38 -198 0
-38 -214 0
-38 -230 0
-38 -246 0
-38 -262 0
-54 -70 0
-54 -86 0
-54 -102 0
-54 -118 0
-54 -134 0
-54 -150 0
-54 -166 0
-54 -182 0
-54 -198 0
-54 -214 0
-54 -230 0
-54 -246 0
-54 -262 0
-70 -86 0
-70 -102 0
-70 -118 0
-70 -134 0
-70 -150 0
-70 -166 0
-70 -182 0
-70 -198 0
-70 -214 0
-70 -230 0
-70 -246 0
-70 -262 0
-86 -102 0
-86 -118 0
-86 -134 0
-86 -150 0
-86 -166 0
-86 -182 0
-86 -198 0
-86 -214 0
-86 -230 0
-86 -246 0
-86 -262 0
-102 -118 0
-102 -134 0
-102 -150 0
-102 -166 0
-102 -182 0
-102 -198 0
-102 -214 0
-102 -230 0
-102 -246 0
-102 -262 0
-118 -134 0
-118 -150 0
-118 -166 0
-118 -182 0
-118 -198 0
-118 -214 0
-118 -230 0
-118 -246 0
-118 -262 0
-134 -150 0
-134 -166 0
-134 -182 0
-134 -198 0
-134 -214 0
-134 -230 0
-134 -246 0
-134 -262 0
-150 -166 0
-150 -182 0
-150 -198 0
-150 -214 0
-150 -230 0
-150 -246 0
-150 -262 0
-166 -182 0
-166 -198 0
-166 -214 0
-166 -230 0
-166 -246 0
-166 -262 0
-182 -198 0
-182 -214 0
-182 -230 0
-182 -246 0
-182 -262 0
-198 -214 0
-198 -230 0
-198 -246 0
-198 -262 0
-214 -230 0
-214 -246 0
-214 -262 0
-230 -246 0
-230 -262 0
-246 -262 0
-7 -23 0
-7 -39 0
-7 -55 0
-7 -71 0
-7 -87 0
-7 -103 0
-7 -119 0
-7 -135 0
-7 -151 0
-7 -167 0
-7 -183 0
-7 -199 0
-7 -215 0
-7 -231 0
-7 -247 0
-7 -263 0
-23 -39 0
-23 -55 0
-23 -71 0
-23 -87 0
-23 -103 0
-23 -119 0
-23 -135 0
-23 -151 0
-23 -167 0
-23 -183 0
-23 -199 0
-23 -215 0
-23 -231 0
-23 -247 0
-23 -263 0
-39 -55 0
-39 -71 0
-39 -87 0
-39 -103 0
-39 -119 0
-39 -135 0
-39 -151 0
-39 -167 0
-39 -183 0
-39 -199 0
-39 -215 0
-39 -231 0
-39 -247 0
-39 -263 0
-55 -71 0
-55 -87 0
-55 -103 0
-55 -119 0
-55 -135 0
-55 -151 0
-55 -167 0
-55 -183 0
-55 -199 0
-55 -215 0
-55 -231 0
-55 -247 0
-55 -263 0
-71 -87 0
-71 -103 0
-71 -119 0
-71 -135 0
-71 -151 0
-71 -167 0
-71 -183 0
-71 -199 0
-71 -215 0
-71 -231 0
-71 -247 0
-71 -263 0
-87 -103 0
-87 -119 0
-87 -135 0
-87 -151 0
-87 -167 0
-87 -183 0
-87 -199 0
-87 -215 0
-87 -231 0
-87 -247 0
-87 -263 0
-103 -119 0
-103 -135 0
-103 -151 0
-103 -167 0
-103 -183 0
-103 -199 0
-103 -215 0
-103 -231 0
-103 -247 0
-103 -263 0
-119 -135 0
-119 -151 0
-119 -167 0
-119 -183 0
-119 -199 0
-119 -215 0
-119 -231 0
-119 -247 0
-119 -263 0
-135 -151 0
-135 -167 0
-135 -183 0
-135 -199 0
-135 -215 0
-135 -231 0
-135 -247 0
-135 -263 0
-151 -167 0
-151 -183 0
-151 -199 0
-151 -215 0
-151 -231 0
-151 -247 0
-151 -263 0
-167 -183 0
-167 -199 0
-167 -215 0
-167 -231 0
-167 -247 0
-167 -263 0
-183 -199 0
-183 -215 0
-183 -231 0
-183 -247 0
-183 -263 0
-199 -215 0
-199 -231 0
-199 -247 0
-199 -263 0
-215 -231 0
-215 -247 0
-215 -263 0
-231 -247 0
-231 -263 0
-247 -263 0
-8 -24 0
-8 -40 0
-8 -56 0
-8 -72 0
-8 -88 0
-8 -104 0
-8 -120 0
-8 -136 0
-8 -152 0
-8 -168 0
-8 -184 0
-8 -200 0
-8 -216 0
-8 -232 0
-8 -248 0
-8 -264 0
-24 -40 0
-24 -56 0
-24 -72 0
-24 -88 0
-24 -104 0
-24 -120 0
-24 -136 0
-24 -152 0
-24 -168 0
-24 -184 0
-24 -200 0
-24 -216 0
-24 -232 0
-24 -248 0
-24 -264 0
-40 -56 0
-40 -72 0
-40 -88 0
-40 -104 0
-40 -120 0
-40 -136 0
-40 -152 0
-40 -168 0
-40 -184 0
-40 -200 0
-40 -216 0
-40 -232 0
-40 -248 0
-40 -264 0
-56 -72 0
-56 -88 0
-56 -104 0
-56 -120 0
-56 -136 0
-56 -152 0
-56 -168 0
-56 -184 0
-56 -200 0
-56 -216 0
-56 -232 0
-56 -248 0
-56 -264 0
-72 -88 0
-72 -104 0
-72 -120 0
-72 -136 0
-72 -152 0
-72 -168 0
-72 -184 0
-72 -200 0
-72 -216 0
-72 -232 0
-72 -248 0
-72 -264 0
-88 -104 0
-88 -120 0
-88 -136 0
-88 -152 0
-88 -168 0
-88 -184 0
-88 -200 0
-88 -216 0
-88 -232 0
-88 -248 0
-88 -264 0
-104 -120 0
-104 -136 0
-104 -152 0
-104 -168 0
-104 -184 0
-104 -200 0
-104 -216 0
-104 -232 0
-104 -248 0
-104 -264 0
-120 -136 0
-120 -152 0
-120 -168 0
-120 -184 0
-120 -200 0
-120 -216 0
-120 -232 0
-120 -248 0
-120 -264 0
-136 -152 0
-136 -168 0
-136 -184 0
-136 -200 0
-136 -216 0
-136 -232 0
-136 -248 0
-136 -264 0
-152 -168 0
-152 -184 0
-152 -200 0
-152 -216 0
-152 -232 0
-152 -248 0
-152 -264 0
-168 -184 0
-168 -200 0
-168 -216 0
-168 -232 0
-168 -248 0
-168 -264 0
-184 -200 0
-184 -216 0
-184 -232 0
-184 -248 0
-184 -264 0
-200 -216 0
-200 -232 0
-200 -248 0
-200 -264 0
-216 -232 0
-216 -248 0
-216 -264 0
-232 -248 0
-232 -264 0
-248 -264 0
-9 -25 0
-9 -41 0
-9 -57 0
-9 -73 0
-9 -89 0
-9 -105 0
-9 -121 0
-9 -137 0
-9 -153 0
-9 -169 0
-9 -185 0
-9 -201 0
-9 -217 0
-9 -233 0
-9 -249 0
-9 -265 0
-25 -41 0
-25 -57 0
-25 -73 0
-25 -89 0
-25 -105 0
-25 -121 0
-25 -137 0
-25 -153 0
-25 -169 0
-25 -185 0
-25 -201 0
-25 -217 0
-25 -233 0
-25 -249 0
-25 -265 0
-41 -57 0
-41 -73 0
-41 -89 0
-41 -105 0
-41 -121 0
-41 -137 0
-41 -153 0
-41 -169 0
-41 -185 0
-41 -201 0
-41 -217 0
-41 -233 0
-41 -249 0
-41 -265 0
-57 -73 0
-57 -89 0
-57 -105 0
-57 -121 0
-57 -137 0
-57 -153 0
-57 -169 0
-57 -185 0
-57 -201 0
-57 -217 0
-57 -233 0
-57 -249 0
-57 -265 0
-73 -89 0
-73 -105 0
-73 -121 0
-73 -137 0
-73 -153 0
-73 -169 0
-73 -185 0
-73 -201 0
-73 -217 0
-73 -233 0
-73 -249 0
-73 -265 0
-89 -105 0
-89 -121 0
-89 -137 0
-89 -153 0
-89 -169 0
-89 -185 0
-89 -201 0
-89 -217 0
-89 -233 0
-89 -249 0
-89 -265 0
-105 -121 0
-105 -137 0
-105 -153 0
-105 -169 0
-105 -185 0
-105 -201 0
-105 -217 0
-105 -233 0
-105 -249 0
-105 -265 0
-121 -137 0
-121 -153 0
-121 -169 0
-121 -185 0
-121 -201 0
-121 -217 0
-121 -233 0
-121 -249 0
-121 -265 0
-137 -153 0
-137 -169 0
-137 -185 0
-137 -201 0
-137 -217 0
-137 -233 0
-137 -249 0
-137 -265 0
-153 -169 0
-153 -185 0
-153 -201 0
-153 -217 0
-153 -233 0
-153 -249 0
-153 -265 0
-169 -185 0
-169 -201 0
-169 -217 0
-169 -233 0
-169 -249 0
-169 -265 0
-185 -201 0
-185 -217 0
-185 -233 0
-185 -249 0
-185 -265 0
-201 -217 0
-201 -233 0
-201 -249 0
-201 -265 0
-217 -233 0
-217 -249 0
-217 -265 0
-233 -249 0
-233 -265 0
-249 -265 0
-10 -26 0
-10 -42 0
-10 -58 0
-10 -74 0
-10 -90 0
-10 -106 0
-10 -122 0
-10 -138 0
-10 -154 0
-10 -170 0
-10 -186 0
-10 -202 0
-10 -218 0
-10 -234 0
-10 -250 0
-10 -266 0
-26 -42 0
-26 -58 0
-26 -74 0
-26 -90 0
-26 -106 0
-26 -122 0
-26 -138 0
-26 -154 0
-26 -170 0
-26 -186 0
-26 -202 0
-26 -218 0
-26 -234 0
-26 -250 0
-26 -266 0
-42 -58 0
-42 -74 0
-42 -90 0
-42 -106 0
-42 -122 0
-42 -138 0
-42 -154 0
-42 -170 0
-42 -186 0
-42 -202 0
-42 -218 0
-42 -234 0
-42 -250 0
-42 -266 0
-58 -74 0
-58 -90 0
-58 -106 0
-58 -122 0
-58 -138 0
-58 -154 0
-58 -170 0
-58 -186 0
-58 -202 0
-58 -218 0
-58 -234 0
-58 -250 0
-58 -266 0
-74 -90 0
-74 -106 0
-74 -122 0
-74 -138 0
-74 -154 0
-74 -170 0
-74 -186 0
-74 -202 0
-74 -218 0
-74 -234 0
-74 -250 0
-74 -266 0
-90 -106 0
-90 -122 0
-90 -138 0
-90 -154 0
-90 -170 0
-90 -186 0
-90 -202 0
-90 -218 0
-90 -234 0
-90 -250 0
-90 -266 0
-106 -122 0
-106 -138 0
-106 -154 0
-106 -170 0
-106 -186 0
-106 -202 0
-106 -218 0
-106 -234 0
-106 -250 0
-106 -266 0
-122 -138 0
-122 -154 0
-122 -170 0
-122 -186 0
-122 -202 0
-122 -218 0
-122 -234 0
-122 -250 0
-122 -266 0
-138 -154 0
-138 -170 0
-138 -186 0
-138 -202 0
-138 -218 0
-138 -234 0
-138 -250 0
-138 -266 0
-154 -170 0
-154 -186 0
-154 -202 0
-154 -218 0
-154 -234 0
-154 -250 0
-154 -266 0
-170 -186 0
-170 -202 0
-170 -218 0
-170 -234 0
-170 -250 0
-170 -266 0
-186 -202 0
-186 -218 0
-186 -234 0
-186 -250 0
-186 -266 0
-202 -218 0
-202 -234 0
-202 -250 0
-202 -266 0
-218 -234 0
-218 -250 0
-218 -266 0
-234 -250 0
-234 -266 0
-250 -266 0
-11 -27 0
-11 -43 0
-11 -59 0
-11 -75 0
-11 -91 0
-11 -107 0
-11 -123 0
-11 -139 0
-11 -155 0
-11 -171 0
-11 -187 0
-11 -203 0
-11 -219 0
-11 -235 0
-11 -251 0
-11 -267 0
-27 -43 0
-27 -59 0
-27 -75 0
-27 -91 0
-27 -107 0
-27 -123 0
-27 -139 0
-27 -155 0
-27 -171 0
-27 -187 0
-27 -203 0
-27 -219 0
-27 -235 0
-27 -251 0
-27 -267 0
-43 -59 0
-43 -75 0
-43 -91 0
-43 -107 0
-43 -123 0
-43 -139 0
-43 -155 0
-43 -171 0
-43 -187 0
-43 -203 0
-43 -219 0
-43 -235 0
-43 -251 0
-43 -267 0
-59 -75 0
-59 -91 0
-59 -107 0
-59 -123 0
-59 -139 0
-59 -155 0
-59 -171 0
-59 -187 0
-59 -203 0
-59 -219 0
-59 -235 0
-59 -251 0
-59 -267 0
-75 -91 0
-75 -107 0
-75 -123 0
-75 -139 0
-75 -155 0
-75 -171 0
-75 -187 0
-75 -203 0
-75 -219 0
-75 -235 0
-75 -251 0
-75 -267 0
-91 -107 0
-91 -123 0
-91 -139 0
-91 -155 0
-91 -171 0
-91 -187 0
-91 -203 0
-91 -219 0
-91 -235 0
-91 -251 0
-91 -267 0
-107 -123 0
-107 -139 0
-107 -155 0
-107 -171 0
-107 -187 0
-107 -203 0
-107 -219 0
-107 -235 0
-107 -251 0
-107 -267 0
-123 -139 0
-123 -155 0
-123 -171 0
-123 -187 0
-123 -203 0
-123 -219 0
-123 -235 0
-123 -251 0
-123 -267 0
-139 -155 0
-139 -171 0
-139 -187 0
-139 -203 0
-139 -219 0
-139 -235 0
-139 -251 0
-139 -267 0
-155 -171 0
-155 -187 0
-155 -203 0
-155 -219 0
-155 -235 0
-155 -251 0
-155 -267 0
-171 -187 0
-171 -203 0
-171 -219 0
-171 -235 0
-171 -251 0
-171 -267 0
-187 -203 0
-187 -219 0
-187 -235 0
-187 -251 0
-187 -267 0
-203 -219 0
-203 -235 0
-203 -251 0
-203 -267 0
-219 -235 0
-219 -251 0
-219 -267 0
-235 -251 0
-235 -267 0
-251 -267 0
-12 -28 0
-12 -44 0
-12 -60 0
-12 -76 0
-12 -92 0
-12 -108 0
-12 -124 0
-12 -140 0
-12 -156 0
-12 -172 0
-12 -188 0
-12 -204 0
-12 -220 0
-12 -236 0
-12 -252 0
-12 -268 0
-28 -44 0
-28 -60 0
-28 -76 0
-28 -92 0
-28 -108 0
-28 -124 0
-28 -140 0
-28 -156 0
-28 -172 0
-28 -188 0
-28 -204 0
-28 -220 0
-28 -236 0
-28 -252 0
-28 -268 0
-44 -60 0
-44 -76 0
-44 -92 0
-44 -108 0
-44 -124 0
-44 -140 0
-44 -156 0
-44 -172 0
-44 -188 0
-44 -204 0
-44 -220 0
-44 -236 0
-44 -252 0
-44 -268 0
-60 -76 0
-60 -92 0
-60 -108 0
-60 -124 0
-60 -140 0
-60 -156 0
-60 -172 0
-60 -188 0
-60 -204 0
-60 -220 0
-60 -236 0
-60 -252 0
-60 -268 0
-76 -92 0
-76 -108 0
-76 -124 0
-76 -140 0
-76 -156 0
-76 -172 0
-76 -188 0
-76 -204 0
-76 -220 0
-76 -236 0
-76 -252 0
-76 -268 0
-92 -108 0
-92 -124 0
-92 -140 0
-92 -156 0
-92 -172 0
-92 -188 0
-92 -204 0
-92 -220 0
-92 -236 0
-92 -252 0
-92 -268 0
-108 -124 0
-108 -140 0
-108 -156 0
-108 -172 0
-108 -188 0
-108 -204 0
-108 -220 0
-108 -236 0
-108 -252 0
-108 -268 0
-124 -140 0
-124 -156 0
-124 -172 0
-124 -188 0
-124 -204 0
-124 -220 0
-124 -236 0
-124 -252 0
-124 -268 0
-140 -156 0
-140 -172 0
-140 -188 0
-140 -204 0
-140 -220 0
-140 -236 0
-140 -252 0
-140 -268 0
-156 -172 0
-156 -188 0
-156 -204 0
-156 -220 0
-156 -236 0
-156 -252 0
-156 -268 0
-172 -188 0
-172 -204 0
-172 -220 0
-172 -236 0
-172 -252 0
-172 -268 0
-188 -204 0
-188 -220 0
-188 -236 0
-188 -252 0
-188 -268 0
-204 -220 0
-204 -236 0
-204 -252 0
-204 -268 0
-220 -236 0
-220 -252 0
-220 -268 0
-236 -252 0
-236 -268 0
-252 -268 0
-13 -29 0
-13 -45 0
-13 -61 0
-13 -77 0
-13 -93 0
-13 -109 0
-13 -125 0
-13 -141 0
-13 -157 0
-13 -173 0
-13 -189 0
-13 -205 0
-13 -221 0
-13 -237 0
-13 -253 0
-13 -269 0
-29 -45 0
-29 -61 0
-29 -77 0
-29 -93 0
-29 -109 0
-29 -125 0
-29 -141 0
-29 -157 0
-29 -173 0
-29 -189 0
-29 -205 0
-29 -221 0
-29 -237 0
-29 -253 0
-29 -269 0
-45 -61 0
-45 -77 0
-45 -93 0
-45 -109 0
-45 -125 0
-45 -141 0
-45 -157 0
-45 -173 0
-45 -189 0
-45 -205 0
-45 -221 0
-45 -237 0
-45 -253 0
-45 -269 0
-61 -77 0
-61 -93 0
-61 -109 0
-61 -125 0
-61 -141 0
-61 -157 0
-61 -173 0
-61 -189 0
-61 -205 0
-61 -221 0
-61 -237 0
-61 -253 0
-61 -269 0
-77 -93 0
-77 -109 0
-77 -125 0
-77 -141 0
-77 -157 0
-77 -173 0
-77 -189 0
-77 -205 0
-77 -221 0
-77 -237 0
-77 -253 0
-77 -269 0
-93 -109 0
-93 -125 0
-93 -141 0
-93 -157 0
-93 -173 0
-93 -189 0
-93 -205 0
-93 -221 0
-93 -237 0
-93 -253 0
-93 -269 0
-109 -125 0
-109 -141 0
-109 -157 0
-109 -173 0
-109 -189 0
-109 -205 0
-109 -221 0
-109 -237 0
-109 -253 0
-109 -269 0
-125 -141 0
-125 -157 0
-125 -173 0
-125 -189 0
-125 -205 0
-125 -221 0
-125 -237 0
-125 -253 0
-125 -269 0
-141 -157 0
-141 -173 0
-141 -189 0
-141 -205 0
-141 -221 0
-141 -237 0
-141 -253 0
-141 -269 0
-157 -173 0
-157 -189 0
-157 -205 0
-157 -221 0
-157 -237 0
-157 -253 0
-157 -269 0
-173 -189 0
-173 -205 0
-173 -221 0
-173 -237 0
-173 -253 0
-173 -269 0
-189 -205 0
-189 -221 0
-189 -237 0
-189 -253 0
-189 -269 0
-205 -221 0
-205 -237 0
-205 -253 0
-205 -269 0
-221 -237 0
-221 -253 0
-221 -269 0
-237 -253 0
-237 -269 0
-253 -269 0
-14 -30 0
-14 -46 0
-14 -62 0
-14 -78 0
-14 -94 0
-14 -110 0
-14 -126 0
-14 -142 0
-14 -158 0
-14 -174 0
-14 -190 0
-14 -206 0
-14 -222 0
-14 -238 0
-14 -254 0
-14 -270 0
-30 -46 0
-30 -62 0
-30 -78 0
-30 -94 0
-30 -110 0
-30 -126 0
-30 -142 0
-30 -158 0
-30 -174 0
-30 -190 0
-30 -206 0
-30 -222 0
-30 -238 0
-30 -254 0
-30 -270 0
-46 -62 0
-46 -78 0
-46 -94 0
-46 -110 0
-46 -126 0
-46 -142 0
-46 -158 0
-46 -174 0
-46 -190 0
-46 -206 0
-46 -222 0
-46 -238 0
-46 -254 0
-46 -270 0
-62 -78 0
-62 -94 0
-62 -110 0
-62 -126 0
-62 -142 0
-62 -158 0
-62 -174 0
-62 -190 0
-62 -206 0
-62 -222 0
-62 -238 0
-62 -254 0
-62 -270 0
-78 -94 0
-78 -110 0
-78 -126 0
-78 -142 0
-78 -158 0
-78 -174 0
-78 -190 0
-78 -206 0
-78 -222 0
-78 -238 0
-78 -254 0
-78 -270 0
-94 -110 0
-94 -126 0
-94 -142 0
-94 -158 0
-94 -174 0
-94 -190 0
-94 -206 0
-94 -222 0
-94 -238 0
-94 -254 0
-94 -270 0
-110 -126 0
-110 -142 0
-110 -158 0
-110 -174 0
-110 -190 0
-110 -206 0
-110 -222 0
-110 -238 0
-110 -254 0
-110 -270 0
-126 -142 0
-126 -158 0
-126 -174 0
-126 -190 0
-126 -206 0
-126 -222 0
-126 -238 0
-126 -254 0
-126 -270 0
-142 -158 0
-142 -174 0
-142 -190 0
-142 -206 0
-142 -222 0
-142 -238 0
-142 -254 0
-142 -270 0
-158 -174 0
-158 -190 0
-158 -206 0
-158 -222 0
-158 -238 0
-158 -254 0
-158 -270 0
-174 -190 0
-174 -206 0
-174 -222 0
-174 -238 0
-174 -254 0
-174 -270 0
-190 -206 0
-190 -222 0
-190 -238 0
-190 -254 0
-190 -270 0
-206 -222 0
-206 -238 0
-206 -254 0
-206 -270 0
-222 -238 0
-222 -254 0
-222 -270 0
-238 -254 0
-238 -270 0
-254 -270 0
-15 -31 0
-15 -47 0
-15 -63 0
-15 -79 0
-15 -95 0
-15 -111 0
-15 -127 0
-15 -143 0
-15 -159 0
-15 -175 0
-15 -191 0
-15 -207 0
-15 -223 0
-15 -239 0
-15 -255 0
-15 -271 0
-31 -47 0
-31 -63 0
-31 -79 0
-31 -95 0
-31 -111 0
-31 -127 0
-31 -143 0
-31 -159 0
-31 -175 0
-31 -191 0
-31 -207 0
-31 -223 0
-31 -239 0
-31 -255 0
-31 -271 0
-47 -63 0
-47 -79 0
-47 -95 0
-47 -111 0
-47 -127 0
-47 -143 0
-47 -159 0
-47 -175 0
-47 -191 0
-47 -207 0
-47 -223 0
-47 -239 0
-47 -255 0
-47 -271 0
-63 -79 0
-63 -95 0
-63 -111 0
-63 -127 0
-63 -143 0
-63 -159 0
-63 -175 0
-63 -191 0
-63 -207 0
-63 -223 0
-63 -239 0
-63 -255 0
-63 -271 0
-79 -95 0
-79 -111 0
-79 -127 0
-79 -143 0
-79 -159 0
-79 -175 0
-79 -191 0
-79 -207 0
-79 -223 0
-79 -239 0
-79 -255 0
-79 -271 0
-95 -111 0
-95 -127 0
-95 -143 0
-95 -159 0
-95 -175 0
-95 -191 0
-95 -207 0
-95 -223 0
-95 -239 0
-95 -255 0
-95 -271 0
-111 -127 0
-111 -143 0
-111 -159 0
-111 -175 0
-111 -191 0
-111 -207 0
-111 -223 0
-111 -239 0
-111 -255 0
-111 -271 0
-127 -143 0
-127 -159 0
-127 -175 0
-127 -191 0
-127 -207 0
-127 -223 0
-127 -239 0
-127 -255 0
-127 -271 0
-143 -159 0
-143 -175 0
-143 -191 0
-143 -207 0
-143 -223 0
-143 -239 0
-143 -255 0
-143 -271 0
-159 -175 0
-159 -191 0
-159 -207 0
-159 -223 0
-159 -239 0
-159 -255 0
-159 -271 0
-175 -191 0
-175 -207 0
-175 -223 0
-175 -239 0
-175 -255 0
-175 -271 0
-191 -207 0
-191 -223 0
-191 -239 0
-191 -255 0
-191 -271 0
-207 -223 0
-207 -239 0
-207 -255 0
-207 -271 0
-223 -239 0
-223 -255 0
-223 -271 0
-239 -255 0
-239 -271 0
-255 -271 0
-16 -32 0
-16 -48 0
-16 -64 0
-16 -80 0
-16 -96 0
-16 -112 0
-16 -128 0
-16 -144 0
-16 -160 0
-16 -176 0
-16 -192 0
-16 -208 0
-16 -224 0
-16 -240 0
-16 -256 0
-16 -272 0
-32 -48 0
-32 -64 0
-32 -80 0
-32 -96 0
-32 -112 0
-32 -128 0
-32 -144 0
-32 -160 0
-32 -176 0
-32 -192 0
-32 -208 0
-32 -224 0
-32 -240 0
-32 -256 0
-32 -272 0
-48 -64 0
-48 -80 0
-48 -96 0
-48 -112 0
-48 -128 0
-48 -144 0
-48 -160 0
-48 -176 0
-48 -192 0
-48 -208 0
-48 -224 0
-48 -240 0
-48 -256 0
-48 -272 0
-64 -80 0
-64 -96 0
-64 -112 0
-64 -128 0
-64 -144 0
-64 -160 0
-64 -176 0
-64 -192 0
-64 -208 0
-64 -224 0
-64 -240 0
-64 -256 0
-64 -272 0
-80 -96 0
-80 -112 0
-80 -128 0
-80 -144 0
-80 -160 0
-80 -176 0
-80 -192 0
-80 -208 0
-80 -224 0
-80 -240 0
-80 -256 0
-80 -272 0
-96 -112 0
-96 -128 0
-96 -144 0
-96 -160 0
-96 -176 0
-96 -192 0
-96 -208 0
-96 -224 0
-96 -240 0
-96 -256 0
-96 -272 0
-112 -128 0
-112 -144 0
-112 -160 0
-112 -176 0
-112 -192 0
-112 -208 0
-112 -224 0
-112 -240 0
-112 -256 0
-112 -272 0
-128 -144 0
-128 -160 0
-128 -176 0
-128 -192 0
-128 -208 0
-128 -224 0
-128 -240 0
-128 -256 0
-128 -272 0
-144 -160 0
-144 -176 0
-144 -192 0
-144 -208 0
-144 -224 0
-144 -240 0
-144 -256 0
-144 -272 0
-160 -176 0
-160 -192 0
-160 -208 0
-160 -224 0
-160 -240 0
-160 -256 0
-160 -272 0
-176 -192 0
-176 -208 0
-176 -224 0
-176 -240 0
-176 -256 0
-176 -272 0
-192 -208 0
-192 -224 0
-192 -240 0
-192 -256 0
-192 -272 0
-208 -224 0
-208 -240 0
-208 -256 0
-208 -272 0
-224 -240 0
-224 -256 0
-224 -272 0
-240 -256 0
-240 -272 0
-256 -272 0
-273 -290 0
-273 -307 0
-273 -324 0
-273 -341 0
-273 -358 0
-273 -375 0
-273 -392 0
-273 -409 0
-273 -426 0
-273 -443 0
-273 -460 0
-273 -477 0
-273 -494 0
-273 -511 0
-273 -528 0
-290 -307 0
-290 -324 0
-290 -341 0
-290 -358 0
-290 -375 0
-290 -392 0
-290 -409 0
-290 -426 0
-290 -443 0
-290 -460 0
-290 -477 0
-290 -494 0
-290 -511 0
-290 -528 0
-307 -324 0
-307 -341 0
-307 -358 0
-307 -375 0
-307 -392 0
-307 -409 0
-307 -426 0
-307 -443 0
-307 -460 0
-307 -477 0
-307 -494 0
-307 -511 0
-307 -528 0
-324 -341 0
-324 -358 0
-324 -375 0
-324 -392 0
-324 -409 0
-324 -426 0
-324 -443 0
-324 -460 0
-324 -477 0
-324 -494 0
-324 -511 0
-324 -528 0
-341 -358 0
-341 -375 0
-341 -392 0
-341 -409 0
-341 -426 0
-341 -443 0
-341 -460 0
-341 -477 0
-341 -494 0
-341 -511 0
-341 -528 0
-358 -375 0
-358 -392 0
-358 -409 0
-358 -426 0
-358 -443 0
-358 -460 0
-358 -477 0
-358 -494 0
-358 -511 0
-358 -528 0
-375 -392 0
-375 -409 0
-375 -426 0
-375 -443 0
-375 -460 0
-375 -477 0
-375 -494 0
-375 -511 0
-375 -528 0
-392 -409 0
-392 -426 0
-392 -443 0
-392 -460 0
-392 -477 0
-392 -494 0
-392 -511 0
-392 -528 0
-409 -426 0
-409 -443 0
-409 -460 0
-409 -477 0
-409 -494 0
-409 -511 0
-409 -528 0
-426 -443 0
-426 -460 0
-426 -477 0
-426 -494 0
-426 -511 0
-426 -528 0
-443 -460 0
-443 -477 0
-443 -494 0
-443 -511 0
-443 -528 0
-460 -477 0
-460 -494 0
-460 -511 0
-460 -528 0
-477 -494 0
-477 -511 0
-477 -528 0
-494 -511 0
-494 -528 0
-511 -528 0
-274 -291 0
-274 -308 0
-274 -325 0
-274 -342 0
-274 -359 0
-274 -376 0
-274 -393 0
-274 -410 0
-274 -427 0
-274 -444 0
-274 -461 0
-274 -478 0
-274 -495 0
-274 -512 0
-274 -529 0
-291 -308 0
-291 -325 0
-291 -342 0
-291 -359 0
-291 -376 0
-291 -393 0
-291 -410 0
-291 -427 0
-291 -444 0
-291 -461 0
-291 -478 0
-291 -495 0
-291 -512 0
-291 -529 0
-308 -325 0
-308 -342 0
-308 -359 0
-308 -376 0
-308 -393 0
-308 -410 0
-308 -427 0
-308 -444 0
-308 -461 0
-308 -478 0
-308 -495 0
-308 -512 0
-308 -529 0
-325 -342 0
-325 -359 0
-325 -376 0
-325 -393 0
-325 -410 0
-325 -427 0
-325 -444 0
-325 -461 0
-325 -478 0
-325 -495 0
-325 -512 0
-325 -529 0
-342 -359 0
-342 -376 0
-342 -393 0
-342 -410 0
-342 -427 0
-342 -444 0
-342 -461 0
-342 -478 0
-342 -495 0
-342 -512 0
-342 -529 0
-359 -376 0
-359 -393 0
-359 -410 0
-359 -427 0
-359 -444 0
-359 -461 0
-359 -478 0
-359 -495 0
-359 -512 0
-359 -529 0
-376 -393 0
-376 -410 0
-376 -427 0
-376 -444 0
-376 -461 0
-376 -478 0
-376 -495 0
-376 -512 0
-376 -529 0
-393 -410 0
-393 -427 0
-393 -444 0
-393 -461 0
-393 -478 0
-393 -495 0
-393 -512 0
-393 -529 0
-410 -427 0
-410 -444 0
-410 -461 0
-410 -478 0
-410 -495 0
-410 -512 0
-410 -529 0
-427 -444 0
-427 -461 0
-427 -478 0
-427 -495 0
-427 -512 0
-427 -529 0
-444 -461 0
-444 -478 0
-444 -495 0
-444 -512 0
-444 -529 0
-461 -478 0
-461 -495 0
-461 -512 0
-461 -529 0
-478 -495 0
-478 -512 0
-478 -529 0
-495 -512 0
-495 -529 0
-512 -529 0
-275 -292 0
-275 -309 0
-275 -326 0
-275 -343 0
-275 -360 0
-275 -377 0
-275 -394 0
-275 -411 0
-275 -428 0
-275 -445 0
-275 -462 0
-275 -479 0
-275 -496 0
-275 -513 0
-275 -530 0
-292 -309 0
-292 -326 0
-292 -343 0
-292 -360 0
-292 -377 0
-292 -394 0
-292 -411 0
-292 -428 0
-292 -445 0
-292 -462 0
-292 -479 0
-292 -496 0
-292 -513 0
-292 -530 0
-309 -326 0
-309 -343 0
-309 -360 0
-309 -377 0
-309 -394 0
-309 -411 0
-309 -428 0
-309 -445 0
-309 -462 0
-309 -479 0
-309 -496 0
-309 -513 0
-309 -530 0
-326 -343 0
-326 -360 0
-326 -377 0
-326 -394 0
-326 -411 0
-326 -428 0
-326 -445 0
-326 -462 0
-326 -479 0
-326 -496 0
-326 -513 0
-326 -530 0
-343 -360 0
-343 -377 0
-343 -394 0
-343 -411 0
-343 -428 0
-343 -445 0
-343 -462 0
-343 -479 0
-343 -496 0
-343 -513 0
-343 -530 0
-360 -377 0
-360 -394 0
-360 -411 0
-360 -428 0
-360 -445 0
-360 -462 0
-360 -479 0
-360 -496 0
-360 -513 0
-360 -530 0
-377 -394 0
-377 -411 0
-377 -428 0
-377 -445 0
-377 -462 0
-377 -479 0
-377 -496 0
-377 -513 0
-377 -530 0
-394 -411 0
-394 -428 0
-394 -445 0
-394 -462 0
-394 -479 0
-394 -496 0
-394 -513 0
-394 -530 0
-411 -428 0
-411 -445 0
-411 -462 0
-411 -479 0
-411 -496 0
-411 -513 0
-411 -530 0
-428 -445 0
-428 -462 0
-428 -479 0
-428 -496 0
-428 -513 0
-428 -530 0
-445 -462 0
-445 -479 0
-445 -496 0
-445 -513 0
-445 -530 0
-462 -479 0
-462 -496 0
-462 -513 0
-462 -530 0
-479 -496 0
-479 -513 0
-479 -530 0
-496 -513 0
-496 -530 0
-513 -530 0
-276 -293 0
-276 -310 0
-276 -327 0
-276 -344 0
-276 -361 0
-276 -378 0
-276 -395 0
-276 -412 0
-276 -429 0
-276 -446 0
-276 -463 0
-276 -480 0
-276 -497 0
-276 -514 0
-276 -531 0
-293 -310 0
-293 -327 0
-293 -344 0
-293 -361 0
-293 -378 0
-293 -395 0
-293 -412 0
-293 -429 0
-293 -446 0
-293 -463 0
-293 -480 0
-293 -497 0
-293 -514 0
-293 -531 0
-310 -327 0
-310 -344 0
-310 -361 0
-310 -378 0
-310 -395 0
-310 -412 0
-310 -429 0
-310 -446 0
-310 -463 0
-310 -480 0
-310 -497 0
-310 -514 0
-310 -531 0
-327 -344 0
-327 -361 0
-327 -378 0
-327 -395 0
-327 -412 0
-327 -429 0
-327 -446 0
-327 -463 0
-327 -480 0
-327 -497 0
-327 -514 0
-327 -531 0
-344 -361 0
-344 -378 0
-344 -395 0
-344 -412 0
-344 -429 0
-344 -446 0
-344 -463 0
-344 -480 0
-344 -497 0
-344 -514 0
-344 -531 0
-361 -378 0
-361 -395 0
-361 -412 0
-361 -429 0
-361 -446 0
-361 -463 0
-361 -480 0
-361 -497 0
-361 -514 0
-361 -531 0
-378 -395 0
-378 -412 0
-378 -429 0
-378 -446 0
-378 -463 0
-378 -480 0
-378 -497 0
-378 -514 0
-378 -531 0
-395 -412 0
-395 -429 0
-395 -446 0
-395 -463 0
-395 -480 0
-395 -497 0
-395 -514 0
-395 -531 0
-412 -429 0
-412 -446 0
-412 -463 0
-412 -480 0
-412 -497 0
-412 -514 0
-412 -531 0
-429 -446 0
-429 -463 0
-429 -480 0
-429 -497 0
-429 -514 0
-429 -531 0
-446 -463 0
-446 -480 0
-446 -497 0
-446 -514 0
-446 -531 0
-463 -480 0
-463 -497 0
-463 -514 0
-463 -531 0
-480 -497 0
-480 -514 0
-480 -531 0
-497 -514 0
-497 -531 0
-514 -531 0
-277 -294 0
-277 -311 0
-277 -328 0
-277 -345 0
-277 -362 0
-277 -379 0
-277 -396 0
-277 -413 0
-277 -430 0
-277 -447 0
-277 -464 0
-277 -481 0
-277 -498 0
-277 -515 0
-277 -532 0
-294 -311 0
-294 -328 0
-294 -345 0
-294 -362 0
-294 -379 0
-294 -396 0
-294 -413 0
-294 -430 0
-294 -447 0
-294 -464 0
-294 -481 0
-294 -498 0
-294 -515 0
-294 -532 0
-311 -328 0
-311 -345 0
-311 -362 0
-311 -379 0
-311 -396 0
-311 -413 0
-311 -430 0
-311 -447 0
-311 -464 0
-311 -481 0
-311 -498 0
-311 -515 0
-311 -532 0
-328 -345 0
-328 -362 0
-328 -379 0
-328 -396 0
-328 -413 0
-328 -430 0
-328 -447 0
-328 -464 0
-328 -481 0
-328 -498 0
-328 -515 0
-328 -532 0
-345 -362 0
-345 -379 0
-345 -396 0
-345 -413 0
-345 -430 0
-345 -447 0
-345 -464 0
-345 -481 0
-345 -498 0
-345 -515 0
-345 -532 0
-362 -379 0
-362 -396 0
-362 -413 0
-362 -430 0
-362 -447 0
-362 -464 0
-362 -481 0
-362 -498 0
-362 -515 0
-362 -532 0
-379 -396 0
-379 -413 0
-379 -430 0
-379 -447 0
-379 -464 0
-379 -481 0
-379 -498 0
-379 -515 0
-379 -532 0
-396 -413 0
-396 -430 0
-396 -447 0
-396 -464 0
-396 -481 0
-396 -498 0
-396 -515 0
-396 -532 0
-413 -430 0
-413 -447 0
-413 -464 0
-413 -481 0
-413 -498 0
-413 -515 0
-413 -532 0
-430 -447 0
-430 -464 0
-430 -481 0
-430 -498 0
-430 -515 0
-430 -532 0
-447 -464 0
-447 -481 0
-447 -498 0
-447 -515 0
-447 -532 0
-464 -481 0
-464 -498 0
-464 -515 0
-464 -532 0
-481 -498 0
-481 -515 0
-481 -532 0
-498 -515 0
-498 -532 0
-515 -532 0
-278 -295 0
-278 -312 0
-278 -329 0
-278 -346 0
-278 -363 0
-278 -380 0
-278 -397 0
-278 -414 0
-278 -431 0
-278 -448 0
-278 -465 0
-278 -482 0
-278 -499 0
-278 -516 0
-278 -533 0
-295 -312 0
-295 -329 0
-295 -346 0
-295 -363 0
-295 -380 0
-295 -397 0
-295 -414 0
-295 -431 0
-295 -448 0
-295 -465 0
-295 -482 0
-295 -499 0
-295 -516 0
-295 -533 0
-312 -329 0
-312 -346 0
-312 -363 0
-312 -380 0
-312 -397 0
-312 -414 0
-312 -431 0
-312 -448 0
-312 -465 0
-312 -482 0
-312 -499 0
-312 -516 0
-312 -533 0
-329 -346 0
-329 -363 0
-329 -380 0
-329 -397 0
-329 -414 0
-329 -431 0
-329 -448 0
-329 -465 0
-329 -482 0
-329 -499 0
-329 -516 0
-329 -533 0
-346 -363 0
-346 -380 0
-346 -397 0
-346 -414 0
-346 -431 0
-346 -448 0
-346 -465 0
-346 -482 0
-346 -499 0
-346 -516 0
-346 -533 0
-363 -380 0
-363 -397 0
-363 -414 0
-363 -431 0
-363 -448 0
-363 -465 0
-363 -482 0
-363 -499 0
-363 -516 0
-363 -533 0
-380 -397 0
-380 -414 0
-380 -431 0
-380 -448 0
-380 -465 0
-380 -482 0
-380 -499 0
-380 -516 0
-380 -533 0
-397 -414 0
-397 -431 0
-397 -448 0
-397 -465 0
-397 -482 0
-397 -499 0
-397 -516 0
-397 -533 0
-414 -431 0
-414 -448 0
-414 -465 0
-414 -482 0
-414 -499 0
-414 -516 0
-414 -533 0
-431 -448 0
-431 -465 0
-431 -482 0
-431 -499 0
-431 -516 0
-431 -533 0
-448 -465 0
-448 -482 0
-448 -499 0
-448 -516 0
-448 -533 0
-465 -482 0
-465 -499 0
-465 -516 0
-465 -533 0
-482 -499 0
-482 -516 0
-482 -533 0
-499 -516 0
-499 -533 0
-516 -533 0
-279 -296 0
-279 -313 0
-279 -330 0
-279 -347 0
-279 -364 0
-279 -381 0
-279 -398 0
-279 -415 0
-279 -432 0
-279 -449 0
-279 -466 0
-279 -483 0
-279 -500 0
-279 -517 0
-279 -534 0
-296 -313 0
-296 -330 0
-296 -347 0
-296 -364 0
-296 -381 0
-296 -398 0
-296 -415 0
-296 -432 0
-296 -449 0
-296 -466 0
-296 -483 0
-296 -500 0
-296 -517 0
-296 -534 0
-313 -330 0
-313 -347 0
-313 -364 0
-313 -381 0
-313 -398 0
-313 -415 0
-313 -432 0
-313 -449 0
-313 -466 0
-313 -483 0
-313 -500 0
-313 -517 0
-313 -534 0
-330 -347 0
-330 -364 0
-330 -381 0
-330 -398 0
-330 -415 0
-330 -432 0
-330 -449 0
-330 -466 0
-330 -483 0
-330 -500 0
-330 -517 0
-330 -534 0
-347 -364 0
-347 -381 0
-347 -398 0
-347 -415 0
-347 -432 0
-347 -449 0
-347 -466 0
-347 -483 0
-347 -500 0
-347 -517 0
-347 -534 0
-364 -381 0
-364 -398 0
-364 -415 0
-364 -432 0
-364 -449 0
-364 -466 0
-364 -483 0
-364 -500 0
-364 -517 0
-364 -534 0
-381 -398 0
-381 -415 0
-381 -432 0
-381 -449 0
-381 -466 0
-381 -483 0
-381 -500 0
-381 -517 0
-381 -534 0
-398 -415 0
-398 -432 0
-398 -449 0
-398 -466 0
-398 -483 0
-398 -500 0
-398 -517 0
-398 -534 0
-415 -432 0
-415 -449 0
-415 -466 0
-415 -483 0
-415 -500 0
-415 -517 0
-415 -534 0
-432 -449 0
-432 -466 0
-432 -483 0
-432 -500 0
-432 -517 0
-432 -534 0
-449 -466 0
-449 -483 0
-449 -500 0
-449 -517 0
-449 -534 0
-466 -483 0
-466 -500 0
-466 -517 0
-466 -534 0
-483 -500 0
-483 -517 0
-483 -534 0
-500 -517 0
-500 -534 0
-517 -534 0
-280 -297 0
-280 -314 0
-280 -331 0
-280 -348 0
-280 -365 0
-280 -382 0
-280 -399 0
-280 -416 0
-280 -433 0
-280 -450 0
-280 -467 0
-280 -484 0
-280 -501 0
-280 -518 0
-280 -535 0
-297 -314 0
-297 -331 0
-297 -348 0
-297 -365 0
-297 -382 0
-297 -399 0
-297 -416 0
-297 -433 0
-297 -450 0
-297 -467 0
-297 -484 0
-297 -501 0
-297 -518 0
-297 -535 0
-314 -331 0
-314 -348 0
-314 -365 0
-314 -382 0
-314 -399 0
-314 -416 0
-314 -433 0
-314 -450 0
-314 -467 0
-314 -484 0
-314 -501 0
-314 -518 0
-314 -535 0
-331 -348 0
-331 -365 0
-331 -382 0
-331 -399 0
-331 -416 0
-331 -433 0
-331 -450 0
-331 -467 0
-331 -484 0
-331 -501 0
-331 -518 0
-331 -535 0
-348 -365 0
-348 -382 0
-348 -399 0
-348 -416 0
-348 -433 0
-348 -450 0
-348 -467 0
-348 -484 0
-348 -501 0
-348 -518 0
-348 -535 0
-365 -382 0
-365 -399 0
-365 -416 0
-365 -433 0
-365 -450 0
-365 -467 0
-365 -484 0
-365 -501 0
-365 -518 0
-365 -535 0
-382 -399 0
-382 -416 0
-382 -433 0
-382 -450 0
-382 -467 0
-382 -484 0
-382 -501 0
-382 -518 0
-382 -535 0
-399 -416 0
-399 -433 0
-399 -450 0
-399 -467 0
-399 -484 0
-399 -501 0
-399 -518 0
-399 -535 0
-416 -433 0
-416 -450 0
-416 -467 0
-416 -484 0
-416 -501 0
-416 -518 0
-416 -535 0
-433 -450 0
-433 -467 0
-433 -484 0
-433 -501 0
-433 -518 0
-433 -535 0
-450 -467 0
-450 -484 0
-450 -501 0
-450 -518 0
-450 -535 0
-467 -484 0
-467 -501 0
-467 -518 0
-467 -535 0
-484 -501 0
-484 -518 0
-484 -535 0
-501 -518 0
-501 -535 0
-518 -535 0
-281 -298 0
-281 -315 0
-281 -332 0
-281 -349 0
-281 -366 0
-281 -383 0
-281 -400 0
-281 -417 0
-281 -434 0
-281 -451 0
-281 -468 0
-281 -485 0
-281 -502 0
-281 -519 0
-281 -536 0
-298 -315 0
-298 -332 0
-298 -349 0
-298 -366 0
-298 -383 0
-298 -400 0
-298 -417 0
-298 -434 0
-298 -451 0
-298 -468 0
-298 -485 0
-298 -502 0
-298 -519 0
-298 -536 0
-315 -332 0
-315 -349 0
-315 -366 0
-315 -383 0
-315 -400 0
-315 -417 0
-315 -434 0
-315 -451 0
-315 -468 0
-315 -485 0
-315 -502 0
-315 -519 0
-315 -536 0
-332 -349 0
-332 -366 0
-332 -383 0
-332 -400 0
-332 -417 0
-332 -434 0
-332 -451 0
-332 -468 0
-332 -485 0
-332 -502 0
-332 -519 0
-332 -536 0
-349 -366 0
-349 -383 0
-349 -400 0
-349 -417 0
-349 -434 0
-349 -451 0
-349 -468 0
-349 -485 0
-349 -502 0
-349 -519 0
-349 -536 0
-366 -383 0
-366 -400 0
-366 -417 0
-366 -434 0
-366 -451 0
-366 -468 0
-366 -485 0
-366 -502 0
-366 -519 0
-366 -536 0
-383 -400 0
-383 -417 0
-383 -434 0
-383 -451 0
-383 -468 0
-383 -485 0
-383 -502 0
-383 -519 0
-383 -536 0
-400 -417 0
-400 -434 0
-400 -451 0
-400 -468 0
-400 -485 0
-400 -502 0
-400 -519 0
-400 -536 0
-417 -434 0
-417 -451 0
-417 -468 0
-417 -485 0
-417 -502 0
-417 -519 0
-417 -536 0
-434 -451 0
-434 -468 0
-434 -485 0
-434 -502 0
-434 -519 0
-434 -536 0
-451 -468 0
-451 -485 0
-451 -502 0
-451 -519 0
-451 -536 0
-468 -485 0
-468 -502 0
-468 -519 0
-468 -536 0
-485 -502 0
-485 -519 0
-485 -536 0
-502 -519 0
-502 -536 0
-519 -536 0
-282 -299 0
-282 -316 0
-282 -333 0
-282 -350 0
-282 -367 0
-282 -384 0
-282 -401 0
-282 -418 0
-282 -435 0
-282 -452 0
-282 -469 0
-282 -486 0
-282 -503 0
-282 -520 0
-282 -537 0
-299 -316 0
-299 -333 0
-299 -350 0
-299 -367 0
-299 -384 0
-299 -401 0
-299 -418 0
-299 -435 0
-299 -452 0
-299 -469 0
-299 -486 0
-299 -503 0
-299 -520 0
-299 -537 0
-316 -333 0
-316 -350 0
-316 -367 0
-316 -384 0
-316 -401 0
-316 -418 0
-316 -435 0
-316 -452 0
-316 -469 0
-316 -486 0
-316 -503 0
-316 -520 0
-316 -537 0
-333 -350 0
-333 -367 0
-333 -384 0
-333 -401 0
-333 -418 0
-333 -435 0
-333 -452 0
-333 -469 0
-333 -486 0
-333 -503 0
-333 -520 0
-333 -537 0
-350 -367 0
-350 -384 0
-350 -401 0
-350 -418 0
-350 -435 0
-350 -452 0
-350 -469 0
-350 -486 0
-350 -503 0
-350 -520 0
-350 -537 0
-367 -384 0
-367 -401 0
-367 -418 0
-367 -435 0
-367 -452 0
-367 -469 0
-367 -486 0
-367 -503 0
-367 -520 0
-367 -537 0
-384 -401 0
-384 -418 0
-384 -435 0
-384 -452 0
-384 -469 0
-384 -486 0
-384 -503 0
-384 -520 0
-384 -537 0
-401 -418 0
-401 -435 0
-401 -452 0
-401 -469 0
-401 -486 0
-401 -503 0
-401 -520 0
-401 -537 0
-418 -435 0
-418 -452 0
-418 -469 0
-418 -486 0
-418 -503 0
-418 -520 0
-418 -537 0
-435 -452 0
-435 -469 0
-435 -486 0
-435 -503 0
-435 -520 0
-435 -537 0
-452 -469 0
-452 -486 0
-452 -503 0
-452 -520 0
-452 -537 0
-469 -486 0
-469 -503 0
-469 -520 0
-469 -537 0
-486 -503 0
-486 -520 0
-486 -537 0
-503 -520 0
-503 -537 0
-520 -537 0
-283 -300 0
-283 -317 0
-283 -334 0
-283 -351 0
-283 -368 0
-283 -385 0
-283 -402 0
-283 -419 0
-283 -436 0
-283 -453 0
-283 -470 0
-283 -487 0
-283 -504 0
-283 -521 0
-283 -538 0
-300 -317 0
-300 -334 0
-300 -351 0
-300 -368 0
-300 -385 0
-300 -402 0
-300 -419 0
-300 -436 0
-300 -453 0
-300 -470 0
-300 -487 0
-300 -504 0
-300 -521 0
-300 -538 0
-317 -334 0
-317 -351 0
-317 -368 0
-317 -385 0
-317 -402 0
-317 -419 0
-317 -436 0
-317 -453 0
-317 -470 0
-317 -487 0
-317 -504 0
-317 -521 0
-317 -538 0
-334 -351 0
-334 -368 0
-334 -385 0
-334 -402 0
-334 -419 0
-334 -436 0
-334 -453 0
-334 -470 0
-334 -487 0
-334 -504 0
-334 -521 0
-334 -538 0
-351 -368 0
-351 -385 0
-351 -402 0
-351 -419 0
-351 -436 0
-351 -453 0
-351 -470 0
-351 -487 0
-351 -504 0
-351 -521 0
-351 -538 0
-368 -385 0
-368 -402 0
-368 -419 0
-368 -436 0
-368 -453 0
-368 -470 0
-368 -487 0
-368 -504 0
-368 -521 0
-368 -538 0
-385 -402 0
-385 -419 0
-385 -436 0
-385 -453 0
-385 -470 0
-385 -487 0
-385 -504 0
-385 -521 0
-385 -538 0
-402 -419 0
-402 -436 0
-402 -453 0
-402 -470 0
-402 -487 0
-402 -504 0
-402 -521 0
-402 -538 0
-419 -436 0
-419 -453 0
-419 -470 0
-419 -487 0
-419 -504 0
-419 -521 0
-419 -538 0
-436 -453 0
-436 -470 0
-436 -487 0
-436 -504 0
-436 -521 0
-436 -538 0
-453 -470 0
-453 -487 0
-453 -504 0
-453 -521 0
-453 -538 0
-470 -487 0
-470 -504 0
-470 -521 0
-470 -538 0
-487 -504 0
-487 -521 0
-487 -538 0
-504 -521 0
-504 -538 0
-521 -538 0
-284 -301 0
-284 -318 0
-284 -335 0
-284 -352 0
-284 -369 0
-284 -386 0
-284 -403 0
-284 -420 0
-284 -437 0
-284 -454 0
-284 -471 0
-284 -488 0
-284 -505 0
-284 -522 0
-284 -539 0
-301 -318 0
-301 -335 0
-301 -352 0
-301 -369 0
-301 -386 0
-301 -403 0
-301 -420 0
-301 -437 0
-301 -454 0
-301 -471 0
-301 -488 0
-301 -505 0
-301 -522 0
-301 -539 0
-318 -335 0
-318 -352 0
-318 -369 0
-318 -386 0
-318 -403 0
-318 -420 0
-318 -437 0
-318 -454 0
-318 -471 0
-318 -488 0
-318 -505 0
-318 -522 0
-318 -539 0
-335 -352 0
-335 -369 0
-335 -386 0
-335 -403 0
-335 -420 0
-335 -437 0
-335 -454 0
-335 -471 0
-335 -488 0
-335 -505 0
-335 -522 0
-335 -539 0
-352 -369 0
-352 -386 0
-352 -403 0
-352 -420 0
-352 -437 0
-352 -454 0
-352 -471 0
-352 -488 0
-352 -505 0
-352 -522 0
-352 -539 0
-369 -386 0
-369 -403 0
-369 -420 0
-369 -437 0
-369 -454 0
-369 -471 0
-369 -488 0
-369 -505 0
-369 -522 0
-369 -539 0
-386 -403 0
-386 -420 0
-386 -437 0
-386 -454 0
-386 -471 0
-386 -488 0
-386 -505 0
-386 -522 0
-386 -539 0
-403 -420 0
-403 -437 0
-403 -454 0
-403 -471 0
-403 -488 0
-403 -505 0
-403 -522 0
-403 -539 0
-420 -437 0
-420 -454 0
-420 -471 0
-420 -488 0
-420 -505 0
-420 -522 0
-420 -539 0
-437 -454 0
-437 -471 0
-437 -488 0
-437 -505 0
-437 -522 0
-437 -539 0
-454 -471 0
-454 -488 0
-454 -505 0
-454 -522 0
-454 -539 0
-471 -488 0
-471 -505 0
-471 -522 0
-471 -539 0
-488 -505 0
-488 -522 0
-488 -539 0
-505 -522 0
-505 -539 0
-522 -539 0
-285 -302 0
-285 -319 0
-285 -336 0
-285 -353 0
-285 -370 0
-285 -387 0
-285 -404 0
-285 -421 0
-285 -438 0
-285 -455 0
-285 -472 0
-285 -489 0
-285 -506 0
-285 -523 0
-285 -540 0
-302 -319 0
-302 -336 0
-302 -353 0
-302 -370 0
-302 -387 0
-302 -404 0
-302 -421 0
-302 -438 0
-302 -455 0
-302 -472 0
-302 -489 0
-302 -506 0
-302 -523 0
-302 -540 0
-319 -336 0
-319 -353 0
-319 -370 0
-319 -387 0
-319 -404 0
-319 -421 0
-319 -438 0
-319 -455 0
-319 -472 0
-319 -489 0
-319 -506 0
-319 -523 0
-319 -540 0
-336 -353 0
-336 -370 0
-336 -387 0
-336 -404 0
-336 -421 0
-336 -438 0
-336 -455 0
-336 -472 0
-336 -489 0
-336 -506 0
-336 -523 0
-336 -540 0
-353 -370 0
-353 -387 0
-353 -404 0
-353 -421 0
-353 -438 0
-353 -455 0
-353 -472 0
-353 -489 0
-353 -506 0
-353 -523 0
-353 -540 0
-370 -387 0
-370 -404 0
-370 -421 0
-370 -438 0
-370 -455 0
-370 -472 0
-370 -489 0
-370 -506 0
-370 -523 0
-370 -540 0
-387 -404 0
-387 -421 0
-387 -438 0
-387 -455 0
-387 -472 0
-387 -489 0
-387 -506 0
-387 -523 0
-387 -540 0
-404 -421 0
-404 -438 0
-404 -455 0
-404 -472 0
-404 -489 0
-404 -506 0
-404 -523 0
-404 -540 0
-421 -438 0
-421 -455 0
-421 -472 0
-421 -489 0
-421 -506 0
-421 -523 0
-421 -540 0
-438 -455 0
-438 -472 0
-438 -489 0
-438 -506 0
-438 -523 0
-438 -540 0
-455 -472 0
-455 -489 0
-455 -506 0
-455 -523 0
-455 -540 0
-472 -489 0
-472 -506 0
-472 -523 0
-472 -540 0
-489 -506 0
-489 -523 0
-489 -540 0
-506 -523 0
-506 -540 0
-523 -540 0
-286 -303 0
-286 -320 0
-286 -337 0
-286 -354 0
-286 -371 0
-286 -388 0
-286 -405 0
-286 -422 0
-286 -439 0
-286 -456 0
-286 -473 0
-286 -490 0
-286 -507 0
-286 -524 0
-286 -541 0
-303 -320 0
-303 -337 0
-303 -354 0
-303 -371 0
-303 -388 0
-303 -405 0
-303 -422 0
-303 -439 0
-303 -456 0
-303 -473 0
-303 -490 0
-303 -507 0
-303 -524 0
-303 -541 0
-320 -337 0
-320 -354 0
-320 -371 0
-320 -388 0
-320 -405 0
-320 -422 0
-320 -439 0
-320 -456 0
-320 -473 0
-320 -490 0
-320 -507 0
-320 -524 0
-320 -541 0
-337 -354 0
-337 -371 0
-337 -388 0
-337 -405 0
-337 -422 0
-337 -439 0
-337 -456 0
-337 -473 0
-337 -490 0
-337 -507 0
-337 -524 0
-337 -541 0
-354 -371 0
-354 -388 0
-354 -405 0
-354 -422 0
-354 -439 0
-354 -456 0
-354 -473 0
-354 -490 0
-354 -507 0
-354 -524 0
-354 -541 0
-371 -388 0
-371 -405 0
-371 -422 0
-371 -439 0
-371 -456 0
-371 -473 0
-371 -490 0
-371 -507 0
-371 -524 0
-371 -541 0
-388 -405 0
-388 -422 0
-388 -439 0
-388 -456 0
-388 -473 0
-388 -490 0
-388 -507 0
-388 -524 0
-388 -541 0
-405 -422 0
-405 -439 0
-405 -456 0
-405 -473 0
-405 -490 0
-405 -507 0
-405 -524 0
-405 -541 0
-422 -439 0
-422 -456 0
-422 -473 0
-422 -490 0
-422 -507 0
-422 -524 0
-422 -541 0
-439 -456 0
-439 -473 0
-439 -490 0
-439 -507 0
-439 -524 0
-439 -541 0
-456 -473 0
-456 -490 0
-456 -507 0
-456 -524 0
-456 -541 0
-473 -490 0
-473 -507 0
-473 -524 0
-473 -541 0
-490 -507 0
-490 -524 0
-490 -541 0
-507 -524 0
-507 -541 0
-524 -541 0
-287 -304 0
-287 -321 0
-287 -338 0
-287 -355 0
-287 -372 0
-287 -389 0
-287 -406 0
-287 -423 0
-287 -440 0
-287 -457 0
-287 -474 0
-287 -491 0
-287 -508 0
-287 -525 0
-287 -542 0
-304 -321 0
-304 -338 0
-304 -355 0
-304 -372 0
-304 -389 0
-304 -406 0
-304 -423 0
-304 -440 0
-304 -457 0
-304 -474 0
-304 -491 0
-304 -508 0
-304 -525 0
-304 -542 0
-321 -338 0
-321 -355 0
-321 -372 0
-321 -389 0
-321 -406 0
-321 -423 0
-321 -440 0
-321 -457 0
-321 -474 0
-321 -491 0
-321 -508 0
-321 -525 0
-321 -542 0
-338 -355 0
-338 -372 0
-338 -389 0
-338 -406 0
-338 -423 0
-338 -440 0
-338 -457 0
-338 -474 0
-338 -491 0
-338 -508 0
-338 -525 0
-338 -542 0
-355 -372 0
-355 -389 0
-355 -406 0
-355 -423 0
-355 -440 0
-355 -457 0
-355 -474 0
-355 -491 0
-355 -508 0
-355 -525 0
-355 -542 0
-372 -389 0
-372 -406 0
-372 -423 0
-372 -440 0
-372 -457 0
-372 -474 0
-372 -491 0
-372 -508 0
-372 -525 0
-372 -542 0
-389 -406 0
-389 -423 0
-389 -440 0
-389 -457 0
-389 -474 0
-389 -491 0
-389 -508 0
-389 -525 0
-389 -542 0
-406 -423 0
-406 -440 0
-406 -457 0
-406 -474 0
-406 -491 0
-406 -508 0
-406 -525 0
-406 -542 0
-423 -440 0
-423 -457 0
-423 -474 0
-423 -491 0
-423 -508 0
-423 -525 0
-423 -542 0
-440 -457 0
-440 -474 0
-440 -491 0
-440 -508 0
-440 -525 0
-440 -542 0
-457 -474 0
-457 -491 0
-457 -508 0
-457 -525 0
-457 -542 0
-474 -491 0
-474 -508 0
-474 -525 0
-474 -542 0
-491 -508 0
-491 -525 0
-491 -542 0
-508 -525 0
-508 -542 0
-525 -542 0
-288 -305 0
-288 -322 0
-288 -339 0
-288 -356 0
-288 -373 0
-288 -390 0
-288 -407 0
-288 -424 0
-288 -441 0
-288 -458 0
-288 -475 0
-288 -492 0
-288 -509 0
-288 -526 0
-288 -543 0
-305 -322 0
-305 -339 0
-305 -356 0
-305 -373 0
-305 -390 0
-305 -407 0
-305 -424 0
-305 -441 0
-305 -458 0
-305 -475 0
-305 -492 0
-305 -509 0
-305 -526 0
-305 -543 0
-322 -339 0
-322 -356 0
-322 -373 0
-322 -390 0
-322 -407 0
-322 -424 0
-322 -441 0
-322 -458 0
-322 -475 0
-322 -492 0
-322 -509 0
-322 -526 0
-322 -543 0
-339 -356 0
-339 -373 0
-339 -390 0
-339 -407 0
-339 -424 0
-339 -441 0
-339 -458 0
-339 -475 0
-339 -492 0
-339 -509 0
-339 -526 0
-339 -543 0
-356 -373 0
-356 -390 0
-356 -407 0
-356 -424 0
-356 -441 0
-356 -458 0
-356 -475 0
-356 -492 0
-356 -509 0
-356 -526 0
-356 -543 0
-373 -390 0
-373 -407 0
-373 -424 0
-373 -441 0
-373 -458 0
-373 -475 0
-373 -492 0
-373 -509 0
-373 -526 0
-373 -543 0
-390 -407 0
-390 -424 0
-390 -441 0
-390 -458 0
-390 -475 0
-390 -492 0
-390 -509 0
-390 -526 0
-390 -543 0
-407 -424 0
-407 -441 0
-407 -458 0
-407 -475 0
-407 -492 0
-407 -509 0
-407 -526 0
-407 -543 0
-424 -441 0
-424 -458 0
-424 -475 0
-424 -492 0
-424 -509 0
-424 -526 0
-424 -543 0
-441 -458 0
-441 -475 0
-441 -492 0
-441 -509 0
-441 -526 0
-441 -543 0
-458 -475 0
-458 -492 0
-458 -509 0
-458 -526 0
-458 -543 0
-475 -492 0
-475 -509 0
-475 -526 0
-475 -543 0
-492 -509 0
-492 -526 0
-492 -543 0
-509 -526 0
-509 -543 0
-526 -543 0
-289 -306 0
-289 -323 0
-289 -340 0
-289 -357 0
-289 -374 0
-289 -391 0
-289 -408 0
-289 -425 0
-289 -442 0
-289 -459 0
-289 -476 0
-289 -493 0
-289 -510 0
-289 -527 0
-289 -544 0
-306 -323 0
-306 -340 0
-306 -357 0
-306 -374 0
-306 -391 0
-306 -408 0
-306 -425 0
-306 -442 0
-306 -459 0
-306 -476 0
-306 -493 0
-306 -510 0
-306 -527 0
-306 -544 0
-323 -340 0
-323 -357 0
-323 -374 0
-323 -391 0
-323 -408 0
-323 -425 0
-323 -442 0
-323 -459 0
-323 -476 0
-323 -493 0
-323 -510 0
-323 -527 0
-323 -544 0
-340 -357 0
-340 -374 0
-340 -391 0
-340 -408 0
-340 -425 0
-340 -442 0
-340 -459 0
-340 -476 0
-340 -493 0
-340 -510 0
-340 -527 0
-340 -544 0
-357 -374 0
-357 -391 0
-357 -408 0
-357 -425 0
-357 -442 0
-357 -459 0
-357 -476 0
-357 -493 0
-357 -510 0
-357 -527 0
-357 -544 0
-374 -391 0
-374 -408 0
-374 -425 0
-374 -442 0
-374 -459 0
-374 -476 0
-374 -493 0
-374 -510 0
-374 -527 0
-374 -544 0
-391 -408 0
-391 -425 0
-391 -442 0
-391 -459 0
-391 -476 0
-391 -493 0
-391 -510 0
-391 -527 0
-391 -544 0
-408 -425 0
-408 -442 0
-408 -459 0
-408 -476 0
-408 -493 0
-408 -510 0
-408 -527 0
-408 -544 0
-425 -442 0
-425 -459 0
-425 -476 0
-425 -493 0
-425 -510 0
-425 -527 0
-425 -544 0
-442 -459 0
-442 -476 0
-442 -493 0
-442 -510 0
-442 -527 0
-442 -544 0
-459 -476 0
-459 -493 0
-459 -510 0
-459 -527 0
-459 -544 0
-476 -493 0
-476 -510 0
-476 -527 0
-476 -544 0
-493 -510 0
-493 -527 0
-493 -544 0
-510 -527 0
-510 -544 0
-527 -544 0
