c Phase 3 generated performance instance
c family=overlapping_hall_violation
c scale=18
c variant=default
c noise_percent=0
c expected=UNSATISFIABLE
p cnf 684 12007
-1 -2 0
-1 -3 0
-1 -4 0
-1 -5 0
-1 -6 0
-1 -7 0
-1 -8 0
-1 -9 0
-1 -10 0
-1 -11 0
-1 -12 0
-1 -13 0
-1 -14 0
-1 -15 0
-1 -16 0
-1 -17 0
-1 -18 0
-2 -3 0
-2 -4 0
-2 -5 0
-2 -6 0
-2 -7 0
-2 -8 0
-2 -9 0
-2 -10 0
-2 -11 0
-2 -12 0
-2 -13 0
-2 -14 0
-2 -15 0
-2 -16 0
-2 -17 0
-2 -18 0
-3 -4 0
-3 -5 0
-3 -6 0
-3 -7 0
-3 -8 0
-3 -9 0
-3 -10 0
-3 -11 0
-3 -12 0
-3 -13 0
-3 -14 0
-3 -15 0
-3 -16 0
-3 -17 0
-3 -18 0
-4 -5 0
-4 -6 0
-4 -7 0
-4 -8 0
-4 -9 0
-4 -10 0
-4 -11 0
-4 -12 0
-4 -13 0
-4 -14 0
-4 -15 0
-4 -16 0
-4 -17 0
-4 -18 0
-5 -6 0
-5 -7 0
-5 -8 0
-5 -9 0
-5 -10 0
-5 -11 0
-5 -12 0
-5 -13 0
-5 -14 0
-5 -15 0
-5 -16 0
-5 -17 0
-5 -18 0
-6 -7 0
-6 -8 0
-6 -9 0
-6 -10 0
-6 -11 0
-6 -12 0
-6 -13 0
-6 -14 0
-6 -15 0
-6 -16 0
-6 -17 0
-6 -18 0
-7 -8 0
-7 -9 0
-7 -10 0
-7 -11 0
-7 -12 0
-7 -13 0
-7 -14 0
-7 -15 0
-7 -16 0
-7 -17 0
-7 -18 0
-8 -9 0
-8 -10 0
-8 -11 0
-8 -12 0
-8 -13 0
-8 -14 0
-8 -15 0
-8 -16 0
-8 -17 0
-8 -18 0
-9 -10 0
-9 -11 0
-9 -12 0
-9 -13 0
-9 -14 0
-9 -15 0
-9 -16 0
-9 -17 0
-9 -18 0
-10 -11 0
-10 -12 0
-10 -13 0
-10 -14 0
-10 -15 0
-10 -16 0
-10 -17 0
-10 -18 0
-11 -12 0
-11 -13 0
-11 -14 0
-11 -15 0
-11 -16 0
-11 -17 0
-11 -18 0
-12 -13 0
-12 -14 0
-12 -15 0
-12 -16 0
-12 -17 0
-12 -18 0
-13 -14 0
-13 -15 0
-13 -16 0
-13 -17 0
-13 -18 0
-14 -15 0
-14 -16 0
-14 -17 0
-14 -18 0
-15 -16 0
-15 -17 0
-15 -18 0
-16 -17 0
-16 -18 0
-17 -18 0
1 2 3 4 5 6 7 8 9 10 11 12 13 14 15 16 17 18 0
-19 -20 0
-19 -21 0
-19 -22 0
-19 -23 0
-19 -24 0
-19 -25 0
-19 -26 0
-19 -27 0
-19 -28 0
-19 -29 0
-19 -30 0
-19 -31 0
-19 -32 0
-19 -33 0
-19 -34 0
-19 -35 0
-19 -36 0
-20 -21 0
-20 -22 0
-20 -23 0
-20 -24 0
-20 -25 0
-20 -26 0
-20 -27 0
-20 -28 0
-20 -29 0
-20 -30 0
-20 -31 0
-20 -32 0
-20 -33 0
-20 -34 0
-20 -35 0
-20 -36 0
-21 -22 0
-21 -23 0
-21 -24 0
-21 -25 0
-21 -26 0
-21 -27 0
-21 -28 0
-21 -29 0
-21 -30 0
-21 -31 0
-21 -32 0
-21 -33 0
-21 -34 0
-21 -35 0
-21 -36 0
-22 -23 0
-22 -24 0
-22 -25 0
-22 -26 0
-22 -27 0
-22 -28 0
-22 -29 0
-22 -30 0
-22 -31 0
-22 -32 0
-22 -33 0
-22 -34 0
-22 -35 0
-22 -36 0
-23 -24 0
-23 -25 0
-23 -26 0
-23 -27 0
-23 -28 0
-23 -29 0
-23 -30 0
-23 -31 0
-23 -32 0
-23 -33 0
-23 -34 0
-23 -35 0
-23 -36 0
-24 -25 0
-24 -26 0
-24 -27 0
-24 -28 0
-24 -29 0
-24 -30 0
-24 -31 0
-24 -32 0
-24 -33 0
-24 -34 0
-24 -35 0
-24 -36 0
-25 -26 0
-25 -27 0
-25 -28 0
-25 -29 0
-25 -30 0
-25 -31 0
-25 -32 0
-25 -33 0
-25 -34 0
-25 -35 0
-25 -36 0
-26 -27 0
-26 -28 0
-26 -29 0
-26 -30 0
-26 -31 0
-26 -32 0
-26 -33 0
-26 -34 0
-26 -35 0
-26 -36 0
-27 -28 0
-27 -29 0
-27 -30 0
-27 -31 0
-27 -32 0
-27 -33 0
-27 -34 0
-27 -35 0
-27 -36 0
-28 -29 0
-28 -30 0
-28 -31 0
-28 -32 0
-28 -33 0
-28 -34 0
-28 -35 0
-28 -36 0
-29 -30 0
-29 -31 0
-29 -32 0
-29 -33 0
-29 -34 0
-29 -35 0
-29 -36 0
-30 -31 0
-30 -32 0
-30 -33 0
-30 -34 0
-30 -35 0
-30 -36 0
-31 -32 0
-31 -33 0
-31 -34 0
-31 -35 0
-31 -36 0
-32 -33 0
-32 -34 0
-32 -35 0
-32 -36 0
-33 -34 0
-33 -35 0
-33 -36 0
-34 -35 0
-34 -36 0
-35 -36 0
19 20 21 22 23 24 25 26 27 28 29 30 31 32 33 34 35 36 0
-37 -38 0
-37 -39 0
-37 -40 0
-37 -41 0
-37 -42 0
-37 -43 0
-37 -44 0
-37 -45 0
-37 -46 0
-37 -47 0
-37 -48 0
-37 -49 0
-37 -50 0
-37 -51 0
-37 -52 0
-37 -53 0
-37 -54 0
-38 -39 0
-38 -40 0
-38 -41 0
-38 -42 0
-38 -43 0
-38 -44 0
-38 -45 0
-38 -46 0
-38 -47 0
-38 -48 0
-38 -49 0
-38 -50 0
-38 -51 0
-38 -52 0
-38 -53 0
-38 -54 0
-39 -40 0
-39 -41 0
-39 -42 0
-39 -43 0
-39 -44 0
-39 -45 0
-39 -46 0
-39 -47 0
-39 -48 0
-39 -49 0
-39 -50 0
-39 -51 0
-39 -52 0
-39 -53 0
-39 -54 0
-40 -41 0
-40 -42 0
-40 -43 0
-40 -44 0
-40 -45 0
-40 -46 0
-40 -47 0
-40 -48 0
-40 -49 0
-40 -50 0
-40 -51 0
-40 -52 0
-40 -53 0
-40 -54 0
-41 -42 0
-41 -43 0
-41 -44 0
-41 -45 0
-41 -46 0
-41 -47 0
-41 -48 0
-41 -49 0
-41 -50 0
-41 -51 0
-41 -52 0
-41 -53 0
-41 -54 0
-42 -43 0
-42 -44 0
-42 -45 0
-42 -46 0
-42 -47 0
-42 -48 0
-42 -49 0
-42 -50 0
-42 -51 0
-42 -52 0
-42 -53 0
-42 -54 0
-43 -44 0
-43 -45 0
-43 -46 0
-43 -47 0
-43 -48 0
-43 -49 0
-43 -50 0
-43 -51 0
-43 -52 0
-43 -53 0
-43 -54 0
-44 -45 0
-44 -46 0
-44 -47 0
-44 -48 0
-44 -49 0
-44 -50 0
-44 -51 0
-44 -52 0
-44 -53 0
-44 -54 0
-45 -46 0
-45 -47 0
-45 -48 0
-45 -49 0
-45 -50 0
-45 -51 0
-45 -52 0
-45 -53 0
-45 -54 0
-46 -47 0
-46 -48 0
-46 -49 0
-46 -50 0
-46 -51 0
-46 -52 0
-46 -53 0
-46 -54 0
-47 -48 0
-47 -49 0
-47 -50 0
-47 -51 0
-47 -52 0
-47 -53 0
-47 -54 0
-48 -49 0
-48 -50 0
-48 -51 0
-48 -52 0
-48 -53 0
-48 -54 0
-49 -50 0
-49 -51 0
-49 -52 0
-49 -53 0
-49 -54 0
-50 -51 0
-50 -52 0
-50 -53 0
-50 -54 0
-51 -52 0
-51 -53 0
-51 -54 0
-52 -53 0
-52 -54 0
-53 -54 0
37 38 39 40 41 42 43 44 45 46 47 48 49 50 51 52 53 54 0
-55 -56 0
-55 -57 0
-55 -58 0
-55 -59 0
-55 -60 0
-55 -61 0
-55 -62 0
-55 -63 0
-55 -64 0
-55 -65 0
-55 -66 0
-55 -67 0
-55 -68 0
-55 -69 0
-55 -70 0
-55 -71 0
-55 -72 0
-56 -57 0
-56 -58 0
-56 -59 0
-56 -60 0
-56 -61 0
-56 -62 0
-56 -63 0
-56 -64 0
-56 -65 0
-56 -66 0
-56 -67 0
-56 -68 0
-56 -69 0
-56 -70 0
-56 -71 0
-56 -72 0
-57 -58 0
-57 -59 0
-57 -60 0
-57 -61 0
-57 -62 0
-57 -63 0
-57 -64 0
-57 -65 0
-57 -66 0
-57 -67 0
-57 -68 0
-57 -69 0
-57 -70 0
-57 -71 0
-57 -72 0
-58 -59 0
-58 -60 0
-58 -61 0
-58 -62 0
-58 -63 0
-58 -64 0
-58 -65 0
-58 -66 0
-58 -67 0
-58 -68 0
-58 -69 0
-58 -70 0
-58 -71 0
-58 -72 0
-59 -60 0
-59 -61 0
-59 -62 0
-59 -63 0
-59 -64 0
-59 -65 0
-59 -66 0
-59 -67 0
-59 -68 0
-59 -69 0
-59 -70 0
-59 -71 0
-59 -72 0
-60 -61 0
-60 -62 0
-60 -63 0
-60 -64 0
-60 -65 0
-60 -66 0
-60 -67 0
-60 -68 0
-60 -69 0
-60 -70 0
-60 -71 0
-60 -72 0
-61 -62 0
-61 -63 0
-61 -64 0
-61 -65 0
-61 -66 0
-61 -67 0
-61 -68 0
-61 -69 0
-61 -70 0
-61 -71 0
-61 -72 0
-62 -63 0
-62 -64 0
-62 -65 0
-62 -66 0
-62 -67 0
-62 -68 0
-62 -69 0
-62 -70 0
-62 -71 0
-62 -72 0
-63 -64 0
-63 -65 0
-63 -66 0
-63 -67 0
-63 -68 0
-63 -69 0
-63 -70 0
-63 -71 0
-63 -72 0
-64 -65 0
-64 -66 0
-64 -67 0
-64 -68 0
-64 -69 0
-64 -70 0
-64 -71 0
-64 -72 0
-65 -66 0
-65 -67 0
-65 -68 0
-65 -69 0
-65 -70 0
-65 -71 0
-65 -72 0
-66 -67 0
-66 -68 0
-66 -69 0
-66 -70 0
-66 -71 0
-66 -72 0
-67 -68 0
-67 -69 0
-67 -70 0
-67 -71 0
-67 -72 0
-68 -69 0
-68 -70 0
-68 -71 0
-68 -72 0
-69 -70 0
-69 -71 0
-69 -72 0
-70 -71 0
-70 -72 0
-71 -72 0
55 56 57 58 59 60 61 62 63 64 65 66 67 68 69 70 71 72 0
-73 -74 0
-73 -75 0
-73 -76 0
-73 -77 0
-73 -78 0
-73 -79 0
-73 -80 0
-73 -81 0
-73 -82 0
-73 -83 0
-73 -84 0
-73 -85 0
-73 -86 0
-73 -87 0
-73 -88 0
-73 -89 0
-73 -90 0
-74 -75 0
-74 -76 0
-74 -77 0
-74 -78 0
-74 -79 0
-74 -80 0
-74 -81 0
-74 -82 0
-74 -83 0
-74 -84 0
-74 -85 0
-74 -86 0
-74 -87 0
-74 -88 0
-74 -89 0
-74 -90 0
-75 -76 0
-75 -77 0
-75 -78 0
-75 -79 0
-75 -80 0
-75 -81 0
-75 -82 0
-75 -83 0
-75 -84 0
-75 -85 0
-75 -86 0
-75 -87 0
-75 -88 0
-75 -89 0
-75 -90 0
-76 -77 0
-76 -78 0
-76 -79 0
-76 -80 0
-76 -81 0
-76 -82 0
-76 -83 0
-76 -84 0
-76 -85 0
-76 -86 0
-76 -87 0
-76 -88 0
-76 -89 0
-76 -90 0
-77 -78 0
-77 -79 0
-77 -80 0
-77 -81 0
-77 -82 0
-77 -83 0
-77 -84 0
-77 -85 0
-77 -86 0
-77 -87 0
-77 -88 0
-77 -89 0
-77 -90 0
-78 -79 0
-78 -80 0
-78 -81 0
-78 -82 0
-78 -83 0
-78 -84 0
-78 -85 0
-78 -86 0
-78 -87 0
-78 -88 0
-78 -89 0
-78 -90 0
-79 -80 0
-79 -81 0
-79 -82 0
-79 -83 0
-79 -84 0
-79 -85 0
-79 -86 0
-79 -87 0
-79 -88 0
-79 -89 0
-79 -90 0
-80 -81 0
-80 -82 0
-80 -83 0
-80 -84 0
-80 -85 0
-80 -86 0
-80 -87 0
-80 -88 0
-80 -89 0
-80 -90 0
-81 -82 0
-81 -83 0
-81 -84 0
-81 -85 0
-81 -86 0
-81 -87 0
-81 -88 0
-81 -89 0
-81 -90 0
-82 -83 0
-82 -84 0
-82 -85 0
-82 -86 0
-82 -87 0
-82 -88 0
-82 -89 0
-82 -90 0
-83 -84 0
-83 -85 0
-83 -86 0
-83 -87 0
-83 -88 0
-83 -89 0
-83 -90 0
-84 -85 0
-84 -86 0
-84 -87 0
-84 -88 0
-84 -89 0
-84 -90 0
-85 -86 0
-85 -87 0
-85 -88 0
-85 -89 0
-85 -90 0
-86 -87 0
-86 -88 0
-86 -89 0
-86 -90 0
-87 -88 0
-87 -89 0
-87 -90 0
-88 -89 0
-88 -90 0
-89 -90 0
73 74 75 76 77 78 79 80 81 82 83 84 85 86 87 88 89 90 0
-91 -92 0
-91 -93 0
-91 -94 0
-91 -95 0
-91 -96 0
-91 -97 0
-91 -98 0
-91 -99 0
-91 -100 0
-91 -101 0
-91 -102 0
-91 -103 0
-91 -104 0
-91 -105 0
-91 -106 0
-91 -107 0
-91 -108 0
-92 -93 0
-92 -94 0
-92 -95 0
-92 -96 0
-92 -97 0
-92 -98 0
-92 -99 0
-92 -100 0
-92 -101 0
-92 -102 0
-92 -103 0
-92 -104 0
-92 -105 0
-92 -106 0
-92 -107 0
-92 -108 0
-93 -94 0
-93 -95 0
-93 -96 0
-93 -97 0
-93 -98 0
-93 -99 0
-93 -100 0
-93 -101 0
-93 -102 0
-93 -103 0
-93 -104 0
-93 -105 0
-93 -106 0
-93 -107 0
-93 -108 0
-94 -95 0
-94 -96 0
-94 -97 0
-94 -98 0
-94 -99 0
-94 -100 0
-94 -101 0
-94 -102 0
-94 -103 0
-94 -104 0
-94 -105 0
-94 -106 0
-94 -107 0
-94 -108 0
-95 -96 0
-95 -97 0
-95 -98 0
-95 -99 0
-95 -100 0
-95 -101 0
-95 -102 0
-95 -103 0
-95 -104 0
-95 -105 0
-95 -106 0
-95 -107 0
-95 -108 0
-96 -97 0
-96 -98 0
-96 -99 0
-96 -100 0
-96 -101 0
-96 -102 0
-96 -103 0
-96 -104 0
-96 -105 0
-96 -106 0
-96 -107 0
-96 -108 0
-97 -98 0
-97 -99 0
-97 -100 0
-97 -101 0
-97 -102 0
-97 -103 0
-97 -104 0
-97 -105 0
-97 -106 0
-97 -107 0
-97 -108 0
-98 -99 0
-98 -100 0
-98 -101 0
-98 -102 0
-98 -103 0
-98 -104 0
-98 -105 0
-98 -106 0
-98 -107 0
-98 -108 0
-99 -100 0
-99 -101 0
-99 -102 0
-99 -103 0
-99 -104 0
-99 -105 0
-99 -106 0
-99 -107 0
-99 -108 0
-100 -101 0
-100 -102 0
-100 -103 0
-100 -104 0
-100 -105 0
-100 -106 0
-100 -107 0
-100 -108 0
-101 -102 0
-101 -103 0
-101 -104 0
-101 -105 0
-101 -106 0
-101 -107 0
-101 -108 0
-102 -103 0
-102 -104 0
-102 -105 0
-102 -106 0
-102 -107 0
-102 -108 0
-103 -104 0
-103 -105 0
-103 -106 0
-103 -107 0
-103 -108 0
-104 -105 0
-104 -106 0
-104 -107 0
-104 -108 0
-105 -106 0
-105 -107 0
-105 -108 0
-106 -107 0
-106 -108 0
-107 -108 0
91 92 93 94 95 96 97 98 99 100 101 102 103 104 105 106 107 108 0
-109 -110 0
-109 -111 0
-109 -112 0
-109 -113 0
-109 -114 0
-109 -115 0
-109 -116 0
-109 -117 0
-109 -118 0
-109 -119 0
-109 -120 0
-109 -121 0
-109 -122 0
-109 -123 0
-109 -124 0
-109 -125 0
-109 -126 0
-110 -111 0
-110 -112 0
-110 -113 0
-110 -114 0
-110 -115 0
-110 -116 0
-110 -117 0
-110 -118 0
-110 -119 0
-110 -120 0
-110 -121 0
-110 -122 0
-110 -123 0
-110 -124 0
-110 -125 0
-110 -126 0
-111 -112 0
-111 -113 0
-111 -114 0
-111 -115 0
-111 -116 0
-111 -117 0
-111 -118 0
-111 -119 0
-111 -120 0
-111 -121 0
-111 -122 0
-111 -123 0
-111 -124 0
-111 -125 0
-111 -126 0
-112 -113 0
-112 -114 0
-112 -115 0
-112 -116 0
-112 -117 0
-112 -118 0
-112 -119 0
-112 -120 0
-112 -121 0
-112 -122 0
-112 -123 0
-112 -124 0
-112 -125 0
-112 -126 0
-113 -114 0
-113 -115 0
-113 -116 0
-113 -117 0
-113 -118 0
-113 -119 0
-113 -120 0
-113 -121 0
-113 -122 0
-113 -123 0
-113 -124 0
-113 -125 0
-113 -126 0
-114 -115 0
-114 -116 0
-114 -117 0
-114 -118 0
-114 -119 0
-114 -120 0
-114 -121 0
-114 -122 0
-114 -123 0
-114 -124 0
-114 -125 0
-114 -126 0
-115 -116 0
-115 -117 0
-115 -118 0
-115 -119 0
-115 -120 0
-115 -121 0
-115 -122 0
-115 -123 0
-115 -124 0
-115 -125 0
-115 -126 0
-116 -117 0
-116 -118 0
-116 -119 0
-116 -120 0
-116 -121 0
-116 -122 0
-116 -123 0
-116 -124 0
-116 -125 0
-116 -126 0
-117 -118 0
-117 -119 0
-117 -120 0
-117 -121 0
-117 -122 0
-117 -123 0
-117 -124 0
-117 -125 0
-117 -126 0
-118 -119 0
-118 -120 0
-118 -121 0
-118 -122 0
-118 -123 0
-118 -124 0
-118 -125 0
-118 -126 0
-119 -120 0
-119 -121 0
-119 -122 0
-119 -123 0
-119 -124 0
-119 -125 0
-119 -126 0
-120 -121 0
-120 -122 0
-120 -123 0
-120 -124 0
-120 -125 0
-120 -126 0
-121 -122 0
-121 -123 0
-121 -124 0
-121 -125 0
-121 -126 0
-122 -123 0
-122 -124 0
-122 -125 0
-122 -126 0
-123 -124 0
-123 -125 0
-123 -126 0
-124 -125 0
-124 -126 0
-125 -126 0
109 110 111 112 113 114 115 116 117 118 119 120 121 122 123 124 125 126 0
-127 -128 0
-127 -129 0
-127 -130 0
-127 -131 0
-127 -132 0
-127 -133 0
-127 -134 0
-127 -135 0
-127 -136 0
-127 -137 0
-127 -138 0
-127 -139 0
-127 -140 0
-127 -141 0
-127 -142 0
-127 -143 0
-127 -144 0
-128 -129 0
-128 -130 0
-128 -131 0
-128 -132 0
-128 -133 0
-128 -134 0
-128 -135 0
-128 -136 0
-128 -137 0
-128 -138 0
-128 -139 0
-128 -140 0
-128 -141 0
-128 -142 0
-128 -143 0
-128 -144 0
-129 -130 0
-129 -131 0
-129 -132 0
-129 -133 0
-129 -134 0
-129 -135 0
-129 -136 0
-129 -137 0
-129 -138 0
-129 -139 0
-129 -140 0
-129 -141 0
-129 -142 0
-129 -143 0
-129 -144 0
-130 -131 0
-130 -132 0
-130 -133 0
-130 -134 0
-130 -135 0
-130 -136 0
-130 -137 0
-130 -138 0
-130 -139 0
-130 -140 0
-130 -141 0
-130 -142 0
-130 -143 0
-130 -144 0
-131 -132 0
-131 -133 0
-131 -134 0
-131 -135 0
-131 -136 0
-131 -137 0
-131 -138 0
-131 -139 0
-131 -140 0
-131 -141 0
-131 -142 0
-131 -143 0
-131 -144 0
-132 -133 0
-132 -134 0
-132 -135 0
-132 -136 0
-132 -137 0
-132 -138 0
-132 -139 0
-132 -140 0
-132 -141 0
-132 -142 0
-132 -143 0
-132 -144 0
-133 -134 0
-133 -135 0
-133 -136 0
-133 -137 0
-133 -138 0
-133 -139 0
-133 -140 0
-133 -141 0
-133 -142 0
-133 -143 0
-133 -144 0
-134 -135 0
-134 -136 0
-134 -137 0
-134 -138 0
-134 -139 0
-134 -140 0
-134 -141 0
-134 -142 0
-134 -143 0
-134 -144 0
-135 -136 0
-135 -137 0
-135 -138 0
-135 -139 0
-135 -140 0
-135 -141 0
-135 -142 0
-135 -143 0
-135 -144 0
-136 -137 0
-136 -138 0
-136 -139 0
-136 -140 0
-136 -141 0
-136 -142 0
-136 -143 0
-136 -144 0
-137 -138 0
-137 -139 0
-137 -140 0
-137 -141 0
-137 -142 0
-137 -143 0
-137 -144 0
-138 -139 0
-138 -140 0
-138 -141 0
-138 -142 0
-138 -143 0
-138 -144 0
-139 -140 0
-139 -141 0
-139 -142 0
-139 -143 0
-139 -144 0
-140 -141 0
-140 -142 0
-140 -143 0
-140 -144 0
-141 -142 0
-141 -143 0
-141 -144 0
-142 -143 0
-142 -144 0
-143 -144 0
127 128 129 130 131 132 133 134 135 136 137 138 139 140 141 142 143 144 0
-145 -146 0
-145 -147 0
-145 -148 0
-145 -149 0
-145 -150 0
-145 -151 0
-145 -152 0
-145 -153 0
-145 -154 0
-145 -155 0
-145 -156 0
-145 -157 0
-145 -158 0
-145 -159 0
-145 -160 0
-145 -161 0
-145 -162 0
-146 -147 0
-146 -148 0
-146 -149 0
-146 -150 0
-146 -151 0
-146 -152 0
-146 -153 0
-146 -154 0
-146 -155 0
-146 -156 0
-146 -157 0
-146 -158 0
-146 -159 0
-146 -160 0
-146 -161 0
-146 -162 0
-147 -148 0
-147 -149 0
-147 -150 0
-147 -151 0
-147 -152 0
-147 -153 0
-147 -154 0
-147 -155 0
-147 -156 0
-147 -157 0
-147 -158 0
-147 -159 0
-147 -160 0
-147 -161 0
-147 -162 0
-148 -149 0
-148 -150 0
-148 -151 0
-148 -152 0
-148 -153 0
-148 -154 0
-148 -155 0
-148 -156 0
-148 -157 0
-148 -158 0
-148 -159 0
-148 -160 0
-148 -161 0
-148 -162 0
-149 -150 0
-149 -151 0
-149 -152 0
-149 -153 0
-149 -154 0
-149 -155 0
-149 -156 0
-149 -157 0
-149 -158 0
-149 -159 0
-149 -160 0
-149 -161 0
-149 -162 0
-150 -151 0
-150 -152 0
-150 -153 0
-150 -154 0
-150 -155 0
-150 -156 0
-150 -157 0
-150 -158 0
-150 -159 0
-150 -160 0
-150 -161 0
-150 -162 0
-151 -152 0
-151 -153 0
-151 -154 0
-151 -155 0
-151 -156 0
-151 -157 0
-151 -158 0
-151 -159 0
-151 -160 0
-151 -161 0
-151 -162 0
-152 -153 0
-152 -154 0
-152 -155 0
-152 -156 0
-152 -157 0
-152 -158 0
-152 -159 0
-152 -160 0
-152 -161 0
-152 -162 0
-153 -154 0
-153 -155 0
-153 -156 0
-153 -157 0
-153 -158 0
-153 -159 0
-153 -160 0
-153 -161 0
-153 -162 0
-154 -155 0
-154 -156 0
-154 -157 0
-154 -158 0
-154 -159 0
-154 -160 0
-154 -161 0
-154 -162 0
-155 -156 0
-155 -157 0
-155 -158 0
-155 -159 0
-155 -160 0
-155 -161 0
-155 -162 0
-156 -157 0
-156 -158 0
-156 -159 0
-156 -160 0
-156 -161 0
-156 -162 0
-157 -158 0
-157 -159 0
-157 -160 0
-157 -161 0
-157 -162 0
-158 -159 0
-158 -160 0
-158 -161 0
-158 -162 0
-159 -160 0
-159 -161 0
-159 -162 0
-160 -161 0
-160 -162 0
-161 -162 0
145 146 147 148 149 150 151 152 153 154 155 156 157 158 159 160 161 162 0
-163 -164 0
-163 -165 0
-163 -166 0
-163 -167 0
-163 -168 0
-163 -169 0
-163 -170 0
-163 -171 0
-163 -172 0
-163 -173 0
-163 -174 0
-163 -175 0
-163 -176 0
-163 -177 0
-163 -178 0
-163 -179 0
-163 -180 0
-164 -165 0
-164 -166 0
-164 -167 0
-164 -168 0
-164 -169 0
-164 -170 0
-164 -171 0
-164 -172 0
-164 -173 0
-164 -174 0
-164 -175 0
-164 -176 0
-164 -177 0
-164 -178 0
-164 -179 0
-164 -180 0
-165 -166 0
-165 -167 0
-165 -168 0
-165 -169 0
-165 -170 0
-165 -171 0
-165 -172 0
-165 -173 0
-165 -174 0
-165 -175 0
-165 -176 0
-165 -177 0
-165 -178 0
-165 -179 0
-165 -180 0
-166 -167 0
-166 -168 0
-166 -169 0
-166 -170 0
-166 -171 0
-166 -172 0
-166 -173 0
-166 -174 0
-166 -175 0
-166 -176 0
-166 -177 0
-166 -178 0
-166 -179 0
-166 -180 0
-167 -168 0
-167 -169 0
-167 -170 0
-167 -171 0
-167 -172 0
-167 -173 0
-167 -174 0
-167 -175 0
-167 -176 0
-167 -177 0
-167 -178 0
-167 -179 0
-167 -180 0
-168 -169 0
-168 -170 0
-168 -171 0
-168 -172 0
-168 -173 0
-168 -174 0
-168 -175 0
-168 -176 0
-168 -177 0
-168 -178 0
-168 -179 0
-168 -180 0
-169 -170 0
-169 -171 0
-169 -172 0
-169 -173 0
-169 -174 0
-169 -175 0
-169 -176 0
-169 -177 0
-169 -178 0
-169 -179 0
-169 -180 0
-170 -171 0
-170 -172 0
-170 -173 0
-170 -174 0
-170 -175 0
-170 -176 0
-170 -177 0
-170 -178 0
-170 -179 0
-170 -180 0
-171 -172 0
-171 -173 0
-171 -174 0
-171 -175 0
-171 -176 0
-171 -177 0
-171 -178 0
-171 -179 0
-171 -180 0
-172 -173 0
-172 -174 0
-172 -175 0
-172 -176 0
-172 -177 0
-172 -178 0
-172 -179 0
-172 -180 0
-173 -174 0
-173 -175 0
-173 -176 0
-173 -177 0
-173 -178 0
-173 -179 0
-173 -180 0
-174 -175 0
-174 -176 0
-174 -177 0
-174 -178 0
-174 -179 0
-174 -180 0
-175 -176 0
-175 -177 0
-175 -178 0
-175 -179 0
-175 -180 0
-176 -177 0
-176 -178 0
-176 -179 0
-176 -180 0
-177 -178 0
-177 -179 0
-177 -180 0
-178 -179 0
-178 -180 0
-179 -180 0
163 164 165 166 167 168 169 170 171 172 173 174 175 176 177 178 179 180 0
-181 -182 0
-181 -183 0
-181 -184 0
-181 -185 0
-181 -186 0
-181 -187 0
-181 -188 0
-181 -189 0
-181 -190 0
-181 -191 0
-181 -192 0
-181 -193 0
-181 -194 0
-181 -195 0
-181 -196 0
-181 -197 0
-181 -198 0
-182 -183 0
-182 -184 0
-182 -185 0
-182 -186 0
-182 -187 0
-182 -188 0
-182 -189 0
-182 -190 0
-182 -191 0
-182 -192 0
-182 -193 0
-182 -194 0
-182 -195 0
-182 -196 0
-182 -197 0
-182 -198 0
-183 -184 0
-183 -185 0
-183 -186 0
-183 -187 0
-183 -188 0
-183 -189 0
-183 -190 0
-183 -191 0
-183 -192 0
-183 -193 0
-183 -194 0
-183 -195 0
-183 -196 0
-183 -197 0
-183 -198 0
-184 -185 0
-184 -186 0
-184 -187 0
-184 -188 0
-184 -189 0
-184 -190 0
-184 -191 0
-184 -192 0
-184 -193 0
-184 -194 0
-184 -195 0
-184 -196 0
-184 -197 0
-184 -198 0
-185 -186 0
-185 -187 0
-185 -188 0
-185 -189 0
-185 -190 0
-185 -191 0
-185 -192 0
-185 -193 0
-185 -194 0
-185 -195 0
-185 -196 0
-185 -197 0
-185 -198 0
-186 -187 0
-186 -188 0
-186 -189 0
-186 -190 0
-186 -191 0
-186 -192 0
-186 -193 0
-186 -194 0
-186 -195 0
-186 -196 0
-186 -197 0
-186 -198 0
-187 -188 0
-187 -189 0
-187 -190 0
-187 -191 0
-187 -192 0
-187 -193 0
-187 -194 0
-187 -195 0
-187 -196 0
-187 -197 0
-187 -198 0
-188 -189 0
-188 -190 0
-188 -191 0
-188 -192 0
-188 -193 0
-188 -194 0
-188 -195 0
-188 -196 0
-188 -197 0
-188 -198 0
-189 -190 0
-189 -191 0
-189 -192 0
-189 -193 0
-189 -194 0
-189 -195 0
-189 -196 0
-189 -197 0
-189 -198 0
-190 -191 0
-190 -192 0
-190 -193 0
-190 -194 0
-190 -195 0
-190 -196 0
-190 -197 0
-190 -198 0
-191 -192 0
-191 -193 0
-191 -194 0
-191 -195 0
-191 -196 0
-191 -197 0
-191 -198 0
-192 -193 0
-192 -194 0
-192 -195 0
-192 -196 0
-192 -197 0
-192 -198 0
-193 -194 0
-193 -195 0
-193 -196 0
-193 -197 0
-193 -198 0
-194 -195 0
-194 -196 0
-194 -197 0
-194 -198 0
-195 -196 0
-195 -197 0
-195 -198 0
-196 -197 0
-196 -198 0
-197 -198 0
181 182 183 184 185 186 187 188 189 190 191 192 193 194 195 196 197 198 0
-199 -200 0
-199 -201 0
-199 -202 0
-199 -203 0
-199 -204 0
-199 -205 0
-199 -206 0
-199 -207 0
-199 -208 0
-199 -209 0
-199 -210 0
-199 -211 0
-199 -212 0
-199 -213 0
-199 -214 0
-199 -215 0
-199 -216 0
-200 -201 0
-200 -202 0
-200 -203 0
-200 -204 0
-200 -205 0
-200 -206 0
-200 -207 0
-200 -208 0
-200 -209 0
-200 -210 0
-200 -211 0
-200 -212 0
-200 -213 0
-200 -214 0
-200 -215 0
-200 -216 0
-201 -202 0
-201 -203 0
-201 -204 0
-201 -205 0
-201 -206 0
-201 -207 0
-201 -208 0
-201 -209 0
-201 -210 0
-201 -211 0
-201 -212 0
-201 -213 0
-201 -214 0
-201 -215 0
-201 -216 0
-202 -203 0
-202 -204 0
-202 -205 0
-202 -206 0
-202 -207 0
-202 -208 0
-202 -209 0
-202 -210 0
-202 -211 0
-202 -212 0
-202 -213 0
-202 -214 0
-202 -215 0
-202 -216 0
-203 -204 0
-203 -205 0
-203 -206 0
-203 -207 0
-203 -208 0
-203 -209 0
-203 -210 0
-203 -211 0
-203 -212 0
-203 -213 0
-203 -214 0
-203 -215 0
-203 -216 0
-204 -205 0
-204 -206 0
-204 -207 0
-204 -208 0
-204 -209 0
-204 -210 0
-204 -211 0
-204 -212 0
-204 -213 0
-204 -214 0
-204 -215 0
-204 -216 0
-205 -206 0
-205 -207 0
-205 -208 0
-205 -209 0
-205 -210 0
-205 -211 0
-205 -212 0
-205 -213 0
-205 -214 0
-205 -215 0
-205 -216 0
-206 -207 0
-206 -208 0
-206 -209 0
-206 -210 0
-206 -211 0
-206 -212 0
-206 -213 0
-206 -214 0
-206 -215 0
-206 -216 0
-207 -208 0
-207 -209 0
-207 -210 0
-207 -211 0
-207 -212 0
-207 -213 0
-207 -214 0
-207 -215 0
-207 -216 0
-208 -209 0
-208 -210 0
-208 -211 0
-208 -212 0
-208 -213 0
-208 -214 0
-208 -215 0
-208 -216 0
-209 -210 0
-209 -211 0
-209 -212 0
-209 -213 0
-209 -214 0
-209 -215 0
-209 -216 0
-210 -211 0
-210 -212 0
-210 -213 0
-210 -214 0
-210 -215 0
-210 -216 0
-211 -212 0
-211 -213 0
-211 -214 0
-211 -215 0
-211 -216 0
-212 -213 0
-212 -214 0
-212 -215 0
-212 -216 0
-213 -214 0
-213 -215 0
-213 -216 0
-214 -215 0
-214 -216 0
-215 -216 0
199 200 201 202 203 204 205 206 207 208 209 210 211 212 213 214 215 216 0
-217 -218 0
-217 -219 0
-217 -220 0
-217 -221 0
-217 -222 0
-217 -223 0
-217 -224 0
-217 -225 0
-217 -226 0
-217 -227 0
-217 -228 0
-217 -229 0
-217 -230 0
-217 -231 0
-217 -232 0
-217 -233 0
-217 -234 0
-218 -219 0
-218 -220 0
-218 -221 0
-218 -222 0
-218 -223 0
-218 -224 0
-218 -225 0
-218 -226 0
-218 -227 0
-218 -228 0
-218 -229 0
-218 -230 0
-218 -231 0
-218 -232 0
-218 -233 0
-218 -234 0
-219 -220 0
-219 -221 0
-219 -222 0
-219 -223 0
-219 -224 0
-219 -225 0
-219 -226 0
-219 -227 0
-219 -228 0
-219 -229 0
-219 -230 0
-219 -231 0
-219 -232 0
-219 -233 0
-219 -234 0
-220 -221 0
-220 -222 0
-220 -223 0
-220 -224 0
-220 -225 0
-220 -226 0
-220 -227 0
-220 -228 0
-220 -229 0
-220 -230 0
-220 -231 0
-220 -232 0
-220 -233 0
-220 -234 0
-221 -222 0
-221 -223 0
-221 -224 0
-221 -225 0
-221 -226 0
-221 -227 0
-221 -228 0
-221 -229 0
-221 -230 0
-221 -231 0
-221 -232 0
-221 -233 0
-221 -234 0
-222 -223 0
-222 -224 0
-222 -225 0
-222 -226 0
-222 -227 0
-222 -228 0
-222 -229 0
-222 -230 0
-222 -231 0
-222 -232 0
-222 -233 0
-222 -234 0
-223 -224 0
-223 -225 0
-223 -226 0
-223 -227 0
-223 -228 0
-223 -229 0
-223 -230 0
-223 -231 0
-223 -232 0
-223 -233 0
-223 -234 0
-224 -225 0
-224 -226 0
-224 -227 0
-224 -228 0
-224 -229 0
-224 -230 0
-224 -231 0
-224 -232 0
-224 -233 0
-224 -234 0
-225 -226 0
-225 -227 0
-225 -228 0
-225 -229 0
-225 -230 0
-225 -231 0
-225 -232 0
-225 -233 0
-225 -234 0
-226 -227 0
-226 -228 0
-226 -229 0
-226 -230 0
-226 -231 0
-226 -232 0
-226 -233 0
-226 -234 0
-227 -228 0
-227 -229 0
-227 -230 0
-227 -231 0
-227 -232 0
-227 -233 0
-227 -234 0
-228 -229 0
-228 -230 0
-228 -231 0
-228 -232 0
-228 -233 0
-228 -234 0
-229 -230 0
-229 -231 0
-229 -232 0
-229 -233 0
-229 -234 0
-230 -231 0
-230 -232 0
-230 -233 0
-230 -234 0
-231 -232 0
-231 -233 0
-231 -234 0
-232 -233 0
-232 -234 0
-233 -234 0
217 218 219 220 221 222 223 224 225 226 227 228 229 230 231 232 233 234 0
-235 -236 0
-235 -237 0
-235 -238 0
-235 -239 0
-235 -240 0
-235 -241 0
-235 -242 0
-235 -243 0
-235 -244 0
-235 -245 0
-235 -246 0
-235 -247 0
-235 -248 0
-235 -249 0
-235 -250 0
-235 -251 0
-235 -252 0
-236 -237 0
-236 -238 0
-236 -239 0
-236 -240 0
-236 -241 0
-236 -242 0
-236 -243 0
-236 -244 0
-236 -245 0
-236 -246 0
-236 -247 0
-236 -248 0
-236 -249 0
-236 -250 0
-236 -251 0
-236 -252 0
-237 -238 0
-237 -239 0
-237 -240 0
-237 -241 0
-237 -242 0
-237 -243 0
-237 -244 0
-237 -245 0
-237 -246 0
-237 -247 0
-237 -248 0
-237 -249 0
-237 -250 0
-237 -251 0
-237 -252 0
-238 -239 0
-238 -240 0
-238 -241 0
-238 -242 0
-238 -243 0
-238 -244 0
-238 -245 0
-238 -246 0
-238 -247 0
-238 -248 0
-238 -249 0
-238 -250 0
-238 -251 0
-238 -252 0
-239 -240 0
-239 -241 0
-239 -242 0
-239 -243 0
-239 -244 0
-239 -245 0
-239 -246 0
-239 -247 0
-239 -248 0
-239 -249 0
-239 -250 0
-239 -251 0
-239 -252 0
-240 -241 0
-240 -242 0
-240 -243 0
-240 -244 0
-240 -245 0
-240 -246 0
-240 -247 0
-240 -248 0
-240 -249 0
-240 -250 0
-240 -251 0
-240 -252 0
-241 -242 0
-241 -243 0
-241 -244 0
-241 -245 0
-241 -246 0
-241 -247 0
-241 -248 0
-241 -249 0
-241 -250 0
-241 -251 0
-241 -252 0
-242 -243 0
-242 -244 0
-242 -245 0
-242 -246 0
-242 -247 0
-242 -248 0
-242 -249 0
-242 -250 0
-242 -251 0
-242 -252 0
-243 -244 0
-243 -245 0
-243 -246 0
-243 -247 0
-243 -248 0
-243 -249 0
-243 -250 0
-243 -251 0
-243 -252 0
-244 -245 0
-244 -246 0
-244 -247 0
-244 -248 0
-244 -249 0
-244 -250 0
-244 -251 0
-244 -252 0
-245 -246 0
-245 -247 0
-245 -248 0
-245 -249 0
-245 -250 0
-245 -251 0
-245 -252 0
-246 -247 0
-246 -248 0
-246 -249 0
-246 -250 0
-246 -251 0
-246 -252 0
-247 -248 0
-247 -249 0
-247 -250 0
-247 -251 0
-247 -252 0
-248 -249 0
-248 -250 0
-248 -251 0
-248 -252 0
-249 -250 0
-249 -251 0
-249 -252 0
-250 -251 0
-250 -252 0
-251 -252 0
235 236 237 238 239 240 241 242 243 244 245 246 247 248 249 250 251 252 0
-253 -254 0
-253 -255 0
-253 -256 0
-253 -257 0
-253 -258 0
-253 -259 0
-253 -260 0
-253 -261 0
-253 -262 0
-253 -263 0
-253 -264 0
-253 -265 0
-253 -266 0
-253 -267 0
-253 -268 0
-253 -269 0
-253 -270 0
-254 -255 0
-254 -256 0
-254 -257 0
-254 -258 0
-254 -259 0
-254 -260 0
-254 -261 0
-254 -262 0
-254 -263 0
-254 -264 0
-254 -265 0
-254 -266 0
-254 -267 0
-254 -268 0
-254 -269 0
-254 -270 0
-255 -256 0
-255 -257 0
-255 -258 0
-255 -259 0
-255 -260 0
-255 -261 0
-255 -262 0
-255 -263 0
-255 -264 0
-255 -265 0
-255 -266 0
-255 -267 0
-255 -268 0
-255 -269 0
-255 -270 0
-256 -257 0
-256 -258 0
-256 -259 0
-256 -260 0
-256 -261 0
-256 -262 0
-256 -263 0
-256 -264 0
-256 -265 0
-256 -266 0
-256 -267 0
-256 -268 0
-256 -269 0
-256 -270 0
-257 -258 0
-257 -259 0
-257 -260 0
-257 -261 0
-257 -262 0
-257 -263 0
-257 -264 0
-257 -265 0
-257 -266 0
-257 -267 0
-257 -268 0
-257 -269 0
-257 -270 0
-258 -259 0
-258 -260 0
-258 -261 0
-258 -262 0
-258 -263 0
-258 -264 0
-258 -265 0
-258 -266 0
-258 -267 0
-258 -268 0
-258 -269 0
-258 -270 0
-259 -260 0
-259 -261 0
-259 -262 0
-259 -263 0
-259 -264 0
-259 -265 0
-259 -266 0
-259 -267 0
-259 -268 0
-259 -269 0
-259 -270 0
-260 -261 0
-260 -262 0
-260 -263 0
-260 -264 0
-260 -265 0
-260 -266 0
-260 -267 0
-260 -268 0
-260 -269 0
-260 -270 0
-261 -262 0
-261 -263 0
-261 -264 0
-261 -265 0
-261 -266 0
-261 -267 0
-261 -268 0
-261 -269 0
-261 -270 0
-262 -263 0
-262 -264 0
-262 -265 0
-262 -266 0
-262 -267 0
-262 -268 0
-262 -269 0
-262 -270 0
-263 -264 0
-263 -265 0
-263 -266 0
-263 -267 0
-263 -268 0
-263 -269 0
-263 -270 0
-264 -265 0
-264 -266 0
-264 -267 0
-264 -268 0
-264 -269 0
-264 -270 0
-265 -266 0
-265 -267 0
-265 -268 0
-265 -269 0
-265 -270 0
-266 -267 0
-266 -268 0
-266 -269 0
-266 -270 0
-267 -268 0
-267 -269 0
-267 -270 0
-268 -269 0
-268 -270 0
-269 -270 0
253 254 255 256 257 258 259 260 261 262 263 264 265 266 267 268 269 270 0
-271 -272 0
-271 -273 0
-271 -274 0
-271 -275 0
-271 -276 0
-271 -277 0
-271 -278 0
-271 -279 0
-271 -280 0
-271 -281 0
-271 -282 0
-271 -283 0
-271 -284 0
-271 -285 0
-271 -286 0
-271 -287 0
-271 -288 0
-272 -273 0
-272 -274 0
-272 -275 0
-272 -276 0
-272 -277 0
-272 -278 0
-272 -279 0
-272 -280 0
-272 -281 0
-272 -282 0
-272 -283 0
-272 -284 0
-272 -285 0
-272 -286 0
-272 -287 0
-272 -288 0
-273 -274 0
-273 -275 0
-273 -276 0
-273 -277 0
-273 -278 0
-273 -279 0
-273 -280 0
-273 -281 0
-273 -282 0
-273 -283 0
-273 -284 0
-273 -285 0
-273 -286 0
-273 -287 0
-273 -288 0
-274 -275 0
-274 -276 0
-274 -277 0
-274 -278 0
-274 -279 0
-274 -280 0
-274 -281 0
-274 -282 0
-274 -283 0
-274 -284 0
-274 -285 0
-274 -286 0
-274 -287 0
-274 -288 0
-275 -276 0
-275 -277 0
-275 -278 0
-275 -279 0
-275 -280 0
-275 -281 0
-275 -282 0
-275 -283 0
-275 -284 0
-275 -285 0
-275 -286 0
-275 -287 0
-275 -288 0
-276 -277 0
-276 -278 0
-276 -279 0
-276 -280 0
-276 -281 0
-276 -282 0
-276 -283 0
-276 -284 0
-276 -285 0
-276 -286 0
-276 -287 0
-276 -288 0
-277 -278 0
-277 -279 0
-277 -280 0
-277 -281 0
-277 -282 0
-277 -283 0
-277 -284 0
-277 -285 0
-277 -286 0
-277 -287 0
-277 -288 0
-278 -279 0
-278 -280 0
-278 -281 0
-278 -282 0
-278 -283 0
-278 -284 0
-278 -285 0
-278 -286 0
-278 -287 0
-278 -288 0
-279 -280 0
-279 -281 0
-279 -282 0
-279 -283 0
-279 -284 0
-279 -285 0
-279 -286 0
-279 -287 0
-279 -288 0
-280 -281 0
-280 -282 0
-280 -283 0
-280 -284 0
-280 -285 0
-280 -286 0
-280 -287 0
-280 -288 0
-281 -282 0
-281 -283 0
-281 -284 0
-281 -285 0
-281 -286 0
-281 -287 0
-281 -288 0
-282 -283 0
-282 -284 0
-282 -285 0
-282 -286 0
-282 -287 0
-282 -288 0
-283 -284 0
-283 -285 0
-283 -286 0
-283 -287 0
-283 -288 0
-284 -285 0
-284 -286 0
-284 -287 0
-284 -288 0
-285 -286 0
-285 -287 0
-285 -288 0
-286 -287 0
-286 -288 0
-287 -288 0
271 272 273 274 275 276 277 278 279 280 281 282 283 284 285 286 287 288 0
-289 -290 0
-289 -291 0
-289 -292 0
-289 -293 0
-289 -294 0
-289 -295 0
-289 -296 0
-289 -297 0
-289 -298 0
-289 -299 0
-289 -300 0
-289 -301 0
-289 -302 0
-289 -303 0
-289 -304 0
-289 -305 0
-289 -306 0
-290 -291 0
-290 -292 0
-290 -293 0
-290 -294 0
-290 -295 0
-290 -296 0
-290 -297 0
-290 -298 0
-290 -299 0
-290 -300 0
-290 -301 0
-290 -302 0
-290 -303 0
-290 -304 0
-290 -305 0
-290 -306 0
-291 -292 0
-291 -293 0
-291 -294 0
-291 -295 0
-291 -296 0
-291 -297 0
-291 -298 0
-291 -299 0
-291 -300 0
-291 -301 0
-291 -302 0
-291 -303 0
-291 -304 0
-291 -305 0
-291 -306 0
-292 -293 0
-292 -294 0
-292 -295 0
-292 -296 0
-292 -297 0
-292 -298 0
-292 -299 0
-292 -300 0
-292 -301 0
-292 -302 0
-292 -303 0
-292 -304 0
-292 -305 0
-292 -306 0
-293 -294 0
-293 -295 0
-293 -296 0
-293 -297 0
-293 -298 0
-293 -299 0
-293 -300 0
-293 -301 0
-293 -302 0
-293 -303 0
-293 -304 0
-293 -305 0
-293 -306 0
-294 -295 0
-294 -296 0
-294 -297 0
-294 -298 0
-294 -299 0
-294 -300 0
-294 -301 0
-294 -302 0
-294 -303 0
-294 -304 0
-294 -305 0
-294 -306 0
-295 -296 0
-295 -297 0
-295 -298 0
-295 -299 0
-295 -300 0
-295 -301 0
-295 -302 0
-295 -303 0
-295 -304 0
-295 -305 0
-295 -306 0
-296 -297 0
-296 -298 0
-296 -299 0
-296 -300 0
-296 -301 0
-296 -302 0
-296 -303 0
-296 -304 0
-296 -305 0
-296 -306 0
-297 -298 0
-297 -299 0
-297 -300 0
-297 -301 0
-297 -302 0
-297 -303 0
-297 -304 0
-297 -305 0
-297 -306 0
-298 -299 0
-298 -300 0
-298 -301 0
-298 -302 0
-298 -303 0
-298 -304 0
-298 -305 0
-298 -306 0
-299 -300 0
-299 -301 0
-299 -302 0
-299 -303 0
-299 -304 0
-299 -305 0
-299 -306 0
-300 -301 0
-300 -302 0
-300 -303 0
-300 -304 0
-300 -305 0
-300 -306 0
-301 -302 0
-301 -303 0
-301 -304 0
-301 -305 0
-301 -306 0
-302 -303 0
-302 -304 0
-302 -305 0
-302 -306 0
-303 -304 0
-303 -305 0
-303 -306 0
-304 -305 0
-304 -306 0
-305 -306 0
289 290 291 292 293 294 295 296 297 298 299 300 301 302 303 304 305 306 0
-307 -308 0
-307 -309 0
-307 -310 0
-307 -311 0
-307 -312 0
-307 -313 0
-307 -314 0
-307 -315 0
-307 -316 0
-307 -317 0
-307 -318 0
-307 -319 0
-307 -320 0
-307 -321 0
-307 -322 0
-307 -323 0
-307 -324 0
-308 -309 0
-308 -310 0
-308 -311 0
-308 -312 0
-308 -313 0
-308 -314 0
-308 -315 0
-308 -316 0
-308 -317 0
-308 -318 0
-308 -319 0
-308 -320 0
-308 -321 0
-308 -322 0
-308 -323 0
-308 -324 0
-309 -310 0
-309 -311 0
-309 -312 0
-309 -313 0
-309 -314 0
-309 -315 0
-309 -316 0
-309 -317 0
-309 -318 0
-309 -319 0
-309 -320 0
-309 -321 0
-309 -322 0
-309 -323 0
-309 -324 0
-310 -311 0
-310 -312 0
-310 -313 0
-310 -314 0
-310 -315 0
-310 -316 0
-310 -317 0
-310 -318 0
-310 -319 0
-310 -320 0
-310 -321 0
-310 -322 0
-310 -323 0
-310 -324 0
-311 -312 0
-311 -313 0
-311 -314 0
-311 -315 0
-311 -316 0
-311 -317 0
-311 -318 0
-311 -319 0
-311 -320 0
-311 -321 0
-311 -322 0
-311 -323 0
-311 -324 0
-312 -313 0
-312 -314 0
-312 -315 0
-312 -316 0
-312 -317 0
-312 -318 0
-312 -319 0
-312 -320 0
-312 -321 0
-312 -322 0
-312 -323 0
-312 -324 0
-313 -314 0
-313 -315 0
-313 -316 0
-313 -317 0
-313 -318 0
-313 -319 0
-313 -320 0
-313 -321 0
-313 -322 0
-313 -323 0
-313 -324 0
-314 -315 0
-314 -316 0
-314 -317 0
-314 -318 0
-314 -319 0
-314 -320 0
-314 -321 0
-314 -322 0
-314 -323 0
-314 -324 0
-315 -316 0
-315 -317 0
-315 -318 0
-315 -319 0
-315 -320 0
-315 -321 0
-315 -322 0
-315 -323 0
-315 -324 0
-316 -317 0
-316 -318 0
-316 -319 0
-316 -320 0
-316 -321 0
-316 -322 0
-316 -323 0
-316 -324 0
-317 -318 0
-317 -319 0
-317 -320 0
-317 -321 0
-317 -322 0
-317 -323 0
-317 -324 0
-318 -319 0
-318 -320 0
-318 -321 0
-318 -322 0
-318 -323 0
-318 -324 0
-319 -320 0
-319 -321 0
-319 -322 0
-319 -323 0
-319 -324 0
-320 -321 0
-320 -322 0
-320 -323 0
-320 -324 0
-321 -322 0
-321 -323 0
-321 -324 0
-322 -323 0
-322 -324 0
-323 -324 0
307 308 309 310 311 312 313 314 315 316 317 318 319 320 321 322 323 324 0
-325 -326 0
-325 -327 0
-325 -328 0
-325 -329 0
-325 -330 0
-325 -331 0
-325 -332 0
-325 -333 0
-325 -334 0
-325 -335 0
-325 -336 0
-325 -337 0
-325 -338 0
-325 -339 0
-325 -340 0
-325 -341 0
-325 -342 0
-326 -327 0
-326 -328 0
-326 -329 0
-326 -330 0
-326 -331 0
-326 -332 0
-326 -333 0
-326 -334 0
-326 -335 0
-326 -336 0
-326 -337 0
-326 -338 0
-326 -339 0
-326 -340 0
-326 -341 0
-326 -342 0
-327 -328 0
-327 -329 0
-327 -330 0
-327 -331 0
-327 -332 0
-327 -333 0
-327 -334 0
-327 -335 0
-327 -336 0
-327 -337 0
-327 -338 0
-327 -339 0
-327 -340 0
-327 -341 0
-327 -342 0
-328 -329 0
-328 -330 0
-328 -331 0
-328 -332 0
-328 -333 0
-328 -334 0
-328 -335 0
-328 -336 0
-328 -337 0
-328 -338 0
-328 -339 0
-328 -340 0
-328 -341 0
-328 -342 0
-329 -330 0
-329 -331 0
-329 -332 0
-329 -333 0
-329 -334 0
-329 -335 0
-329 -336 0
-329 -337 0
-329 -338 0
-329 -339 0
-329 -340 0
-329 -341 0
-329 -342 0
-330 -331 0
-330 -332 0
-330 -333 0
-330 -334 0
-330 -335 0
-330 -336 0
-330 -337 0
-330 -338 0
-330 -339 0
-330 -340 0
-330 -341 0
-330 -342 0
-331 -332 0
-331 -333 0
-331 -334 0
-331 -335 0
-331 -336 0
-331 -337 0
-331 -338 0
-331 -339 0
-331 -340 0
-331 -341 0
-331 -342 0
-332 -333 0
-332 -334 0
-332 -335 0
-332 -336 0
-332 -337 0
-332 -338 0
-332 -339 0
-332 -340 0
-332 -341 0
-332 -342 0
-333 -334 0
-333 -335 0
-333 -336 0
-333 -337 0
-333 -338 0
-333 -339 0
-333 -340 0
-333 -341 0
-333 -342 0
-334 -335 0
-334 -336 0
-334 -337 0
-334 -338 0
-334 -339 0
-334 -340 0
-334 -341 0
-334 -342 0
-335 -336 0
-335 -337 0
-335 -338 0
-335 -339 0
-335 -340 0
-335 -341 0
-335 -342 0
-336 -337 0
-336 -338 0
-336 -339 0
-336 -340 0
-336 -341 0
-336 -342 0
-337 -338 0
-337 -339 0
-337 -340 0
-337 -341 0
-337 -342 0
-338 -339 0
-338 -340 0
-338 -341 0
-338 -342 0
-339 -340 0
-339 -341 0
-339 -342 0
-340 -341 0
-340 -342 0
-341 -342 0
325 326 327 328 329 330 331 332 333 334 335 336 337 338 339 340 341 342 0
-343 -344 0
-343 -345 0
-343 -346 0
-343 -347 0
-343 -348 0
-343 -349 0
-343 -350 0
-343 -351 0
-343 -352 0
-343 -353 0
-343 -354 0
-343 -355 0
-343 -356 0
-343 -357 0
-343 -358 0
-343 -359 0
-343 -360 0
-343 -361 0
-344 -345 0
-344 -346 0
-344 -347 0
-344 -348 0
-344 -349 0
-344 -350 0
-344 -351 0
-344 -352 0
-344 -353 0
-344 -354 0
-344 -355 0
-344 -356 0
-344 -357 0
-344 -358 0
-344 -359 0
-344 -360 0
-344 -361 0
-345 -346 0
-345 -347 0
-345 -348 0
-345 -349 0
-345 -350 0
-345 -351 0
-345 -352 0
-345 -353 0
-345 -354 0
-345 -355 0
-345 -356 0
-345 -357 0
-345 -358 0
-345 -359 0
-345 -360 0
-345 -361 0
-346 -347 0
-346 -348 0
-346 -349 0
-346 -350 0
-346 -351 0
-346 -352 0
-346 -353 0
-346 -354 0
-346 -355 0
-346 -356 0
-346 -357 0
-346 -358 0
-346 -359 0
-346 -360 0
-346 -361 0
-347 -348 0
-347 -349 0
-347 -350 0
-347 -351 0
-347 -352 0
-347 -353 0
-347 -354 0
-347 -355 0
-347 -356 0
-347 -357 0
-347 -358 0
-347 -359 0
-347 -360 0
-347 -361 0
-348 -349 0
-348 -350 0
-348 -351 0
-348 -352 0
-348 -353 0
-348 -354 0
-348 -355 0
-348 -356 0
-348 -357 0
-348 -358 0
-348 -359 0
-348 -360 0
-348 -361 0
-349 -350 0
-349 -351 0
-349 -352 0
-349 -353 0
-349 -354 0
-349 -355 0
-349 -356 0
-349 -357 0
-349 -358 0
-349 -359 0
-349 -360 0
-349 -361 0
-350 -351 0
-350 -352 0
-350 -353 0
-350 -354 0
-350 -355 0
-350 -356 0
-350 -357 0
-350 -358 0
-350 -359 0
-350 -360 0
-350 -361 0
-351 -352 0
-351 -353 0
-351 -354 0
-351 -355 0
-351 -356 0
-351 -357 0
-351 -358 0
-351 -359 0
-351 -360 0
-351 -361 0
-352 -353 0
-352 -354 0
-352 -355 0
-352 -356 0
-352 -357 0
-352 -358 0
-352 -359 0
-352 -360 0
-352 -361 0
-353 -354 0
-353 -355 0
-353 -356 0
-353 -357 0
-353 -358 0
-353 -359 0
-353 -360 0
-353 -361 0
-354 -355 0
-354 -356 0
-354 -357 0
-354 -358 0
-354 -359 0
-354 -360 0
-354 -361 0
-355 -356 0
-355 -357 0
-355 -358 0
-355 -359 0
-355 -360 0
-355 -361 0
-356 -357 0
-356 -358 0
-356 -359 0
-356 -360 0
-356 -361 0
-357 -358 0
-357 -359 0
-357 -360 0
-357 -361 0
-358 -359 0
-358 -360 0
-358 -361 0
-359 -360 0
-359 -361 0
-360 -361 0
343 344 345 346 347 348 349 350 351 352 353 354 355 356 357 358 359 360 361 0
-362 -363 0
-362 -364 0
-362 -365 0
-362 -366 0
-362 -367 0
-362 -368 0
-362 -369 0
-362 -370 0
-362 -371 0
-362 -372 0
-362 -373 0
-362 -374 0
-362 -375 0
-362 -376 0
-362 -377 0
-362 -378 0
-362 -379 0
-362 -380 0
-363 -364 0
-363 -365 0
-363 -366 0
-363 -367 0
-363 -368 0
-363 -369 0
-363 -370 0
-363 -371 0
-363 -372 0
-363 -373 0
-363 -374 0
-363 -375 0
-363 -376 0
-363 -377 0
-363 -378 0
-363 -379 0
-363 -380 0
-364 -365 0
-364 -366 0
-364 -367 0
-364 -368 0
-364 -369 0
-364 -370 0
-364 -371 0
-364 -372 0
-364 -373 0
-364 -374 0
-364 -375 0
-364 -376 0
-364 -377 0
-364 -378 0
-364 -379 0
-364 -380 0
-365 -366 0
-365 -367 0
-365 -368 0
-365 -369 0
-365 -370 0
-365 -371 0
-365 -372 0
-365 -373 0
-365 -374 0
-365 -375 0
-365 -376 0
-365 -377 0
-365 -378 0
-365 -379 0
-365 -380 0
-366 -367 0
-366 -368 0
-366 -369 0
-366 -370 0
-366 -371 0
-366 -372 0
-366 -373 0
-366 -374 0
-366 -375 0
-366 -376 0
-366 -377 0
-366 -378 0
-366 -379 0
-366 -380 0
-367 -368 0
-367 -369 0
-367 -370 0
-367 -371 0
-367 -372 0
-367 -373 0
-367 -374 0
-367 -375 0
-367 -376 0
-367 -377 0
-367 -378 0
-367 -379 0
-367 -380 0
-368 -369 0
-368 -370 0
-368 -371 0
-368 -372 0
-368 -373 0
-368 -374 0
-368 -375 0
-368 -376 0
-368 -377 0
-368 -378 0
-368 -379 0
-368 -380 0
-369 -370 0
-369 -371 0
-369 -372 0
-369 -373 0
-369 -374 0
-369 -375 0
-369 -376 0
-369 -377 0
-369 -378 0
-369 -379 0
-369 -380 0
-370 -371 0
-370 -372 0
-370 -373 0
-370 -374 0
-370 -375 0
-370 -376 0
-370 -377 0
-370 -378 0
-370 -379 0
-370 -380 0
-371 -372 0
-371 -373 0
-371 -374 0
-371 -375 0
-371 -376 0
-371 -377 0
-371 -378 0
-371 -379 0
-371 -380 0
-372 -373 0
-372 -374 0
-372 -375 0
-372 -376 0
-372 -377 0
-372 -378 0
-372 -379 0
-372 -380 0
-373 -374 0
-373 -375 0
-373 -376 0
-373 -377 0
-373 -378 0
-373 -379 0
-373 -380 0
-374 -375 0
-374 -376 0
-374 -377 0
-374 -378 0
-374 -379 0
-374 -380 0
-375 -376 0
-375 -377 0
-375 -378 0
-375 -379 0
-375 -380 0
-376 -377 0
-376 -378 0
-376 -379 0
-376 -380 0
-377 -378 0
-377 -379 0
-377 -380 0
-378 -379 0
-378 -380 0
-379 -380 0
362 363 364 365 366 367 368 369 370 371 372 373 374 375 376 377 378 379 380 0
-381 -382 0
-381 -383 0
-381 -384 0
-381 -385 0
-381 -386 0
-381 -387 0
-381 -388 0
-381 -389 0
-381 -390 0
-381 -391 0
-381 -392 0
-381 -393 0
-381 -394 0
-381 -395 0
-381 -396 0
-381 -397 0
-381 -398 0
-381 -399 0
-382 -383 0
-382 -384 0
-382 -385 0
-382 -386 0
-382 -387 0
-382 -388 0
-382 -389 0
-382 -390 0
-382 -391 0
-382 -392 0
-382 -393 0
-382 -394 0
-382 -395 0
-382 -396 0
-382 -397 0
-382 -398 0
-382 -399 0
-383 -384 0
-383 -385 0
-383 -386 0
-383 -387 0
-383 -388 0
-383 -389 0
-383 -390 0
-383 -391 0
-383 -392 0
-383 -393 0
-383 -394 0
-383 -395 0
-383 -396 0
-383 -397 0
-383 -398 0
-383 -399 0
-384 -385 0
-384 -386 0
-384 -387 0
-384 -388 0
-384 -389 0
-384 -390 0
-384 -391 0
-384 -392 0
-384 -393 0
-384 -394 0
-384 -395 0
-384 -396 0
-384 -397 0
-384 -398 0
-384 -399 0
-385 -386 0
-385 -387 0
-385 -388 0
-385 -389 0
-385 -390 0
-385 -391 0
-385 -392 0
-385 -393 0
-385 -394 0
-385 -395 0
-385 -396 0
-385 -397 0
-385 -398 0
-385 -399 0
-386 -387 0
-386 -388 0
-386 -389 0
-386 -390 0
-386 -391 0
-386 -392 0
-386 -393 0
-386 -394 0
-386 -395 0
-386 -396 0
-386 -397 0
-386 -398 0
-386 -399 0
-387 -388 0
-387 -389 0
-387 -390 0
-387 -391 0
-387 -392 0
-387 -393 0
-387 -394 0
-387 -395 0
-387 -396 0
-387 -397 0
-387 -398 0
-387 -399 0
-388 -389 0
-388 -390 0
-388 -391 0
-388 -392 0
-388 -393 0
-388 -394 0
-388 -395 0
-388 -396 0
-388 -397 0
-388 -398 0
-388 -399 0
-389 -390 0
-389 -391 0
-389 -392 0
-389 -393 0
-389 -394 0
-389 -395 0
-389 -396 0
-389 -397 0
-389 -398 0
-389 -399 0
-390 -391 0
-390 -392 0
-390 -393 0
-390 -394 0
-390 -395 0
-390 -396 0
-390 -397 0
-390 -398 0
-390 -399 0
-391 -392 0
-391 -393 0
-391 -394 0
-391 -395 0
-391 -396 0
-391 -397 0
-391 -398 0
-391 -399 0
-392 -393 0
-392 -394 0
-392 -395 0
-392 -396 0
-392 -397 0
-392 -398 0
-392 -399 0
-393 -394 0
-393 -395 0
-393 -396 0
-393 -397 0
-393 -398 0
-393 -399 0
-394 -395 0
-394 -396 0
-394 -397 0
-394 -398 0
-394 -399 0
-395 -396 0
-395 -397 0
-395 -398 0
-395 -399 0
-396 -397 0
-396 -398 0
-396 -399 0
-397 -398 0
-397 -399 0
-398 -399 0
381 382 383 384 385 386 387 388 389 390 391 392 393 394 395 396 397 398 399 0
-400 -401 0
-400 -402 0
-400 -403 0
-400 -404 0
-400 -405 0
-400 -406 0
-400 -407 0
-400 -408 0
-400 -409 0
-400 -410 0
-400 -411 0
-400 -412 0
-400 -413 0
-400 -414 0
-400 -415 0
-400 -416 0
-400 -417 0
-400 -418 0
-401 -402 0
-401 -403 0
-401 -404 0
-401 -405 0
-401 -406 0
-401 -407 0
-401 -408 0
-401 -409 0
-401 -410 0
-401 -411 0
-401 -412 0
-401 -413 0
-401 -414 0
-401 -415 0
-401 -416 0
-401 -417 0
-401 -418 0
-402 -403 0
-402 -404 0
-402 -405 0
-402 -406 0
-402 -407 0
-402 -408 0
-402 -409 0
-402 -410 0
-402 -411 0
-402 -412 0
-402 -413 0
-402 -414 0
-402 -415 0
-402 -416 0
-402 -417 0
-402 -418 0
-403 -404 0
-403 -405 0
-403 -406 0
-403 -407 0
-403 -408 0
-403 -409 0
-403 -410 0
-403 -411 0
-403 -412 0
-403 -413 0
-403 -414 0
-403 -415 0
-403 -416 0
-403 -417 0
-403 -418 0
-404 -405 0
-404 -406 0
-404 -407 0
-404 -408 0
-404 -409 0
-404 -410 0
-404 -411 0
-404 -412 0
-404 -413 0
-404 -414 0
-404 -415 0
-404 -416 0
-404 -417 0
-404 -418 0
-405 -406 0
-405 -407 0
-405 -408 0
-405 -409 0
-405 -410 0
-405 -411 0
-405 -412 0
-405 -413 0
-405 -414 0
-405 -415 0
-405 -416 0
-405 -417 0
-405 -418 0
-406 -407 0
-406 -408 0
-406 -409 0
-406 -410 0
-406 -411 0
-406 -412 0
-406 -413 0
-406 -414 0
-406 -415 0
-406 -416 0
-406 -417 0
-406 -418 0
-407 -408 0
-407 -409 0
-407 -410 0
-407 -411 0
-407 -412 0
-407 -413 0
-407 -414 0
-407 -415 0
-407 -416 0
-407 -417 0
-407 -418 0
-408 -409 0
-408 -410 0
-408 -411 0
-408 -412 0
-408 -413 0
-408 -414 0
-408 -415 0
-408 -416 0
-408 -417 0
-408 -418 0
-409 -410 0
-409 -411 0
-409 -412 0
-409 -413 0
-409 -414 0
-409 -415 0
-409 -416 0
-409 -417 0
-409 -418 0
-410 -411 0
-410 -412 0
-410 -413 0
-410 -414 0
-410 -415 0
-410 -416 0
-410 -417 0
-410 -418 0
-411 -412 0
-411 -413 0
-411 -414 0
-411 -415 0
-411 -416 0
-411 -417 0
-411 -418 0
-412 -413 0
-412 -414 0
-412 -415 0
-412 -416 0
-412 -417 0
-412 -418 0
-413 -414 0
-413 -415 0
-413 -416 0
-413 -417 0
-413 -418 0
-414 -415 0
-414 -416 0
-414 -417 0
-414 -418 0
-415 -416 0
-415 -417 0
-415 -418 0
-416 -417 0
-416 -418 0
-417 -418 0
400 401 402 403 404 405 406 407 408 409 410 411 412 413 414 415 416 417 418 0
-419 -420 0
-419 -421 0
-419 -422 0
-419 -423 0
-419 -424 0
-419 -425 0
-419 -426 0
-419 -427 0
-419 -428 0
-419 -429 0
-419 -430 0
-419 -431 0
-419 -432 0
-419 -433 0
-419 -434 0
-419 -435 0
-419 -436 0
-419 -437 0
-420 -421 0
-420 -422 0
-420 -423 0
-420 -424 0
-420 -425 0
-420 -426 0
-420 -427 0
-420 -428 0
-420 -429 0
-420 -430 0
-420 -431 0
-420 -432 0
-420 -433 0
-420 -434 0
-420 -435 0
-420 -436 0
-420 -437 0
-421 -422 0
-421 -423 0
-421 -424 0
-421 -425 0
-421 -426 0
-421 -427 0
-421 -428 0
-421 -429 0
-421 -430 0
-421 -431 0
-421 -432 0
-421 -433 0
-421 -434 0
-421 -435 0
-421 -436 0
-421 -437 0
-422 -423 0
-422 -424 0
-422 -425 0
-422 -426 0
-422 -427 0
-422 -428 0
-422 -429 0
-422 -430 0
-422 -431 0
-422 -432 0
-422 -433 0
-422 -434 0
-422 -435 0
-422 -436 0
-422 -437 0
-423 -424 0
-423 -425 0
-423 -426 0
-423 -427 0
-423 -428 0
-423 -429 0
-423 -430 0
-423 -431 0
-423 -432 0
-423 -433 0
-423 -434 0
-423 -435 0
-423 -436 0
-423 -437 0
-424 -425 0
-424 -426 0
-424 -427 0
-424 -428 0
-424 -429 0
-424 -430 0
-424 -431 0
-424 -432 0
-424 -433 0
-424 -434 0
-424 -435 0
-424 -436 0
-424 -437 0
-425 -426 0
-425 -427 0
-425 -428 0
-425 -429 0
-425 -430 0
-425 -431 0
-425 -432 0
-425 -433 0
-425 -434 0
-425 -435 0
-425 -436 0
-425 -437 0
-426 -427 0
-426 -428 0
-426 -429 0
-426 -430 0
-426 -431 0
-426 -432 0
-426 -433 0
-426 -434 0
-426 -435 0
-426 -436 0
-426 -437 0
-427 -428 0
-427 -429 0
-427 -430 0
-427 -431 0
-427 -432 0
-427 -433 0
-427 -434 0
-427 -435 0
-427 -436 0
-427 -437 0
-428 -429 0
-428 -430 0
-428 -431 0
-428 -432 0
-428 -433 0
-428 -434 0
-428 -435 0
-428 -436 0
-428 -437 0
-429 -430 0
-429 -431 0
-429 -432 0
-429 -433 0
-429 -434 0
-429 -435 0
-429 -436 0
-429 -437 0
-430 -431 0
-430 -432 0
-430 -433 0
-430 -434 0
-430 -435 0
-430 -436 0
-430 -437 0
-431 -432 0
-431 -433 0
-431 -434 0
-431 -435 0
-431 -436 0
-431 -437 0
-432 -433 0
-432 -434 0
-432 -435 0
-432 -436 0
-432 -437 0
-433 -434 0
-433 -435 0
-433 -436 0
-433 -437 0
-434 -435 0
-434 -436 0
-434 -437 0
-435 -436 0
-435 -437 0
-436 -437 0
419 420 421 422 423 424 425 426 427 428 429 430 431 432 433 434 435 436 437 0
-438 -439 0
-438 -440 0
-438 -441 0
-438 -442 0
-438 -443 0
-438 -444 0
-438 -445 0
-438 -446 0
-438 -447 0
-438 -448 0
-438 -449 0
-438 -450 0
-438 -451 0
-438 -452 0
-438 -453 0
-438 -454 0
-438 -455 0
-438 -456 0
-439 -440 0
-439 -441 0
-439 -442 0
-439 -443 0
-439 -444 0
-439 -445 0
-439 -446 0
-439 -447 0
-439 -448 0
-439 -449 0
-439 -450 0
-439 -451 0
-439 -452 0
-439 -453 0
-439 -454 0
-439 -455 0
-439 -456 0
-440 -441 0
-440 -442 0
-440 -443 0
-440 -444 0
-440 -445 0
-440 -446 0
-440 -447 0
-440 -448 0
-440 -449 0
-440 -450 0
-440 -451 0
-440 -452 0
-440 -453 0
-440 -454 0
-440 -455 0
-440 -456 0
-441 -442 0
-441 -443 0
-441 -444 0
-441 -445 0
-441 -446 0
-441 -447 0
-441 -448 0
-441 -449 0
-441 -450 0
-441 -451 0
-441 -452 0
-441 -453 0
-441 -454 0
-441 -455 0
-441 -456 0
-442 -443 0
-442 -444 0
-442 -445 0
-442 -446 0
-442 -447 0
-442 -448 0
-442 -449 0
-442 -450 0
-442 -451 0
-442 -452 0
-442 -453 0
-442 -454 0
-442 -455 0
-442 -456 0
-443 -444 0
-443 -445 0
-443 -446 0
-443 -447 0
-443 -448 0
-443 -449 0
-443 -450 0
-443 -451 0
-443 -452 0
-443 -453 0
-443 -454 0
-443 -455 0
-443 -456 0
-444 -445 0
-444 -446 0
-444 -447 0
-444 -448 0
-444 -449 0
-444 -450 0
-444 -451 0
-444 -452 0
-444 -453 0
-444 -454 0
-444 -455 0
-444 -456 0
-445 -446 0
-445 -447 0
-445 -448 0
-445 -449 0
-445 -450 0
-445 -451 0
-445 -452 0
-445 -453 0
-445 -454 0
-445 -455 0
-445 -456 0
-446 -447 0
-446 -448 0
-446 -449 0
-446 -450 0
-446 -451 0
-446 -452 0
-446 -453 0
-446 -454 0
-446 -455 0
-446 -456 0
-447 -448 0
-447 -449 0
-447 -450 0
-447 -451 0
-447 -452 0
-447 -453 0
-447 -454 0
-447 -455 0
-447 -456 0
-448 -449 0
-448 -450 0
-448 -451 0
-448 -452 0
-448 -453 0
-448 -454 0
-448 -455 0
-448 -456 0
-449 -450 0
-449 -451 0
-449 -452 0
-449 -453 0
-449 -454 0
-449 -455 0
-449 -456 0
-450 -451 0
-450 -452 0
-450 -453 0
-450 -454 0
-450 -455 0
-450 -456 0
-451 -452 0
-451 -453 0
-451 -454 0
-451 -455 0
-451 -456 0
-452 -453 0
-452 -454 0
-452 -455 0
-452 -456 0
-453 -454 0
-453 -455 0
-453 -456 0
-454 -455 0
-454 -456 0
-455 -456 0
438 439 440 441 442 443 444 445 446 447 448 449 450 451 452 453 454 455 456 0
-457 -458 0
-457 -459 0
-457 -460 0
-457 -461 0
-457 -462 0
-457 -463 0
-457 -464 0
-457 -465 0
-457 -466 0
-457 -467 0
-457 -468 0
-457 -469 0
-457 -470 0
-457 -471 0
-457 -472 0
-457 -473 0
-457 -474 0
-457 -475 0
-458 -459 0
-458 -460 0
-458 -461 0
-458 -462 0
-458 -463 0
-458 -464 0
-458 -465 0
-458 -466 0
-458 -467 0
-458 -468 0
-458 -469 0
-458 -470 0
-458 -471 0
-458 -472 0
-458 -473 0
-458 -474 0
-458 -475 0
-459 -460 0
-459 -461 0
-459 -462 0
-459 -463 0
-459 -464 0
-459 -465 0
-459 -466 0
-459 -467 0
-459 -468 0
-459 -469 0
-459 -470 0
-459 -471 0
-459 -472 0
-459 -473 0
-459 -474 0
-459 -475 0
-460 -461 0
-460 -462 0
-460 -463 0
-460 -464 0
-460 -465 0
-460 -466 0
-460 -467 0
-460 -468 0
-460 -469 0
-460 -470 0
-460 -471 0
-460 -472 0
-460 -473 0
-460 -474 0
-460 -475 0
-461 -462 0
-461 -463 0
-461 -464 0
-461 -465 0
-461 -466 0
-461 -467 0
-461 -468 0
-461 -469 0
-461 -470 0
-461 -471 0
-461 -472 0
-461 -473 0
-461 -474 0
-461 -475 0
-462 -463 0
-462 -464 0
-462 -465 0
-462 -466 0
-462 -467 0
-462 -468 0
-462 -469 0
-462 -470 0
-462 -471 0
-462 -472 0
-462 -473 0
-462 -474 0
-462 -475 0
-463 -464 0
-463 -465 0
-463 -466 0
-463 -467 0
-463 -468 0
-463 -469 0
-463 -470 0
-463 -471 0
-463 -472 0
-463 -473 0
-463 -474 0
-463 -475 0
-464 -465 0
-464 -466 0
-464 -467 0
-464 -468 0
-464 -469 0
-464 -470 0
-464 -471 0
-464 -472 0
-464 -473 0
-464 -474 0
-464 -475 0
-465 -466 0
-465 -467 0
-465 -468 0
-465 -469 0
-465 -470 0
-465 -471 0
-465 -472 0
-465 -473 0
-465 -474 0
-465 -475 0
-466 -467 0
-466 -468 0
-466 -469 0
-466 -470 0
-466 -471 0
-466 -472 0
-466 -473 0
-466 -474 0
-466 -475 0
-467 -468 0
-467 -469 0
-467 -470 0
-467 -471 0
-467 -472 0
-467 -473 0
-467 -474 0
-467 -475 0
-468 -469 0
-468 -470 0
-468 -471 0
-468 -472 0
-468 -473 0
-468 -474 0
-468 -475 0
-469 -470 0
-469 -471 0
-469 -472 0
-469 -473 0
-469 -474 0
-469 -475 0
-470 -471 0
-470 -472 0
-470 -473 0
-470 -474 0
-470 -475 0
-471 -472 0
-471 -473 0
-471 -474 0
-471 -475 0
-472 -473 0
-472 -474 0
-472 -475 0
-473 -474 0
-473 -475 0
-474 -475 0
457 458 459 460 461 462 463 464 465 466 467 468 469 470 471 472 473 474 475 0
-476 -477 0
-476 -478 0
-476 -479 0
-476 -480 0
-476 -481 0
-476 -482 0
-476 -483 0
-476 -484 0
-476 -485 0
-476 -486 0
-476 -487 0
-476 -488 0
-476 -489 0
-476 -490 0
-476 -491 0
-476 -492 0
-476 -493 0
-476 -494 0
-477 -478 0
-477 -479 0
-477 -480 0
-477 -481 0
-477 -482 0
-477 -483 0
-477 -484 0
-477 -485 0
-477 -486 0
-477 -487 0
-477 -488 0
-477 -489 0
-477 -490 0
-477 -491 0
-477 -492 0
-477 -493 0
-477 -494 0
-478 -479 0
-478 -480 0
-478 -481 0
-478 -482 0
-478 -483 0
-478 -484 0
-478 -485 0
-478 -486 0
-478 -487 0
-478 -488 0
-478 -489 0
-478 -490 0
-478 -491 0
-478 -492 0
-478 -493 0
-478 -494 0
-479 -480 0
-479 -481 0
-479 -482 0
-479 -483 0
-479 -484 0
-479 -485 0
-479 -486 0
-479 -487 0
-479 -488 0
-479 -489 0
-479 -490 0
-479 -491 0
-479 -492 0
-479 -493 0
-479 -494 0
-480 -481 0
-480 -482 0
-480 -483 0
-480 -484 0
-480 -485 0
-480 -486 0
-480 -487 0
-480 -488 0
-480 -489 0
-480 -490 0
-480 -491 0
-480 -492 0
-480 -493 0
-480 -494 0
-481 -482 0
-481 -483 0
-481 -484 0
-481 -485 0
-481 -486 0
-481 -487 0
-481 -488 0
-481 -489 0
-481 -490 0
-481 -491 0
-481 -492 0
-481 -493 0
-481 -494 0
-482 -483 0
-482 -484 0
-482 -485 0
-482 -486 0
-482 -487 0
-482 -488 0
-482 -489 0
-482 -490 0
-482 -491 0
-482 -492 0
-482 -493 0
-482 -494 0
-483 -484 0
-483 -485 0
-483 -486 0
-483 -487 0
-483 -488 0
-483 -489 0
-483 -490 0
-483 -491 0
-483 -492 0
-483 -493 0
-483 -494 0
-484 -485 0
-484 -486 0
-484 -487 0
-484 -488 0
-484 -489 0
-484 -490 0
-484 -491 0
-484 -492 0
-484 -493 0
-484 -494 0
-485 -486 0
-485 -487 0
-485 -488 0
-485 -489 0
-485 -490 0
-485 -491 0
-485 -492 0
-485 -493 0
-485 -494 0
-486 -487 0
-486 -488 0
-486 -489 0
-486 -490 0
-486 -491 0
-486 -492 0
-486 -493 0
-486 -494 0
-487 -488 0
-487 -489 0
-487 -490 0
-487 -491 0
-487 -492 0
-487 -493 0
-487 -494 0
-488 -489 0
-488 -490 0
-488 -491 0
-488 -492 0
-488 -493 0
-488 -494 0
-489 -490 0
-489 -491 0
-489 -492 0
-489 -493 0
-489 -494 0
-490 -491 0
-490 -492 0
-490 -493 0
-490 -494 0
-491 -492 0
-491 -493 0
-491 -494 0
-492 -493 0
-492 -494 0
-493 -494 0
476 477 478 479 480 481 482 483 484 485 486 487 488 489 490 491 492 493 494 0
-495 -496 0
-495 -497 0
-495 -498 0
-495 -499 0
-495 -500 0
-495 -501 0
-495 -502 0
-495 -503 0
-495 -504 0
-495 -505 0
-495 -506 0
-495 -507 0
-495 -508 0
-495 -509 0
-495 -510 0
-495 -511 0
-495 -512 0
-495 -513 0
-496 -497 0
-496 -498 0
-496 -499 0
-496 -500 0
-496 -501 0
-496 -502 0
-496 -503 0
-496 -504 0
-496 -505 0
-496 -506 0
-496 -507 0
-496 -508 0
-496 -509 0
-496 -510 0
-496 -511 0
-496 -512 0
-496 -513 0
-497 -498 0
-497 -499 0
-497 -500 0
-497 -501 0
-497 -502 0
-497 -503 0
-497 -504 0
-497 -505 0
-497 -506 0
-497 -507 0
-497 -508 0
-497 -509 0
-497 -510 0
-497 -511 0
-497 -512 0
-497 -513 0
-498 -499 0
-498 -500 0
-498 -501 0
-498 -502 0
-498 -503 0
-498 -504 0
-498 -505 0
-498 -506 0
-498 -507 0
-498 -508 0
-498 -509 0
-498 -510 0
-498 -511 0
-498 -512 0
-498 -513 0
-499 -500 0
-499 -501 0
-499 -502 0
-499 -503 0
-499 -504 0
-499 -505 0
-499 -506 0
-499 -507 0
-499 -508 0
-499 -509 0
-499 -510 0
-499 -511 0
-499 -512 0
-499 -513 0
-500 -501 0
-500 -502 0
-500 -503 0
-500 -504 0
-500 -505 0
-500 -506 0
-500 -507 0
-500 -508 0
-500 -509 0
-500 -510 0
-500 -511 0
-500 -512 0
-500 -513 0
-501 -502 0
-501 -503 0
-501 -504 0
-501 -505 0
-501 -506 0
-501 -507 0
-501 -508 0
-501 -509 0
-501 -510 0
-501 -511 0
-501 -512 0
-501 -513 0
-502 -503 0
-502 -504 0
-502 -505 0
-502 -506 0
-502 -507 0
-502 -508 0
-502 -509 0
-502 -510 0
-502 -511 0
-502 -512 0
-502 -513 0
-503 -504 0
-503 -505 0
-503 -506 0
-503 -507 0
-503 -508 0
-503 -509 0
-503 -510 0
-503 -511 0
-503 -512 0
-503 -513 0
-504 -505 0
-504 -506 0
-504 -507 0
-504 -508 0
-504 -509 0
-504 -510 0
-504 -511 0
-504 -512 0
-504 -513 0
-505 -506 0
-505 -507 0
-505 -508 0
-505 -509 0
-505 -510 0
-505 -511 0
-505 -512 0
-505 -513 0
-506 -507 0
-506 -508 0
-506 -509 0
-506 -510 0
-506 -511 0
-506 -512 0
-506 -513 0
-507 -508 0
-507 -509 0
-507 -510 0
-507 -511 0
-507 -512 0
-507 -513 0
-508 -509 0
-508 -510 0
-508 -511 0
-508 -512 0
-508 -513 0
-509 -510 0
-509 -511 0
-509 -512 0
-509 -513 0
-510 -511 0
-510 -512 0
-510 -513 0
-511 -512 0
-511 -513 0
-512 -513 0
495 496 497 498 499 500 501 502 503 504 505 506 507 508 509 510 511 512 513 0
-514 -515 0
-514 -516 0
-514 -517 0
-514 -518 0
-514 -519 0
-514 -520 0
-514 -521 0
-514 -522 0
-514 -523 0
-514 -524 0
-514 -525 0
-514 -526 0
-514 -527 0
-514 -528 0
-514 -529 0
-514 -530 0
-514 -531 0
-514 -532 0
-515 -516 0
-515 -517 0
-515 -518 0
-515 -519 0
-515 -520 0
-515 -521 0
-515 -522 0
-515 -523 0
-515 -524 0
-515 -525 0
-515 -526 0
-515 -527 0
-515 -528 0
-515 -529 0
-515 -530 0
-515 -531 0
-515 -532 0
-516 -517 0
-516 -518 0
-516 -519 0
-516 -520 0
-516 -521 0
-516 -522 0
-516 -523 0
-516 -524 0
-516 -525 0
-516 -526 0
-516 -527 0
-516 -528 0
-516 -529 0
-516 -530 0
-516 -531 0
-516 -532 0
-517 -518 0
-517 -519 0
-517 -520 0
-517 -521 0
-517 -522 0
-517 -523 0
-517 -524 0
-517 -525 0
-517 -526 0
-517 -527 0
-517 -528 0
-517 -529 0
-517 -530 0
-517 -531 0
-517 -532 0
-518 -519 0
-518 -520 0
-518 -521 0
-518 -522 0
-518 -523 0
-518 -524 0
-518 -525 0
-518 -526 0
-518 -527 0
-518 -528 0
-518 -529 0
-518 -530 0
-518 -531 0
-518 -532 0
-519 -520 0
-519 -521 0
-519 -522 0
-519 -523 0
-519 -524 0
-519 -525 0
-519 -526 0
-519 -527 0
-519 -528 0
-519 -529 0
-519 -530 0
-519 -531 0
-519 -532 0
-520 -521 0
-520 -522 0
-520 -523 0
-520 -524 0
-520 -525 0
-520 -526 0
-520 -527 0
-520 -528 0
-520 -529 0
-520 -530 0
-520 -531 0
-520 -532 0
-521 -522 0
-521 -523 0
-521 -524 0
-521 -525 0
-521 -526 0
-521 -527 0
-521 -528 0
-521 -529 0
-521 -530 0
-521 -531 0
-521 -532 0
-522 -523 0
-522 -524 0
-522 -525 0
-522 -526 0
-522 -527 0
-522 -528 0
-522 -529 0
-522 -530 0
-522 -531 0
-522 -532 0
-523 -524 0
-523 -525 0
-523 -526 0
-523 -527 0
-523 -528 0
-523 -529 0
-523 -530 0
-523 -531 0
-523 -532 0
-524 -525 0
-524 -526 0
-524 -527 0
-524 -528 0
-524 -529 0
-524 -530 0
-524 -531 0
-524 -532 0
-525 -526 0
-525 -527 0
-525 -528 0
-525 -529 0
-525 -530 0
-525 -531 0
-525 -532 0
-526 -527 0
-526 -528 0
-526 -529 0
-526 -530 0
-526 -531 0
-526 -532 0
-527 -528 0
-527 -529 0
-527 -530 0
-527 -531 0
-527 -532 0
-528 -529 0
-528 -530 0
-528 -531 0
-528 -532 0
-529 -530 0
-529 -531 0
-529 -532 0
-530 -531 0
-530 -532 0
-531 -532 0
514 515 516 517 518 519 520 521 522 523 524 525 526 527 528 529 530 531 532 0
-533 -534 0
-533 -535 0
-533 -536 0
-533 -537 0
-533 -538 0
-533 -539 0
-533 -540 0
-533 -541 0
-533 -542 0
-533 -543 0
-533 -544 0
-533 -545 0
-533 -546 0
-533 -547 0
-533 -548 0
-533 -549 0
-533 -550 0
-533 -551 0
-534 -535 0
-534 -536 0
-534 -537 0
-534 -538 0
-534 -539 0
-534 -540 0
-534 -541 0
-534 -542 0
-534 -543 0
-534 -544 0
-534 -545 0
-534 -546 0
-534 -547 0
-534 -548 0
-534 -549 0
-534 -550 0
-534 -551 0
-535 -536 0
-535 -537 0
-535 -538 0
-535 -539 0
-535 -540 0
-535 -541 0
-535 -542 0
-535 -543 0
-535 -544 0
-535 -545 0
-535 -546 0
-535 -547 0
-535 -548 0
-535 -549 0
-535 -550 0
-535 -551 0
-536 -537 0
-536 -538 0
-536 -539 0
-536 -540 0
-536 -541 0
-536 -542 0
-536 -543 0
-536 -544 0
-536 -545 0
-536 -546 0
-536 -547 0
-536 -548 0
-536 -549 0
-536 -550 0
-536 -551 0
-537 -538 0
-537 -539 0
-537 -540 0
-537 -541 0
-537 -542 0
-537 -543 0
-537 -544 0
-537 -545 0
-537 -546 0
-537 -547 0
-537 -548 0
-537 -549 0
-537 -550 0
-537 -551 0
-538 -539 0
-538 -540 0
-538 -541 0
-538 -542 0
-538 -543 0
-538 -544 0
-538 -545 0
-538 -546 0
-538 -547 0
-538 -548 0
-538 -549 0
-538 -550 0
-538 -551 0
-539 -540 0
-539 -541 0
-539 -542 0
-539 -543 0
-539 -544 0
-539 -545 0
-539 -546 0
-539 -547 0
-539 -548 0
-539 -549 0
-539 -550 0
-539 -551 0
-540 -541 0
-540 -542 0
-540 -543 0
-540 -544 0
-540 -545 0
-540 -546 0
-540 -547 0
-540 -548 0
-540 -549 0
-540 -550 0
-540 -551 0
-541 -542 0
-541 -543 0
-541 -544 0
-541 -545 0
-541 -546 0
-541 -547 0
-541 -548 0
-541 -549 0
-541 -550 0
-541 -551 0
-542 -543 0
-542 -544 0
-542 -545 0
-542 -546 0
-542 -547 0
-542 -548 0
-542 -549 0
-542 -550 0
-542 -551 0
-543 -544 0
-543 -545 0
-543 -546 0
-543 -547 0
-543 -548 0
-543 -549 0
-543 -550 0
-543 -551 0
-544 -545 0
-544 -546 0
-544 -547 0
-544 -548 0
-544 -549 0
-544 -550 0
-544 -551 0
-545 -546 0
-545 -547 0
-545 -548 0
-545 -549 0
-545 -550 0
-545 -551 0
-546 -547 0
-546 -548 0
-546 -549 0
-546 -550 0
-546 -551 0
-547 -548 0
-547 -549 0
-547 -550 0
-547 -551 0
-548 -549 0
-548 -550 0
-548 -551 0
-549 -550 0
-549 -551 0
-550 -551 0
533 534 535 536 537 538 539 540 541 542 543 544 545 546 547 548 549 550 551 0
-552 -553 0
-552 -554 0
-552 -555 0
-552 -556 0
-552 -557 0
-552 -558 0
-552 -559 0
-552 -560 0
-552 -561 0
-552 -562 0
-552 -563 0
-552 -564 0
-552 -565 0
-552 -566 0
-552 -567 0
-552 -568 0
-552 -569 0
-552 -570 0
-553 -554 0
-553 -555 0
-553 -556 0
-553 -557 0
-553 -558 0
-553 -559 0
-553 -560 0
-553 -561 0
-553 -562 0
-553 -563 0
-553 -564 0
-553 -565 0
-553 -566 0
-553 -567 0
-553 -568 0
-553 -569 0
-553 -570 0
-554 -555 0
-554 -556 0
-554 -557 0
-554 -558 0
-554 -559 0
-554 -560 0
-554 -561 0
-554 -562 0
-554 -563 0
-554 -564 0
-554 -565 0
-554 -566 0
-554 -567 0
-554 -568 0
-554 -569 0
-554 -570 0
-555 -556 0
-555 -557 0
-555 -558 0
-555 -559 0
-555 -560 0
-555 -561 0
-555 -562 0
-555 -563 0
-555 -564 0
-555 -565 0
-555 -566 0
-555 -567 0
-555 -568 0
-555 -569 0
-555 -570 0
-556 -557 0
-556 -558 0
-556 -559 0
-556 -560 0
-556 -561 0
-556 -562 0
-556 -563 0
-556 -564 0
-556 -565 0
-556 -566 0
-556 -567 0
-556 -568 0
-556 -569 0
-556 -570 0
-557 -558 0
-557 -559 0
-557 -560 0
-557 -561 0
-557 -562 0
-557 -563 0
-557 -564 0
-557 -565 0
-557 -566 0
-557 -567 0
-557 -568 0
-557 -569 0
-557 -570 0
-558 -559 0
-558 -560 0
-558 -561 0
-558 -562 0
-558 -563 0
-558 -564 0
-558 -565 0
-558 -566 0
-558 -567 0
-558 -568 0
-558 -569 0
-558 -570 0
-559 -560 0
-559 -561 0
-559 -562 0
-559 -563 0
-559 -564 0
-559 -565 0
-559 -566 0
-559 -567 0
-559 -568 0
-559 -569 0
-559 -570 0
-560 -561 0
-560 -562 0
-560 -563 0
-560 -564 0
-560 -565 0
-560 -566 0
-560 -567 0
-560 -568 0
-560 -569 0
-560 -570 0
-561 -562 0
-561 -563 0
-561 -564 0
-561 -565 0
-561 -566 0
-561 -567 0
-561 -568 0
-561 -569 0
-561 -570 0
-562 -563 0
-562 -564 0
-562 -565 0
-562 -566 0
-562 -567 0
-562 -568 0
-562 -569 0
-562 -570 0
-563 -564 0
-563 -565 0
-563 -566 0
-563 -567 0
-563 -568 0
-563 -569 0
-563 -570 0
-564 -565 0
-564 -566 0
-564 -567 0
-564 -568 0
-564 -569 0
-564 -570 0
-565 -566 0
-565 -567 0
-565 -568 0
-565 -569 0
-565 -570 0
-566 -567 0
-566 -568 0
-566 -569 0
-566 -570 0
-567 -568 0
-567 -569 0
-567 -570 0
-568 -569 0
-568 -570 0
-569 -570 0
552 553 554 555 556 557 558 559 560 561 562 563 564 565 566 567 568 569 570 0
-571 -572 0
-571 -573 0
-571 -574 0
-571 -575 0
-571 -576 0
-571 -577 0
-571 -578 0
-571 -579 0
-571 -580 0
-571 -581 0
-571 -582 0
-571 -583 0
-571 -584 0
-571 -585 0
-571 -586 0
-571 -587 0
-571 -588 0
-571 -589 0
-572 -573 0
-572 -574 0
-572 -575 0
-572 -576 0
-572 -577 0
-572 -578 0
-572 -579 0
-572 -580 0
-572 -581 0
-572 -582 0
-572 -583 0
-572 -584 0
-572 -585 0
-572 -586 0
-572 -587 0
-572 -588 0
-572 -589 0
-573 -574 0
-573 -575 0
-573 -576 0
-573 -577 0
-573 -578 0
-573 -579 0
-573 -580 0
-573 -581 0
-573 -582 0
-573 -583 0
-573 -584 0
-573 -585 0
-573 -586 0
-573 -587 0
-573 -588 0
-573 -589 0
-574 -575 0
-574 -576 0
-574 -577 0
-574 -578 0
-574 -579 0
-574 -580 0
-574 -581 0
-574 -582 0
-574 -583 0
-574 -584 0
-574 -585 0
-574 -586 0
-574 -587 0
-574 -588 0
-574 -589 0
-575 -576 0
-575 -577 0
-575 -578 0
-575 -579 0
-575 -580 0
-575 -581 0
-575 -582 0
-575 -583 0
-575 -584 0
-575 -585 0
-575 -586 0
-575 -587 0
-575 -588 0
-575 -589 0
-576 -577 0
-576 -578 0
-576 -579 0
-576 -580 0
-576 -581 0
-576 -582 0
-576 -583 0
-576 -584 0
-576 -585 0
-576 -586 0
-576 -587 0
-576 -588 0
-576 -589 0
-577 -578 0
-577 -579 0
-577 -580 0
-577 -581 0
-577 -582 0
-577 -583 0
-577 -584 0
-577 -585 0
-577 -586 0
-577 -587 0
-577 -588 0
-577 -589 0
-578 -579 0
-578 -580 0
-578 -581 0
-578 -582 0
-578 -583 0
-578 -584 0
-578 -585 0
-578 -586 0
-578 -587 0
-578 -588 0
-578 -589 0
-579 -580 0
-579 -581 0
-579 -582 0
-579 -583 0
-579 -584 0
-579 -585 0
-579 -586 0
-579 -587 0
-579 -588 0
-579 -589 0
-580 -581 0
-580 -582 0
-580 -583 0
-580 -584 0
-580 -585 0
-580 -586 0
-580 -587 0
-580 -588 0
-580 -589 0
-581 -582 0
-581 -583 0
-581 -584 0
-581 -585 0
-581 -586 0
-581 -587 0
-581 -588 0
-581 -589 0
-582 -583 0
-582 -584 0
-582 -585 0
-582 -586 0
-582 -587 0
-582 -588 0
-582 -589 0
-583 -584 0
-583 -585 0
-583 -586 0
-583 -587 0
-583 -588 0
-583 -589 0
-584 -585 0
-584 -586 0
-584 -587 0
-584 -588 0
-584 -589 0
-585 -586 0
-585 -587 0
-585 -588 0
-585 -589 0
-586 -587 0
-586 -588 0
-586 -589 0
-587 -588 0
-587 -589 0
-588 -589 0
571 572 573 574 575 576 577 578 579 580 581 582 583 584 585 586 587 588 589 0
-590 -591 0
-590 -592 0
-590 -593 0
-590 -594 0
-590 -595 0
-590 -596 0
-590 -597 0
-590 -598 0
-590 -599 0
-590 -600 0
-590 -601 0
-590 -602 0
-590 -603 0
-590 -604 0
-590 -605 0
-590 -606 0
-590 -607 0
-590 -608 0
-591 -592 0
-591 -593 0
-591 -594 0
-591 -595 0
-591 -596 0
-591 -597 0
-591 -598 0
-591 -599 0
-591 -600 0
-591 -601 0
-591 -602 0
-591 -603 0
-591 -604 0
-591 -605 0
-591 -606 0
-591 -607 0
-591 -608 0
-592 -593 0
-592 -594 0
-592 -595 0
-592 -596 0
-592 -597 0
-592 -598 0
-592 -599 0
-592 -600 0
-592 -601 0
-592 -602 0
-592 -603 0
-592 -604 0
-592 -605 0
-592 -606 0
-592 -607 0
-592 -608 0
-593 -594 0
-593 -595 0
-593 -596 0
-593 -597 0
-593 -598 0
-593 -599 0
-593 -600 0
-593 -601 0
-593 -602 0
-593 -603 0
-593 -604 0
-593 -605 0
-593 -606 0
-593 -607 0
-593 -608 0
-594 -595 0
-594 -596 0
-594 -597 0
-594 -598 0
-594 -599 0
-594 -600 0
-594 -601 0
-594 -602 0
-594 -603 0
-594 -604 0
-594 -605 0
-594 -606 0
-594 -607 0
-594 -608 0
-595 -596 0
-595 -597 0
-595 -598 0
-595 -599 0
-595 -600 0
-595 -601 0
-595 -602 0
-595 -603 0
-595 -604 0
-595 -605 0
-595 -606 0
-595 -607 0
-595 -608 0
-596 -597 0
-596 -598 0
-596 -599 0
-596 -600 0
-596 -601 0
-596 -602 0
-596 -603 0
-596 -604 0
-596 -605 0
-596 -606 0
-596 -607 0
-596 -608 0
-597 -598 0
-597 -599 0
-597 -600 0
-597 -601 0
-597 -602 0
-597 -603 0
-597 -604 0
-597 -605 0
-597 -606 0
-597 -607 0
-597 -608 0
-598 -599 0
-598 -600 0
-598 -601 0
-598 -602 0
-598 -603 0
-598 -604 0
-598 -605 0
-598 -606 0
-598 -607 0
-598 -608 0
-599 -600 0
-599 -601 0
-599 -602 0
-599 -603 0
-599 -604 0
-599 -605 0
-599 -606 0
-599 -607 0
-599 -608 0
-600 -601 0
-600 -602 0
-600 -603 0
-600 -604 0
-600 -605 0
-600 -606 0
-600 -607 0
-600 -608 0
-601 -602 0
-601 -603 0
-601 -604 0
-601 -605 0
-601 -606 0
-601 -607 0
-601 -608 0
-602 -603 0
-602 -604 0
-602 -605 0
-602 -606 0
-602 -607 0
-602 -608 0
-603 -604 0
-603 -605 0
-603 -606 0
-603 -607 0
-603 -608 0
-604 -605 0
-604 -606 0
-604 -607 0
-604 -608 0
-605 -606 0
-605 -607 0
-605 -608 0
-606 -607 0
-606 -608 0
-607 -608 0
590 591 592 593 594 595 596 597 598 599 600 601 602 603 604 605 606 607 608 0
-609 -610 0
-609 -611 0
-609 -612 0
-609 -613 0
-609 -614 0
-609 -615 0
-609 -616 0
-609 -617 0
-609 -618 0
-609 -619 0
-609 -620 0
-609 -621 0
-609 -622 0
-609 -623 0
-609 -624 0
-609 -625 0
-609 -626 0
-609 -627 0
-610 -611 0
-610 -612 0
-610 -613 0
-610 -614 0
-610 -615 0
-610 -616 0
-610 -617 0
-610 -618 0
-610 -619 0
-610 -620 0
-610 -621 0
-610 -622 0
-610 -623 0
-610 -624 0
-610 -625 0
-610 -626 0
-610 -627 0
-611 -612 0
-611 -613 0
-611 -614 0
-611 -615 0
-611 -616 0
-611 -617 0
-611 -618 0
-611 -619 0
-611 -620 0
-611 -621 0
-611 -622 0
-611 -623 0
-611 -624 0
-611 -625 0
-611 -626 0
-611 -627 0
-612 -613 0
-612 -614 0
-612 -615 0
-612 -616 0
-612 -617 0
-612 -618 0
-612 -619 0
-612 -620 0
-612 -621 0
-612 -622 0
-612 -623 0
-612 -624 0
-612 -625 0
-612 -626 0
-612 -627 0
-613 -614 0
-613 -615 0
-613 -616 0
-613 -617 0
-613 -618 0
-613 -619 0
-613 -620 0
-613 -621 0
-613 -622 0
-613 -623 0
-613 -624 0
-613 -625 0
-613 -626 0
-613 -627 0
-614 -615 0
-614 -616 0
-614 -617 0
-614 -618 0
-614 -619 0
-614 -620 0
-614 -621 0
-614 -622 0
-614 -623 0
-614 -624 0
-614 -625 0
-614 -626 0
-614 -627 0
-615 -616 0
-615 -617 0
-615 -618 0
-615 -619 0
-615 -620 0
-615 -621 0
-615 -622 0
-615 -623 0
-615 -624 0
-615 -625 0
-615 -626 0
-615 -627 0
-616 -617 0
-616 -618 0
-616 -619 0
-616 -620 0
-616 -621 0
-616 -622 0
-616 -623 0
-616 -624 0
-616 -625 0
-616 -626 0
-616 -627 0
-617 -618 0
-617 -619 0
-617 -620 0
-617 -621 0
-617 -622 0
-617 -623 0
-617 -624 0
-617 -625 0
-617 -626 0
-617 -627 0
-618 -619 0
-618 -620 0
-618 -621 0
-618 -622 0
-618 -623 0
-618 -624 0
-618 -625 0
-618 -626 0
-618 -627 0
-619 -620 0
-619 -621 0
-619 -622 0
-619 -623 0
-619 -624 0
-619 -625 0
-619 -626 0
-619 -627 0
-620 -621 0
-620 -622 0
-620 -623 0
-620 -624 0
-620 -625 0
-620 -626 0
-620 -627 0
-621 -622 0
-621 -623 0
-621 -624 0
-621 -625 0
-621 -626 0
-621 -627 0
-622 -623 0
-622 -624 0
-622 -625 0
-622 -626 0
-622 -627 0
-623 -624 0
-623 -625 0
-623 -626 0
-623 -627 0
-624 -625 0
-624 -626 0
-624 -627 0
-625 -626 0
-625 -627 0
-626 -627 0
609 610 611 612 613 614 615 616 617 618 619 620 621 622 623 624 625 626 627 0
-628 -629 0
-628 -630 0
-628 -631 0
-628 -632 0
-628 -633 0
-628 -634 0
-628 -635 0
-628 -636 0
-628 -637 0
-628 -638 0
-628 -639 0
-628 -640 0
-628 -641 0
-628 -642 0
-628 -643 0
-628 -644 0
-628 -645 0
-628 -646 0
-629 -630 0
-629 -631 0
-629 -632 0
-629 -633 0
-629 -634 0
-629 -635 0
-629 -636 0
-629 -637 0
-629 -638 0
-629 -639 0
-629 -640 0
-629 -641 0
-629 -642 0
-629 -643 0
-629 -644 0
-629 -645 0
-629 -646 0
-630 -631 0
-630 -632 0
-630 -633 0
-630 -634 0
-630 -635 0
-630 -636 0
-630 -637 0
-630 -638 0
-630 -639 0
-630 -640 0
-630 -641 0
-630 -642 0
-630 -643 0
-630 -644 0
-630 -645 0
-630 -646 0
-631 -632 0
-631 -633 0
-631 -634 0
-631 -635 0
-631 -636 0
-631 -637 0
-631 -638 0
-631 -639 0
-631 -640 0
-631 -641 0
-631 -642 0
-631 -643 0
-631 -644 0
-631 -645 0
-631 -646 0
-632 -633 0
-632 -634 0
-632 -635 0
-632 -636 0
-632 -637 0
-632 -638 0
-632 -639 0
-632 -640 0
-632 -641 0
-632 -642 0
-632 -643 0
-632 -644 0
-632 -645 0
-632 -646 0
-633 -634 0
-633 -635 0
-633 -636 0
-633 -637 0
-633 -638 0
-633 -639 0
-633 -640 0
-633 -641 0
-633 -642 0
-633 -643 0
-633 -644 0
-633 -645 0
-633 -646 0
-634 -635 0
-634 -636 0
-634 -637 0
-634 -638 0
-634 -639 0
-634 -640 0
-634 -641 0
-634 -642 0
-634 -643 0
-634 -644 0
-634 -645 0
-634 -646 0
-635 -636 0
-635 -637 0
-635 -638 0
-635 -639 0
-635 -640 0
-635 -641 0
-635 -642 0
-635 -643 0
-635 -644 0
-635 -645 0
-635 -646 0
-636 -637 0
-636 -638 0
-636 -639 0
-636 -640 0
-636 -641 0
-636 -642 0
-636 -643 0
-636 -644 0
-636 -645 0
-636 -646 0
-637 -638 0
-637 -639 0
-637 -640 0
-637 -641 0
-637 -642 0
-637 -643 0
-637 -644 0
-637 -645 0
-637 -646 0
-638 -639 0
-638 -640 0
-638 -641 0
-638 -642 0
-638 -643 0
-638 -644 0
-638 -645 0
-638 -646 0
-639 -640 0
-639 -641 0
-639 -642 0
-639 -643 0
-639 -644 0
-639 -645 0
-639 -646 0
-640 -641 0
-640 -642 0
-640 -643 0
-640 -644 0
-640 -645 0
-640 -646 0
-641 -642 0
-641 -643 0
-641 -644 0
-641 -645 0
-641 -646 0
-642 -643 0
-642 -644 0
-642 -645 0
-642 -646 0
-643 -644 0
-643 -645 0
-643 -646 0
-644 -645 0
-644 -646 0
-645 -646 0
628 629 630 631 632 633 634 635 636 637 638 639 640 641 642 643 644 645 646 0
-647 -648 0
-647 -649 0
-647 -650 0
-647 -651 0
-647 -652 0
-647 -653 0
-647 -654 0
-647 -655 0
-647 -656 0
-647 -657 0
-647 -658 0
-647 -659 0
-647 -660 0
-647 -661 0
-647 -662 0
-647 -663 0
-647 -664 0
-647 -665 0
-648 -649 0
-648 -650 0
-648 -651 0
-648 -652 0
-648 -653 0
-648 -654 0
-648 -655 0
-648 -656 0
-648 -657 0
-648 -658 0
-648 -659 0
-648 -660 0
-648 -661 0
-648 -662 0
-648 -663 0
-648 -664 0
-648 -665 0
-649 -650 0
-649 -651 0
-649 -652 0
-649 -653 0
-649 -654 0
-649 -655 0
-649 -656 0
-649 -657 0
-649 -658 0
-649 -659 0
-649 -660 0
-649 -661 0
-649 -662 0
-649 -663 0
-649 -664 0
-649 -665 0
-650 -651 0
-650 -652 0
-650 -653 0
-650 -654 0
-650 -655 0
-650 -656 0
-650 -657 0
-650 -658 0
-650 -659 0
-650 -660 0
-650 -661 0
-650 -662 0
-650 -663 0
-650 -664 0
-650 -665 0
-651 -652 0
-651 -653 0
-651 -654 0
-651 -655 0
-651 -656 0
-651 -657 0
-651 -658 0
-651 -659 0
-651 -660 0
-651 -661 0
-651 -662 0
-651 -663 0
-651 -664 0
-651 -665 0
-652 -653 0
-652 -654 0
-652 -655 0
-652 -656 0
-652 -657 0
-652 -658 0
-652 -659 0
-652 -660 0
-652 -661 0
-652 -662 0
-652 -663 0
-652 -664 0
-652 -665 0
-653 -654 0
-653 -655 0
-653 -656 0
-653 -657 0
-653 -658 0
-653 -659 0
-653 -660 0
-653 -661 0
-653 -662 0
-653 -663 0
-653 -664 0
-653 -665 0
-654 -655 0
-654 -656 0
-654 -657 0
-654 -658 0
-654 -659 0
-654 -660 0
-654 -661 0
-654 -662 0
-654 -663 0
-654 -664 0
-654 -665 0
-655 -656 0
-655 -657 0
-655 -658 0
-655 -659 0
-655 -660 0
-655 -661 0
-655 -662 0
-655 -663 0
-655 -664 0
-655 -665 0
-656 -657 0
-656 -658 0
-656 -659 0
-656 -660 0
-656 -661 0
-656 -662 0
-656 -663 0
-656 -664 0
-656 -665 0
-657 -658 0
-657 -659 0
-657 -660 0
-657 -661 0
-657 -662 0
-657 -663 0
-657 -664 0
-657 -665 0
-658 -659 0
-658 -660 0
-658 -661 0
-658 -662 0
-658 -663 0
-658 -664 0
-658 -665 0
-659 -660 0
-659 -661 0
-659 -662 0
-659 -663 0
-659 -664 0
-659 -665 0
-660 -661 0
-660 -662 0
-660 -663 0
-660 -664 0
-660 -665 0
-661 -662 0
-661 -663 0
-661 -664 0
-661 -665 0
-662 -663 0
-662 -664 0
-662 -665 0
-663 -664 0
-663 -665 0
-664 -665 0
647 648 649 650 651 652 653 654 655 656 657 658 659 660 661 662 663 664 665 0
-666 -667 0
-666 -668 0
-666 -669 0
-666 -670 0
-666 -671 0
-666 -672 0
-666 -673 0
-666 -674 0
-666 -675 0
-666 -676 0
-666 -677 0
-666 -678 0
-666 -679 0
-666 -680 0
-666 -681 0
-666 -682 0
-666 -683 0
-666 -684 0
-667 -668 0
-667 -669 0
-667 -670 0
-667 -671 0
-667 -672 0
-667 -673 0
-667 -674 0
-667 -675 0
-667 -676 0
-667 -677 0
-667 -678 0
-667 -679 0
-667 -680 0
-667 -681 0
-667 -682 0
-667 -683 0
-667 -684 0
-668 -669 0
-668 -670 0
-668 -671 0
-668 -672 0
-668 -673 0
-668 -674 0
-668 -675 0
-668 -676 0
-668 -677 0
-668 -678 0
-668 -679 0
-668 -680 0
-668 -681 0
-668 -682 0
-668 -683 0
-668 -684 0
-669 -670 0
-669 -671 0
-669 -672 0
-669 -673 0
-669 -674 0
-669 -675 0
-669 -676 0
-669 -677 0
-669 -678 0
-669 -679 0
-669 -680 0
-669 -681 0
-669 -682 0
-669 -683 0
-669 -684 0
-670 -671 0
-670 -672 0
-670 -673 0
-670 -674 0
-670 -675 0
-670 -676 0
-670 -677 0
-670 -678 0
-670 -679 0
-670 -680 0
-670 -681 0
-670 -682 0
-670 -683 0
-670 -684 0
-671 -672 0
-671 -673 0
-671 -674 0
-671 -675 0
-671 -676 0
-671 -677 0
-671 -678 0
-671 -679 0
-671 -680 0
-671 -681 0
-671 -682 0
-671 -683 0
-671 -684 0
-672 -673 0
-672 -674 0
-672 -675 0
-672 -676 0
-672 -677 0
-672 -678 0
-672 -679 0
-672 -680 0
-672 -681 0
-672 -682 0
-672 -683 0
-672 -684 0
-673 -674 0
-673 -675 0
-673 -676 0
-673 -677 0
-673 -678 0
-673 -679 0
-673 -680 0
-673 -681 0
-673 -682 0
-673 -683 0
-673 -684 0
-674 -675 0
-674 -676 0
-674 -677 0
-674 -678 0
-674 -679 0
-674 -680 0
-674 -681 0
-674 -682 0
-674 -683 0
-674 -684 0
-675 -676 0
-675 -677 0
-675 -678 0
-675 -679 0
-675 -680 0
-675 -681 0
-675 -682 0
-675 -683 0
-675 -684 0
-676 -677 0
-676 -678 0
-676 -679 0
-676 -680 0
-676 -681 0
-676 -682 0
-676 -683 0
-676 -684 0
-677 -678 0
-677 -679 0
-677 -680 0
-677 -681 0
-677 -682 0
-677 -683 0
-677 -684 0
-678 -679 0
-678 -680 0
-678 -681 0
-678 -682 0
-678 -683 0
-678 -684 0
-679 -680 0
-679 -681 0
-679 -682 0
-679 -683 0
-679 -684 0
-680 -681 0
-680 -682 0
-680 -683 0
-680 -684 0
-681 -682 0
-681 -683 0
-681 -684 0
-682 -683 0
-682 -684 0
-683 -684 0
666 667 668 669 670 671 672 673 674 675 676 677 678 679 680 681 682 683 684 0
-1 -19 0
-1 -37 0
-1 -55 0
-1 -73 0
-1 -91 0
-1 -109 0
-1 -127 0
-1 -145 0
-1 -163 0
-1 -181 0
-1 -199 0
-1 -217 0
-1 -235 0
-1 -253 0
-1 -271 0
-1 -289 0
-1 -307 0
-1 -325 0
-19 -37 0
-19 -55 0
-19 -73 0
-19 -91 0
-19 -109 0
-19 -127 0
-19 -145 0
-19 -163 0
-19 -181 0
-19 -199 0
-19 -217 0
-19 -235 0
-19 -253 0
-19 -271 0
-19 -289 0
-19 -307 0
-19 -325 0
-37 -55 0
-37 -73 0
-37 -91 0
-37 -109 0
-37 -127 0
-37 -145 0
-37 -163 0
-37 -181 0
-37 -199 0
-37 -217 0
-37 -235 0
-37 -253 0
-37 -271 0
-37 -289 0
-37 -307 0
-37 -325 0
-55 -73 0
-55 -91 0
-55 -109 0
-55 -127 0
-55 -145 0
-55 -163 0
-55 -181 0
-55 -199 0
-55 -217 0
-55 -235 0
-55 -253 0
-55 -271 0
-55 -289 0
-55 -307 0
-55 -325 0
-73 -91 0
-73 -109 0
-73 -127 0
-73 -145 0
-73 -163 0
-73 -181 0
-73 -199 0
-73 -217 0
-73 -235 0
-73 -253 0
-73 -271 0
-73 -289 0
-73 -307 0
-73 -325 0
-91 -109 0
-91 -127 0
-91 -145 0
-91 -163 0
-91 -181 0
-91 -199 0
-91 -217 0
-91 -235 0
-91 -253 0
-91 -271 0
-91 -289 0
-91 -307 0
-91 -325 0
-109 -127 0
-109 -145 0
-109 -163 0
-109 -181 0
-109 -199 0
-109 -217 0
-109 -235 0
-109 -253 0
-109 -271 0
-109 -289 0
-109 -307 0
-109 -325 0
-127 -145 0
-127 -163 0
-127 -181 0
-127 -199 0
-127 -217 0
-127 -235 0
-127 -253 0
-127 -271 0
-127 -289 0
-127 -307 0
-127 -325 0
-145 -163 0
-145 -181 0
-145 -199 0
-145 -217 0
-145 -235 0
-145 -253 0
-145 -271 0
-145 -289 0
-145 -307 0
-145 -325 0
-163 -181 0
-163 -199 0
-163 -217 0
-163 -235 0
-163 -253 0
-163 -271 0
-163 -289 0
-163 -307 0
-163 -325 0
-181 -199 0
-181 -217 0
-181 -235 0
-181 -253 0
-181 -271 0
-181 -289 0
-181 -307 0
-181 -325 0
-199 -217 0
-199 -235 0
-199 -253 0
-199 -271 0
-199 -289 0
-199 -307 0
-199 -325 0
-217 -235 0
-217 -253 0
-217 -271 0
-217 -289 0
-217 -307 0
-217 -325 0
-235 -253 0
-235 -271 0
-235 -289 0
-235 -307 0
-235 -325 0
-253 -271 0
-253 -289 0
-253 -307 0
-253 -325 0
-271 -289 0
-271 -307 0
-271 -325 0
-289 -307 0
-289 -325 0
-307 -325 0
-2 -20 0
-2 -38 0
-2 -56 0
-2 -74 0
-2 -92 0
-2 -110 0
-2 -128 0
-2 -146 0
-2 -164 0
-2 -182 0
-2 -200 0
-2 -218 0
-2 -236 0
-2 -254 0
-2 -272 0
-2 -290 0
-2 -308 0
-2 -326 0
-20 -38 0
-20 -56 0
-20 -74 0
-20 -92 0
-20 -110 0
-20 -128 0
-20 -146 0
-20 -164 0
-20 -182 0
-20 -200 0
-20 -218 0
-20 -236 0
-20 -254 0
-20 -272 0
-20 -290 0
-20 -308 0
-20 -326 0
-38 -56 0
-38 -74 0
-38 -92 0
-38 -110 0
-38 -128 0
-38 -146 0
-38 -164 0
-38 -182 0
-38 -200 0
-38 -218 0
-38 -236 0
-38 -254 0
-38 -272 0
-38 -290 0
-38 -308 0
-38 -326 0
-56 -74 0
-56 -92 0
-56 -110 0
-56 -128 0
-56 -146 0
-56 -164 0
-56 -182 0
-56 -200 0
-56 -218 0
-56 -236 0
-56 -254 0
-56 -272 0
-56 -290 0
-56 -308 0
-56 -326 0
-74 -92 0
-74 -110 0
-74 -128 0
-74 -146 0
-74 -164 0
-74 -182 0
-74 -200 0
-74 -218 0
-74 -236 0
-74 -254 0
-74 -272 0
-74 -290 0
-74 -308 0
-74 -326 0
-92 -110 0
-92 -128 0
-92 -146 0
-92 -164 0
-92 -182 0
-92 -200 0
-92 -218 0
-92 -236 0
-92 -254 0
-92 -272 0
-92 -290 0
-92 -308 0
-92 -326 0
-110 -128 0
-110 -146 0
-110 -164 0
-110 -182 0
-110 -200 0
-110 -218 0
-110 -236 0
-110 -254 0
-110 -272 0
-110 -290 0
-110 -308 0
-110 -326 0
-128 -146 0
-128 -164 0
-128 -182 0
-128 -200 0
-128 -218 0
-128 -236 0
-128 -254 0
-128 -272 0
-128 -290 0
-128 -308 0
-128 -326 0
-146 -164 0
-146 -182 0
-146 -200 0
-146 -218 0
-146 -236 0
-146 -254 0
-146 -272 0
-146 -290 0
-146 -308 0
-146 -326 0
-164 -182 0
-164 -200 0
-164 -218 0
-164 -236 0
-164 -254 0
-164 -272 0
-164 -290 0
-164 -308 0
-164 -326 0
-182 -200 0
-182 -218 0
-182 -236 0
-182 -254 0
-182 -272 0
-182 -290 0
-182 -308 0
-182 -326 0
-200 -218 0
-200 -236 0
-200 -254 0
-200 -272 0
-200 -290 0
-200 -308 0
-200 -326 0
-218 -236 0
-218 -254 0
-218 -272 0
-218 -290 0
-218 -308 0
-218 -326 0
-236 -254 0
-236 -272 0
-236 -290 0
-236 -308 0
-236 -326 0
-254 -272 0
-254 -290 0
-254 -308 0
-254 -326 0
-272 -290 0
-272 -308 0
-272 -326 0
-290 -308 0
-290 -326 0
-308 -326 0
-3 -21 0
-3 -39 0
-3 -57 0
-3 -75 0
-3 -93 0
-3 -111 0
-3 -129 0
-3 -147 0
-3 -165 0
-3 -183 0
-3 -201 0
-3 -219 0
-3 -237 0
-3 -255 0
-3 -273 0
-3 -291 0
-3 -309 0
-3 -327 0
-21 -39 0
-21 -57 0
-21 -75 0
-21 -93 0
-21 -111 0
-21 -129 0
-21 -147 0
-21 -165 0
-21 -183 0
-21 -201 0
-21 -219 0
-21 -237 0
-21 -255 0
-21 -273 0
-21 -291 0
-21 -309 0
-21 -327 0
-39 -57 0
-39 -75 0
-39 -93 0
-39 -111 0
-39 -129 0
-39 -147 0
-39 -165 0
-39 -183 0
-39 -201 0
-39 -219 0
-39 -237 0
-39 -255 0
-39 -273 0
-39 -291 0
-39 -309 0
-39 -327 0
-57 -75 0
-57 -93 0
-57 -111 0
-57 -129 0
-57 -147 0
-57 -165 0
-57 -183 0
-57 -201 0
-57 -219 0
-57 -237 0
-57 -255 0
-57 -273 0
-57 -291 0
-57 -309 0
-57 -327 0
-75 -93 0
-75 -111 0
-75 -129 0
-75 -147 0
-75 -165 0
-75 -183 0
-75 -201 0
-75 -219 0
-75 -237 0
-75 -255 0
-75 -273 0
-75 -291 0
-75 -309 0
-75 -327 0
-93 -111 0
-93 -129 0
-93 -147 0
-93 -165 0
-93 -183 0
-93 -201 0
-93 -219 0
-93 -237 0
-93 -255 0
-93 -273 0
-93 -291 0
-93 -309 0
-93 -327 0
-111 -129 0
-111 -147 0
-111 -165 0
-111 -183 0
-111 -201 0
-111 -219 0
-111 -237 0
-111 -255 0
-111 -273 0
-111 -291 0
-111 -309 0
-111 -327 0
-129 -147 0
-129 -165 0
-129 -183 0
-129 -201 0
-129 -219 0
-129 -237 0
-129 -255 0
-129 -273 0
-129 -291 0
-129 -309 0
-129 -327 0
-147 -165 0
-147 -183 0
-147 -201 0
-147 -219 0
-147 -237 0
-147 -255 0
-147 -273 0
-147 -291 0
-147 -309 0
-147 -327 0
-165 -183 0
-165 -201 0
-165 -219 0
-165 -237 0
-165 -255 0
-165 -273 0
-165 -291 0
-165 -309 0
-165 -327 0
-183 -201 0
-183 -219 0
-183 -237 0
-183 -255 0
-183 -273 0
-183 -291 0
-183 -309 0
-183 -327 0
-201 -219 0
-201 -237 0
-201 -255 0
-201 -273 0
-201 -291 0
-201 -309 0
-201 -327 0
-219 -237 0
-219 -255 0
-219 -273 0
-219 -291 0
-219 -309 0
-219 -327 0
-237 -255 0
-237 -273 0
-237 -291 0
-237 -309 0
-237 -327 0
-255 -273 0
-255 -291 0
-255 -309 0
-255 -327 0
-273 -291 0
-273 -309 0
-273 -327 0
-291 -309 0
-291 -327 0
-309 -327 0
-4 -22 0
-4 -40 0
-4 -58 0
-4 -76 0
-4 -94 0
-4 -112 0
-4 -130 0
-4 -148 0
-4 -166 0
-4 -184 0
-4 -202 0
-4 -220 0
-4 -238 0
-4 -256 0
-4 -274 0
-4 -292 0
-4 -310 0
-4 -328 0
-22 -40 0
-22 -58 0
-22 -76 0
-22 -94 0
-22 -112 0
-22 -130 0
-22 -148 0
-22 -166 0
-22 -184 0
-22 -202 0
-22 -220 0
-22 -238 0
-22 -256 0
-22 -274 0
-22 -292 0
-22 -310 0
-22 -328 0
-40 -58 0
-40 -76 0
-40 -94 0
-40 -112 0
-40 -130 0
-40 -148 0
-40 -166 0
-40 -184 0
-40 -202 0
-40 -220 0
-40 -238 0
-40 -256 0
-40 -274 0
-40 -292 0
-40 -310 0
-40 -328 0
-58 -76 0
-58 -94 0
-58 -112 0
-58 -130 0
-58 -148 0
-58 -166 0
-58 -184 0
-58 -202 0
-58 -220 0
-58 -238 0
-58 -256 0
-58 -274 0
-58 -292 0
-58 -310 0
-58 -328 0
-76 -94 0
-76 -112 0
-76 -130 0
-76 -148 0
-76 -166 0
-76 -184 0
-76 -202 0
-76 -220 0
-76 -238 0
-76 -256 0
-76 -274 0
-76 -292 0
-76 -310 0
-76 -328 0
-94 -112 0
-94 -130 0
-94 -148 0
-94 -166 0
-94 -184 0
-94 -202 0
-94 -220 0
-94 -238 0
-94 -256 0
-94 -274 0
-94 -292 0
-94 -310 0
-94 -328 0
-112 -130 0
-112 -148 0
-112 -166 0
-112 -184 0
-112 -202 0
-112 -220 0
-112 -238 0
-112 -256 0
-112 -274 0
-112 -292 0
-112 -310 0
-112 -328 0
-130 -148 0
-130 -166 0
-130 -184 0
-130 -202 0
-130 -220 0
-130 -238 0
-130 -256 0
-130 -274 0
-130 -292 0
-130 -310 0
-130 -328 0
-148 -166 0
-148 -184 0
-148 -202 0
-148 -220 0
-148 -238 0
-148 -256 0
-148 -274 0
-148 -292 0
-148 -310 0
-148 -328 0
-166 -184 0
-166 -202 0
-166 -220 0
-166 -238 0
-166 -256 0
-166 -274 0
-166 -292 0
-166 -310 0
-166 -328 0
-184 -202 0
-184 -220 0
-184 -238 0
-184 -256 0
-184 -274 0
-184 -292 0
-184 -310 0
-184 -328 0
-202 -220 0
-202 -238 0
-202 -256 0
-202 -274 0
-202 -292 0
-202 -310 0
-202 -328 0
-220 -238 0
-220 -256 0
-220 -274 0
-220 -292 0
-220 -310 0
-220 -328 0
-238 -256 0
-238 -274 0
-238 -292 0
-238 -310 0
-238 -328 0
-256 -274 0
-256 -292 0
-256 -310 0
-256 -328 0
-274 -292 0
-274 -310 0
-274 -328 0
-292 -310 0
-292 -328 0
-310 -328 0
-5 -23 0
-5 -41 0
-5 -59 0
-5 -77 0
-5 -95 0
-5 -113 0
-5 -131 0
-5 -149 0
-5 -167 0
-5 -185 0
-5 -203 0
-5 -221 0
-5 -239 0
-5 -257 0
-5 -275 0
-5 -293 0
-5 -311 0
-5 -329 0
-23 -41 0
-23 -59 0
-23 -77 0
-23 -95 0
-23 -113 0
-23 -131 0
-23 -149 0
-23 -167 0
-23 -185 0
-23 -203 0
-23 -221 0
-23 -239 0
-23 -257 0
-23 -275 0
-23 -293 0
-23 -311 0
-23 -329 0
-41 -59 0
-41 -77 0
-41 -95 0
-41 -113 0
-41 -131 0
-41 -149 0
-41 -167 0
-41 -185 0
-41 -203 0
-41 -221 0
-41 -239 0
-41 -257 0
-41 -275 0
-41 -293 0
-41 -311 0
-41 -329 0
-59 -77 0
-59 -95 0
-59 -113 0
-59 -131 0
-59 -149 0
-59 -167 0
-59 -185 0
-59 -203 0
-59 -221 0
-59 -239 0
-59 -257 0
-59 -275 0
-59 -293 0
-59 -311 0
-59 -329 0
-77 -95 0
-77 -113 0
-77 -131 0
-77 -149 0
-77 -167 0
-77 -185 0
-77 -203 0
-77 -221 0
-77 -239 0
-77 -257 0
-77 -275 0
-77 -293 0
-77 -311 0
-77 -329 0
-95 -113 0
-95 -131 0
-95 -149 0
-95 -167 0
-95 -185 0
-95 -203 0
-95 -221 0
-95 -239 0
-95 -257 0
-95 -275 0
-95 -293 0
-95 -311 0
-95 -329 0
-113 -131 0
-113 -149 0
-113 -167 0
-113 -185 0
-113 -203 0
-113 -221 0
-113 -239 0
-113 -257 0
-113 -275 0
-113 -293 0
-113 -311 0
-113 -329 0
-131 -149 0
-131 -167 0
-131 -185 0
-131 -203 0
-131 -221 0
-131 -239 0
-131 -257 0
-131 -275 0
-131 -293 0
-131 -311 0
-131 -329 0
-149 -167 0
-149 -185 0
-149 -203 0
-149 -221 0
-149 -239 0
-149 -257 0
-149 -275 0
-149 -293 0
-149 -311 0
-149 -329 0
-167 -185 0
-167 -203 0
-167 -221 0
-167 -239 0
-167 -257 0
-167 -275 0
-167 -293 0
-167 -311 0
-167 -329 0
-185 -203 0
-185 -221 0
-185 -239 0
-185 -257 0
-185 -275 0
-185 -293 0
-185 -311 0
-185 -329 0
-203 -221 0
-203 -239 0
-203 -257 0
-203 -275 0
-203 -293 0
-203 -311 0
-203 -329 0
-221 -239 0
-221 -257 0
-221 -275 0
-221 -293 0
-221 -311 0
-221 -329 0
-239 -257 0
-239 -275 0
-239 -293 0
-239 -311 0
-239 -329 0
-257 -275 0
-257 -293 0
-257 -311 0
-257 -329 0
-275 -293 0
-275 -311 0
-275 -329 0
-293 -311 0
-293 -329 0
-311 -329 0
-6 -24 0
-6 -42 0
-6 -60 0
-6 -78 0
-6 -96 0
-6 -114 0
-6 -132 0
-6 -150 0
-6 -168 0
-6 -186 0
-6 -204 0
-6 -222 0
-6 -240 0
-6 -258 0
-6 -276 0
-6 -294 0
-6 -312 0
-6 -330 0
-24 -42 0
-24 -60 0
-24 -78 0
-24 -96 0
-24 -114 0
-24 -132 0
-24 -150 0
-24 -168 0
-24 -186 0
-24 -204 0
-24 -222 0
-24 -240 0
-24 -258 0
-24 -276 0
-24 -294 0
-24 -312 0
-24 -330 0
-42 -60 0
-42 -78 0
-42 -96 0
-42 -114 0
-42 -132 0
-42 -150 0
-42 -168 0
-42 -186 0
-42 -204 0
-42 -222 0
-42 -240 0
-42 -258 0
-42 -276 0
-42 -294 0
-42 -312 0
-42 -330 0
-60 -78 0
-60 -96 0
-60 -114 0
-60 -132 0
-60 -150 0
-60 -168 0
-60 -186 0
-60 -204 0
-60 -222 0
-60 -240 0
-60 -258 0
-60 -276 0
-60 -294 0
-60 -312 0
-60 -330 0
-78 -96 0
-78 -114 0
-78 -132 0
-78 -150 0
-78 -168 0
-78 -186 0
-78 -204 0
-78 -222 0
-78 -240 0
-78 -258 0
-78 -276 0
-78 -294 0
-78 -312 0
-78 -330 0
-96 -114 0
-96 -132 0
-96 -150 0
-96 -168 0
-96 -186 0
-96 -204 0
-96 -222 0
-96 -240 0
-96 -258 0
-96 -276 0
-96 -294 0
-96 -312 0
-96 -330 0
-114 -132 0
-114 -150 0
-114 -168 0
-114 -186 0
-114 -204 0
-114 -222 0
-114 -240 0
-114 -258 0
-114 -276 0
-114 -294 0
-114 -312 0
-114 -330 0
-132 -150 0
-132 -168 0
-132 -186 0
-132 -204 0
-132 -222 0
-132 -240 0
-132 -258 0
-132 -276 0
-132 -294 0
-132 -312 0
-132 -330 0
-150 -168 0
-150 -186 0
-150 -204 0
-150 -222 0
-150 -240 0
-150 -258 0
-150 -276 0
-150 -294 0
-150 -312 0
-150 -330 0
-168 -186 0
-168 -204 0
-168 -222 0
-168 -240 0
-168 -258 0
-168 -276 0
-168 -294 0
-168 -312 0
-168 -330 0
-186 -204 0
-186 -222 0
-186 -240 0
-186 -258 0
-186 -276 0
-186 -294 0
-186 -312 0
-186 -330 0
-204 -222 0
-204 -240 0
-204 -258 0
-204 -276 0
-204 -294 0
-204 -312 0
-204 -330 0
-222 -240 0
-222 -258 0
-222 -276 0
-222 -294 0
-222 -312 0
-222 -330 0
-240 -258 0
-240 -276 0
-240 -294 0
-240 -312 0
-240 -330 0
-258 -276 0
-258 -294 0
-258 -312 0
-258 -330 0
-276 -294 0
-276 -312 0
-276 -330 0
-294 -312 0
-294 -330 0
-312 -330 0
-7 -25 0
-7 -43 0
-7 -61 0
-7 -79 0
-7 -97 0
-7 -115 0
-7 -133 0
-7 -151 0
-7 -169 0
-7 -187 0
-7 -205 0
-7 -223 0
-7 -241 0
-7 -259 0
-7 -277 0
-7 -295 0
-7 -313 0
-7 -331 0
-25 -43 0
-25 -61 0
-25 -79 0
-25 -97 0
-25 -115 0
-25 -133 0
-25 -151 0
-25 -169 0
-25 -187 0
-25 -205 0
-25 -223 0
-25 -241 0
-25 -259 0
-25 -277 0
-25 -295 0
-25 -313 0
-25 -331 0
-43 -61 0
-43 -79 0
-43 -97 0
-43 -115 0
-43 -133 0
-43 -151 0
-43 -169 0
-43 -187 0
-43 -205 0
-43 -223 0
-43 -241 0
-43 -259 0
-43 -277 0
-43 -295 0
-43 -313 0
-43 -331 0
-61 -79 0
-61 -97 0
-61 -115 0
-61 -133 0
-61 -151 0
-61 -169 0
-61 -187 0
-61 -205 0
-61 -223 0
-61 -241 0
-61 -259 0
-61 -277 0
-61 -295 0
-61 -313 0
-61 -331 0
-79 -97 0
-79 -115 0
-79 -133 0
-79 -151 0
-79 -169 0
-79 -187 0
-79 -205 0
-79 -223 0
-79 -241 0
-79 -259 0
-79 -277 0
-79 -295 0
-79 -313 0
-79 -331 0
-97 -115 0
-97 -133 0
-97 -151 0
-97 -169 0
-97 -187 0
-97 -205 0
-97 -223 0
-97 -241 0
-97 -259 0
-97 -277 0
-97 -295 0
-97 -313 0
-97 -331 0
-115 -133 0
-115 -151 0
-115 -169 0
-115 -187 0
-115 -205 0
-115 -223 0
-115 -241 0
-115 -259 0
-115 -277 0
-115 -295 0
-115 -313 0
-115 -331 0
-133 -151 0
-133 -169 0
-133 -187 0
-133 -205 0
-133 -223 0
-133 -241 0
-133 -259 0
-133 -277 0
-133 -295 0
-133 -313 0
-133 -331 0
-151 -169 0
-151 -187 0
-151 -205 0
-151 -223 0
-151 -241 0
-151 -259 0
-151 -277 0
-151 -295 0
-151 -313 0
-151 -331 0
-169 -187 0
-169 -205 0
-169 -223 0
-169 -241 0
-169 -259 0
-169 -277 0
-169 -295 0
-169 -313 0
-169 -331 0
-187 -205 0
-187 -223 0
-187 -241 0
-187 -259 0
-187 -277 0
-187 -295 0
-187 -313 0
-187 -331 0
-205 -223 0
-205 -241 0
-205 -259 0
-205 -277 0
-205 -295 0
-205 -313 0
-205 -331 0
-223 -241 0
-223 -259 0
-223 -277 0
-223 -295 0
-223 -313 0
-223 -331 0
-241 -259 0
-241 -277 0
-241 -295 0
-241 -313 0
-241 -331 0
-259 -277 0
-259 -295 0
-259 -313 0
-259 -331 0
-277 -295 0
-277 -313 0
-277 -331 0
-295 -313 0
-295 -331 0
-313 -331 0
-8 -26 0
-8 -44 0
-8 -62 0
-8 -80 0
-8 -98 0
-8 -116 0
-8 -134 0
-8 -152 0
-8 -170 0
-8 -188 0
-8 -206 0
-8 -224 0
-8 -242 0
-8 -260 0
-8 -278 0
-8 -296 0
-8 -314 0
-8 -332 0
-26 -44 0
-26 -62 0
-26 -80 0
-26 -98 0
-26 -116 0
-26 -134 0
-26 -152 0
-26 -170 0
-26 -188 0
-26 -206 0
-26 -224 0
-26 -242 0
-26 -260 0
-26 -278 0
-26 -296 0
-26 -314 0
-26 -332 0
-44 -62 0
-44 -80 0
-44 -98 0
-44 -116 0
-44 -134 0
-44 -152 0
-44 -170 0
-44 -188 0
-44 -206 0
-44 -224 0
-44 -242 0
-44 -260 0
-44 -278 0
-44 -296 0
-44 -314 0
-44 -332 0
-62 -80 0
-62 -98 0
-62 -116 0
-62 -134 0
-62 -152 0
-62 -170 0
-62 -188 0
-62 -206 0
-62 -224 0
-62 -242 0
-62 -260 0
-62 -278 0
-62 -296 0
-62 -314 0
-62 -332 0
-80 -98 0
-80 -116 0
-80 -134 0
-80 -152 0
-80 -170 0
-80 -188 0
-80 -206 0
-80 -224 0
-80 -242 0
-80 -260 0
-80 -278 0
-80 -296 0
-80 -314 0
-80 -332 0
-98 -116 0
-98 -134 0
-98 -152 0
-98 -170 0
-98 -188 0
-98 -206 0
-98 -224 0
-98 -242 0
-98 -260 0
-98 -278 0
-98 -296 0
-98 -314 0
-98 -332 0
-116 -134 0
-116 -152 0
-116 -170 0
-116 -188 0
-116 -206 0
-116 -224 0
-116 -242 0
-116 -260 0
-116 -278 0
-116 -296 0
-116 -314 0
-116 -332 0
-134 -152 0
-134 -170 0
-134 -188 0
-134 -206 0
-134 -224 0
-134 -242 0
-134 -260 0
-134 -278 0
-134 -296 0
-134 -314 0
-134 -332 0
-152 -170 0
-152 -188 0
-152 -206 0
-152 -224 0
-152 -242 0
-152 -260 0
-152 -278 0
-152 -296 0
-152 -314 0
-152 -332 0
-170 -188 0
-170 -206 0
-170 -224 0
-170 -242 0
-170 -260 0
-170 -278 0
-170 -296 0
-170 -314 0
-170 -332 0
-188 -206 0
-188 -224 0
-188 -242 0
-188 -260 0
-188 -278 0
-188 -296 0
-188 -314 0
-188 -332 0
-206 -224 0
-206 -242 0
-206 -260 0
-206 -278 0
-206 -296 0
-206 -314 0
-206 -332 0
-224 -242 0
-224 -260 0
-224 -278 0
-224 -296 0
-224 -314 0
-224 -332 0
-242 -260 0
-242 -278 0
-242 -296 0
-242 -314 0
-242 -332 0
-260 -278 0
-260 -296 0
-260 -314 0
-260 -332 0
-278 -296 0
-278 -314 0
-278 -332 0
-296 -314 0
-296 -332 0
-314 -332 0
-9 -27 0
-9 -45 0
-9 -63 0
-9 -81 0
-9 -99 0
-9 -117 0
-9 -135 0
-9 -153 0
-9 -171 0
-9 -189 0
-9 -207 0
-9 -225 0
-9 -243 0
-9 -261 0
-9 -279 0
-9 -297 0
-9 -315 0
-9 -333 0
-27 -45 0
-27 -63 0
-27 -81 0
-27 -99 0
-27 -117 0
-27 -135 0
-27 -153 0
-27 -171 0
-27 -189 0
-27 -207 0
-27 -225 0
-27 -243 0
-27 -261 0
-27 -279 0
-27 -297 0
-27 -315 0
-27 -333 0
-45 -63 0
-45 -81 0
-45 -99 0
-45 -117 0
-45 -135 0
-45 -153 0
-45 -171 0
-45 -189 0
-45 -207 0
-45 -225 0
-45 -243 0
-45 -261 0
-45 -279 0
-45 -297 0
-45 -315 0
-45 -333 0
-63 -81 0
-63 -99 0
-63 -117 0
-63 -135 0
-63 -153 0
-63 -171 0
-63 -189 0
-63 -207 0
-63 -225 0
-63 -243 0
-63 -261 0
-63 -279 0
-63 -297 0
-63 -315 0
-63 -333 0
-81 -99 0
-81 -117 0
-81 -135 0
-81 -153 0
-81 -171 0
-81 -189 0
-81 -207 0
-81 -225 0
-81 -243 0
-81 -261 0
-81 -279 0
-81 -297 0
-81 -315 0
-81 -333 0
-99 -117 0
-99 -135 0
-99 -153 0
-99 -171 0
-99 -189 0
-99 -207 0
-99 -225 0
-99 -243 0
-99 -261 0
-99 -279 0
-99 -297 0
-99 -315 0
-99 -333 0
-117 -135 0
-117 -153 0
-117 -171 0
-117 -189 0
-117 -207 0
-117 -225 0
-117 -243 0
-117 -261 0
-117 -279 0
-117 -297 0
-117 -315 0
-117 -333 0
-135 -153 0
-135 -171 0
-135 -189 0
-135 -207 0
-135 -225 0
-135 -243 0
-135 -261 0
-135 -279 0
-135 -297 0
-135 -315 0
-135 -333 0
-153 -171 0
-153 -189 0
-153 -207 0
-153 -225 0
-153 -243 0
-153 -261 0
-153 -279 0
-153 -297 0
-153 -315 0
-153 -333 0
-171 -189 0
-171 -207 0
-171 -225 0
-171 -243 0
-171 -261 0
-171 -279 0
-171 -297 0
-171 -315 0
-171 -333 0
-189 -207 0
-189 -225 0
-189 -243 0
-189 -261 0
-189 -279 0
-189 -297 0
-189 -315 0
-189 -333 0
-207 -225 0
-207 -243 0
-207 -261 0
-207 -279 0
-207 -297 0
-207 -315 0
-207 -333 0
-225 -243 0
-225 -261 0
-225 -279 0
-225 -297 0
-225 -315 0
-225 -333 0
-243 -261 0
-243 -279 0
-243 -297 0
-243 -315 0
-243 -333 0
-261 -279 0
-261 -297 0
-261 -315 0
-261 -333 0
-279 -297 0
-279 -315 0
-279 -333 0
-297 -315 0
-297 -333 0
-315 -333 0
-10 -28 0
-10 -46 0
-10 -64 0
-10 -82 0
-10 -100 0
-10 -118 0
-10 -136 0
-10 -154 0
-10 -172 0
-10 -190 0
-10 -208 0
-10 -226 0
-10 -244 0
-10 -262 0
-10 -280 0
-10 -298 0
-10 -316 0
-10 -334 0
-28 -46 0
-28 -64 0
-28 -82 0
-28 -100 0
-28 -118 0
-28 -136 0
-28 -154 0
-28 -172 0
-28 -190 0
-28 -208 0
-28 -226 0
-28 -244 0
-28 -262 0
-28 -280 0
-28 -298 0
-28 -316 0
-28 -334 0
-46 -64 0
-46 -82 0
-46 -100 0
-46 -118 0
-46 -136 0
-46 -154 0
-46 -172 0
-46 -190 0
-46 -208 0
-46 -226 0
-46 -244 0
-46 -262 0
-46 -280 0
-46 -298 0
-46 -316 0
-46 -334 0
-64 -82 0
-64 -100 0
-64 -118 0
-64 -136 0
-64 -154 0
-64 -172 0
-64 -190 0
-64 -208 0
-64 -226 0
-64 -244 0
-64 -262 0
-64 -280 0
-64 -298 0
-64 -316 0
-64 -334 0
-82 -100 0
-82 -118 0
-82 -136 0
-82 -154 0
-82 -172 0
-82 -190 0
-82 -208 0
-82 -226 0
-82 -244 0
-82 -262 0
-82 -280 0
-82 -298 0
-82 -316 0
-82 -334 0
-100 -118 0
-100 -136 0
-100 -154 0
-100 -172 0
-100 -190 0
-100 -208 0
-100 -226 0
-100 -244 0
-100 -262 0
-100 -280 0
-100 -298 0
-100 -316 0
-100 -334 0
-118 -136 0
-118 -154 0
-118 -172 0
-118 -190 0
-118 -208 0
-118 -226 0
-118 -244 0
-118 -262 0
-118 -280 0
-118 -298 0
-118 -316 0
-118 -334 0
-136 -154 0
-136 -172 0
-136 -190 0
-136 -208 0
-136 -226 0
-136 -244 0
-136 -262 0
-136 -280 0
-136 -298 0
-136 -316 0
-136 -334 0
-154 -172 0
-154 -190 0
-154 -208 0
-154 -226 0
-154 -244 0
-154 -262 0
-154 -280 0
-154 -298 0
-154 -316 0
-154 -334 0
-172 -190 0
-172 -208 0
-172 -226 0
-172 -244 0
-172 -262 0
-172 -280 0
-172 -298 0
-172 -316 0
-172 -334 0
-190 -208 0
-190 -226 0
-190 -244 0
-190 -262 0
-190 -280 0
-190 -298 0
-190 -316 0
-190 -334 0
-208 -226 0
-208 -244 0
-208 -262 0
-208 -280 0
-208 -298 0
-208 -316 0
-208 -334 0
-226 -244 0
-226 -262 0
-226 -280 0
-226 -298 0
-226 -316 0
-226 -334 0
-244 -262 0
-244 -280 0
-244 -298 0
-244 -316 0
-244 -334 0
-262 -280 0
-262 -298 0
-262 -316 0
-262 -334 0
-280 -298 0
-280 -316 0
-280 -334 0
-298 -316 0
-298 -334 0
-316 -334 0
-11 -29 0
-11 -47 0
-11 -65 0
-11 -83 0
-11 -101 0
-11 -119 0
-11 -137 0
-11 -155 0
-11 -173 0
-11 -191 0
-11 -209 0
-11 -227 0
-11 -245 0
-11 -263 0
-11 -281 0
-11 -299 0
-11 -317 0
-11 -335 0
-29 -47 0
-29 -65 0
-29 -83 0
-29 -101 0
-29 -119 0
-29 -137 0
-29 -155 0
-29 -173 0
-29 -191 0
-29 -209 0
-29 -227 0
-29 -245 0
-29 -263 0
-29 -281 0
-29 -299 0
-29 -317 0
-29 -335 0
-47 -65 0
-47 -83 0
-47 -101 0
-47 -119 0
-47 -137 0
-47 -155 0
-47 -173 0
-47 -191 0
-47 -209 0
-47 -227 0
-47 -245 0
-47 -263 0
-47 -281 0
-47 -299 0
-47 -317 0
-47 -335 0
-65 -83 0
-65 -101 0
-65 -119 0
-65 -137 0
-65 -155 0
-65 -173 0
-65 -191 0
-65 -209 0
-65 -227 0
-65 -245 0
-65 -263 0
-65 -281 0
-65 -299 0
-65 -317 0
-65 -335 0
-83 -101 0
-83 -119 0
-83 -137 0
-83 -155 0
-83 -173 0
-83 -191 0
-83 -209 0
-83 -227 0
-83 -245 0
-83 -263 0
-83 -281 0
-83 -299 0
-83 -317 0
-83 -335 0
-101 -119 0
-101 -137 0
-101 -155 0
-101 -173 0
-101 -191 0
-101 -209 0
-101 -227 0
-101 -245 0
-101 -263 0
-101 -281 0
-101 -299 0
-101 -317 0
-101 -335 0
-119 -137 0
-119 -155 0
-119 -173 0
-119 -191 0
-119 -209 0
-119 -227 0
-119 -245 0
-119 -263 0
-119 -281 0
-119 -299 0
-119 -317 0
-119 -335 0
-137 -155 0
-137 -173 0
-137 -191 0
-137 -209 0
-137 -227 0
-137 -245 0
-137 -263 0
-137 -281 0
-137 -299 0
-137 -317 0
-137 -335 0
-155 -173 0
-155 -191 0
-155 -209 0
-155 -227 0
-155 -245 0
-155 -263 0
-155 -281 0
-155 -299 0
-155 -317 0
-155 -335 0
-173 -191 0
-173 -209 0
-173 -227 0
-173 -245 0
-173 -263 0
-173 -281 0
-173 -299 0
-173 -317 0
-173 -335 0
-191 -209 0
-191 -227 0
-191 -245 0
-191 -263 0
-191 -281 0
-191 -299 0
-191 -317 0
-191 -335 0
-209 -227 0
-209 -245 0
-209 -263 0
-209 -281 0
-209 -299 0
-209 -317 0
-209 -335 0
-227 -245 0
-227 -263 0
-227 -281 0
-227 -299 0
-227 -317 0
-227 -335 0
-245 -263 0
-245 -281 0
-245 -299 0
-245 -317 0
-245 -335 0
-263 -281 0
-263 -299 0
-263 -317 0
-263 -335 0
-281 -299 0
-281 -317 0
-281 -335 0
-299 -317 0
-299 -335 0
-317 -335 0
-12 -30 0
-12 -48 0
-12 -66 0
-12 -84 0
-12 -102 0
-12 -120 0
-12 -138 0
-12 -156 0
-12 -174 0
-12 -192 0
-12 -210 0
-12 -228 0
-12 -246 0
-12 -264 0
-12 -282 0
-12 -300 0
-12 -318 0
-12 -336 0
-30 -48 0
-30 -66 0
-30 -84 0
-30 -102 0
-30 -120 0
-30 -138 0
-30 -156 0
-30 -174 0
-30 -192 0
-30 -210 0
-30 -228 0
-30 -246 0
-30 -264 0
-30 -282 0
-30 -300 0
-30 -318 0
-30 -336 0
-48 -66 0
-48 -84 0
-48 -102 0
-48 -120 0
-48 -138 0
-48 -156 0
-48 -174 0
-48 -192 0
-48 -210 0
-48 -228 0
-48 -246 0
-48 -264 0
-48 -282 0
-48 -300 0
-48 -318 0
-48 -336 0
-66 -84 0
-66 -102 0
-66 -120 0
-66 -138 0
-66 -156 0
-66 -174 0
-66 -192 0
-66 -210 0
-66 -228 0
-66 -246 0
-66 -264 0
-66 -282 0
-66 -300 0
-66 -318 0
-66 -336 0
-84 -102 0
-84 -120 0
-84 -138 0
-84 -156 0
-84 -174 0
-84 -192 0
-84 -210 0
-84 -228 0
-84 -246 0
-84 -264 0
-84 -282 0
-84 -300 0
-84 -318 0
-84 -336 0
-102 -120 0
-102 -138 0
-102 -156 0
-102 -174 0
-102 -192 0
-102 -210 0
-102 -228 0
-102 -246 0
-102 -264 0
-102 -282 0
-102 -300 0
-102 -318 0
-102 -336 0
-120 -138 0
-120 -156 0
-120 -174 0
-120 -192 0
-120 -210 0
-120 -228 0
-120 -246 0
-120 -264 0
-120 -282 0
-120 -300 0
-120 -318 0
-120 -336 0
-138 -156 0
-138 -174 0
-138 -192 0
-138 -210 0
-138 -228 0
-138 -246 0
-138 -264 0
-138 -282 0
-138 -300 0
-138 -318 0
-138 -336 0
-156 -174 0
-156 -192 0
-156 -210 0
-156 -228 0
-156 -246 0
-156 -264 0
-156 -282 0
-156 -300 0
-156 -318 0
-156 -336 0
-174 -192 0
-174 -210 0
-174 -228 0
-174 -246 0
-174 -264 0
-174 -282 0
-174 -300 0
-174 -318 0
-174 -336 0
-192 -210 0
-192 -228 0
-192 -246 0
-192 -264 0
-192 -282 0
-192 -300 0
-192 -318 0
-192 -336 0
-210 -228 0
-210 -246 0
-210 -264 0
-210 -282 0
-210 -300 0
-210 -318 0
-210 -336 0
-228 -246 0
-228 -264 0
-228 -282 0
-228 -300 0
-228 -318 0
-228 -336 0
-246 -264 0
-246 -282 0
-246 -300 0
-246 -318 0
-246 -336 0
-264 -282 0
-264 -300 0
-264 -318 0
-264 -336 0
-282 -300 0
-282 -318 0
-282 -336 0
-300 -318 0
-300 -336 0
-318 -336 0
-13 -31 0
-13 -49 0
-13 -67 0
-13 -85 0
-13 -103 0
-13 -121 0
-13 -139 0
-13 -157 0
-13 -175 0
-13 -193 0
-13 -211 0
-13 -229 0
-13 -247 0
-13 -265 0
-13 -283 0
-13 -301 0
-13 -319 0
-13 -337 0
-31 -49 0
-31 -67 0
-31 -85 0
-31 -103 0
-31 -121 0
-31 -139 0
-31 -157 0
-31 -175 0
-31 -193 0
-31 -211 0
-31 -229 0
-31 -247 0
-31 -265 0
-31 -283 0
-31 -301 0
-31 -319 0
-31 -337 0
-49 -67 0
-49 -85 0
-49 -103 0
-49 -121 0
-49 -139 0
-49 -157 0
-49 -175 0
-49 -193 0
-49 -211 0
-49 -229 0
-49 -247 0
-49 -265 0
-49 -283 0
-49 -301 0
-49 -319 0
-49 -337 0
-67 -85 0
-67 -103 0
-67 -121 0
-67 -139 0
-67 -157 0
-67 -175 0
-67 -193 0
-67 -211 0
-67 -229 0
-67 -247 0
-67 -265 0
-67 -283 0
-67 -301 0
-67 -319 0
-67 -337 0
-85 -103 0
-85 -121 0
-85 -139 0
-85 -157 0
-85 -175 0
-85 -193 0
-85 -211 0
-85 -229 0
-85 -247 0
-85 -265 0
-85 -283 0
-85 -301 0
-85 -319 0
-85 -337 0
-103 -121 0
-103 -139 0
-103 -157 0
-103 -175 0
-103 -193 0
-103 -211 0
-103 -229 0
-103 -247 0
-103 -265 0
-103 -283 0
-103 -301 0
-103 -319 0
-103 -337 0
-121 -139 0
-121 -157 0
-121 -175 0
-121 -193 0
-121 -211 0
-121 -229 0
-121 -247 0
-121 -265 0
-121 -283 0
-121 -301 0
-121 -319 0
-121 -337 0
-139 -157 0
-139 -175 0
-139 -193 0
-139 -211 0
-139 -229 0
-139 -247 0
-139 -265 0
-139 -283 0
-139 -301 0
-139 -319 0
-139 -337 0
-157 -175 0
-157 -193 0
-157 -211 0
-157 -229 0
-157 -247 0
-157 -265 0
-157 -283 0
-157 -301 0
-157 -319 0
-157 -337 0
-175 -193 0
-175 -211 0
-175 -229 0
-175 -247 0
-175 -265 0
-175 -283 0
-175 -301 0
-175 -319 0
-175 -337 0
-193 -211 0
-193 -229 0
-193 -247 0
-193 -265 0
-193 -283 0
-193 -301 0
-193 -319 0
-193 -337 0
-211 -229 0
-211 -247 0
-211 -265 0
-211 -283 0
-211 -301 0
-211 -319 0
-211 -337 0
-229 -247 0
-229 -265 0
-229 -283 0
-229 -301 0
-229 -319 0
-229 -337 0
-247 -265 0
-247 -283 0
-247 -301 0
-247 -319 0
-247 -337 0
-265 -283 0
-265 -301 0
-265 -319 0
-265 -337 0
-283 -301 0
-283 -319 0
-283 -337 0
-301 -319 0
-301 -337 0
-319 -337 0
-14 -32 0
-14 -50 0
-14 -68 0
-14 -86 0
-14 -104 0
-14 -122 0
-14 -140 0
-14 -158 0
-14 -176 0
-14 -194 0
-14 -212 0
-14 -230 0
-14 -248 0
-14 -266 0
-14 -284 0
-14 -302 0
-14 -320 0
-14 -338 0
-32 -50 0
-32 -68 0
-32 -86 0
-32 -104 0
-32 -122 0
-32 -140 0
-32 -158 0
-32 -176 0
-32 -194 0
-32 -212 0
-32 -230 0
-32 -248 0
-32 -266 0
-32 -284 0
-32 -302 0
-32 -320 0
-32 -338 0
-50 -68 0
-50 -86 0
-50 -104 0
-50 -122 0
-50 -140 0
-50 -158 0
-50 -176 0
-50 -194 0
-50 -212 0
-50 -230 0
-50 -248 0
-50 -266 0
-50 -284 0
-50 -302 0
-50 -320 0
-50 -338 0
-68 -86 0
-68 -104 0
-68 -122 0
-68 -140 0
-68 -158 0
-68 -176 0
-68 -194 0
-68 -212 0
-68 -230 0
-68 -248 0
-68 -266 0
-68 -284 0
-68 -302 0
-68 -320 0
-68 -338 0
-86 -104 0
-86 -122 0
-86 -140 0
-86 -158 0
-86 -176 0
-86 -194 0
-86 -212 0
-86 -230 0
-86 -248 0
-86 -266 0
-86 -284 0
-86 -302 0
-86 -320 0
-86 -338 0
-104 -122 0
-104 -140 0
-104 -158 0
-104 -176 0
-104 -194 0
-104 -212 0
-104 -230 0
-104 -248 0
-104 -266 0
-104 -284 0
-104 -302 0
-104 -320 0
-104 -338 0
-122 -140 0
-122 -158 0
-122 -176 0
-122 -194 0
-122 -212 0
-122 -230 0
-122 -248 0
-122 -266 0
-122 -284 0
-122 -302 0
-122 -320 0
-122 -338 0
-140 -158 0
-140 -176 0
-140 -194 0
-140 -212 0
-140 -230 0
-140 -248 0
-140 -266 0
-140 -284 0
-140 -302 0
-140 -320 0
-140 -338 0
-158 -176 0
-158 -194 0
-158 -212 0
-158 -230 0
-158 -248 0
-158 -266 0
-158 -284 0
-158 -302 0
-158 -320 0
-158 -338 0
-176 -194 0
-176 -212 0
-176 -230 0
-176 -248 0
-176 -266 0
-176 -284 0
-176 -302 0
-176 -320 0
-176 -338 0
-194 -212 0
-194 -230 0
-194 -248 0
-194 -266 0
-194 -284 0
-194 -302 0
-194 -320 0
-194 -338 0
-212 -230 0
-212 -248 0
-212 -266 0
-212 -284 0
-212 -302 0
-212 -320 0
-212 -338 0
-230 -248 0
-230 -266 0
-230 -284 0
-230 -302 0
-230 -320 0
-230 -338 0
-248 -266 0
-248 -284 0
-248 -302 0
-248 -320 0
-248 -338 0
-266 -284 0
-266 -302 0
-266 -320 0
-266 -338 0
-284 -302 0
-284 -320 0
-284 -338 0
-302 -320 0
-302 -338 0
-320 -338 0
-15 -33 0
-15 -51 0
-15 -69 0
-15 -87 0
-15 -105 0
-15 -123 0
-15 -141 0
-15 -159 0
-15 -177 0
-15 -195 0
-15 -213 0
-15 -231 0
-15 -249 0
-15 -267 0
-15 -285 0
-15 -303 0
-15 -321 0
-15 -339 0
-33 -51 0
-33 -69 0
-33 -87 0
-33 -105 0
-33 -123 0
-33 -141 0
-33 -159 0
-33 -177 0
-33 -195 0
-33 -213 0
-33 -231 0
-33 -249 0
-33 -267 0
-33 -285 0
-33 -303 0
-33 -321 0
-33 -339 0
-51 -69 0
-51 -87 0
-51 -105 0
-51 -123 0
-51 -141 0
-51 -159 0
-51 -177 0
-51 -195 0
-51 -213 0
-51 -231 0
-51 -249 0
-51 -267 0
-51 -285 0
-51 -303 0
-51 -321 0
-51 -339 0
-69 -87 0
-69 -105 0
-69 -123 0
-69 -141 0
-69 -159 0
-69 -177 0
-69 -195 0
-69 -213 0
-69 -231 0
-69 -249 0
-69 -267 0
-69 -285 0
-69 -303 0
-69 -321 0
-69 -339 0
-87 -105 0
-87 -123 0
-87 -141 0
-87 -159 0
-87 -177 0
-87 -195 0
-87 -213 0
-87 -231 0
-87 -249 0
-87 -267 0
-87 -285 0
-87 -303 0
-87 -321 0
-87 -339 0
-105 -123 0
-105 -141 0
-105 -159 0
-105 -177 0
-105 -195 0
-105 -213 0
-105 -231 0
-105 -249 0
-105 -267 0
-105 -285 0
-105 -303 0
-105 -321 0
-105 -339 0
-123 -141 0
-123 -159 0
-123 -177 0
-123 -195 0
-123 -213 0
-123 -231 0
-123 -249 0
-123 -267 0
-123 -285 0
-123 -303 0
-123 -321 0
-123 -339 0
-141 -159 0
-141 -177 0
-141 -195 0
-141 -213 0
-141 -231 0
-141 -249 0
-141 -267 0
-141 -285 0
-141 -303 0
-141 -321 0
-141 -339 0
-159 -177 0
-159 -195 0
-159 -213 0
-159 -231 0
-159 -249 0
-159 -267 0
-159 -285 0
-159 -303 0
-159 -321 0
-159 -339 0
-177 -195 0
-177 -213 0
-177 -231 0
-177 -249 0
-177 -267 0
-177 -285 0
-177 -303 0
-177 -321 0
-177 -339 0
-195 -213 0
-195 -231 0
-195 -249 0
-195 -267 0
-195 -285 0
-195 -303 0
-195 -321 0
-195 -339 0
-213 -231 0
-213 -249 0
-213 -267 0
-213 -285 0
-213 -303 0
-213 -321 0
-213 -339 0
-231 -249 0
-231 -267 0
-231 -285 0
-231 -303 0
-231 -321 0
-231 -339 0
-249 -267 0
-249 -285 0
-249 -303 0
-249 -321 0
-249 -339 0
-267 -285 0
-267 -303 0
-267 -321 0
-267 -339 0
-285 -303 0
-285 -321 0
-285 -339 0
-303 -321 0
-303 -339 0
-321 -339 0
-16 -34 0
-16 -52 0
-16 -70 0
-16 -88 0
-16 -106 0
-16 -124 0
-16 -142 0
-16 -160 0
-16 -178 0
-16 -196 0
-16 -214 0
-16 -232 0
-16 -250 0
-16 -268 0
-16 -286 0
-16 -304 0
-16 -322 0
-16 -340 0
-34 -52 0
-34 -70 0
-34 -88 0
-34 -106 0
-34 -124 0
-34 -142 0
-34 -160 0
-34 -178 0
-34 -196 0
-34 -214 0
-34 -232 0
-34 -250 0
-34 -268 0
-34 -286 0
-34 -304 0
-34 -322 0
-34 -340 0
-52 -70 0
-52 -88 0
-52 -106 0
-52 -124 0
-52 -142 0
-52 -160 0
-52 -178 0
-52 -196 0
-52 -214 0
-52 -232 0
-52 -250 0
-52 -268 0
-52 -286 0
-52 -304 0
-52 -322 0
-52 -340 0
-70 -88 0
-70 -106 0
-70 -124 0
-70 -142 0
-70 -160 0
-70 -178 0
-70 -196 0
-70 -214 0
-70 -232 0
-70 -250 0
-70 -268 0
-70 -286 0
-70 -304 0
-70 -322 0
-70 -340 0
-88 -106 0
-88 -124 0
-88 -142 0
-88 -160 0
-88 -178 0
-88 -196 0
-88 -214 0
-88 -232 0
-88 -250 0
-88 -268 0
-88 -286 0
-88 -304 0
-88 -322 0
-88 -340 0
-106 -124 0
-106 -142 0
-106 -160 0
-106 -178 0
-106 -196 0
-106 -214 0
-106 -232 0
-106 -250 0
-106 -268 0
-106 -286 0
-106 -304 0
-106 -322 0
-106 -340 0
-124 -142 0
-124 -160 0
-124 -178 0
-124 -196 0
-124 -214 0
-124 -232 0
-124 -250 0
-124 -268 0
-124 -286 0
-124 -304 0
-124 -322 0
-124 -340 0
-142 -160 0
-142 -178 0
-142 -196 0
-142 -214 0
-142 -232 0
-142 -250 0
-142 -268 0
-142 -286 0
-142 -304 0
-142 -322 0
-142 -340 0
-160 -178 0
-160 -196 0
-160 -214 0
-160 -232 0
-160 -250 0
-160 -268 0
-160 -286 0
-160 -304 0
-160 -322 0
-160 -340 0
-178 -196 0
-178 -214 0
-178 -232 0
-178 -250 0
-178 -268 0
-178 -286 0
-178 -304 0
-178 -322 0
-178 -340 0
-196 -214 0
-196 -232 0
-196 -250 0
-196 -268 0
-196 -286 0
-196 -304 0
-196 -322 0
-196 -340 0
-214 -232 0
-214 -250 0
-214 -268 0
-214 -286 0
-214 -304 0
-214 -322 0
-214 -340 0
-232 -250 0
-232 -268 0
-232 -286 0
-232 -304 0
-232 -322 0
-232 -340 0
-250 -268 0
-250 -286 0
-250 -304 0
-250 -322 0
-250 -340 0
-268 -286 0
-268 -304 0
-268 -322 0
-268 -340 0
-286 -304 0
-286 -322 0
-286 -340 0
-304 -322 0
-304 -340 0
-322 -340 0
-17 -35 0
-17 -53 0
-17 -71 0
-17 -89 0
-17 -107 0
-17 -125 0
-17 -143 0
-17 -161 0
-17 -179 0
-17 -197 0
-17 -215 0
-17 -233 0
-17 -251 0
-17 -269 0
-17 -287 0
-17 -305 0
-17 -323 0
-17 -341 0
-35 -53 0
-35 -71 0
-35 -89 0
-35 -107 0
-35 -125 0
-35 -143 0
-35 -161 0
-35 -179 0
-35 -197 0
-35 -215 0
-35 -233 0
-35 -251 0
-35 -269 0
-35 -287 0
-35 -305 0
-35 -323 0
-35 -341 0
-53 -71 0
-53 -89 0
-53 -107 0
-53 -125 0
-53 -143 0
-53 -161 0
-53 -179 0
-53 -197 0
-53 -215 0
-53 -233 0
-53 -251 0
-53 -269 0
-53 -287 0
-53 -305 0
-53 -323 0
-53 -341 0
-71 -89 0
-71 -107 0
-71 -125 0
-71 -143 0
-71 -161 0
-71 -179 0
-71 -197 0
-71 -215 0
-71 -233 0
-71 -251 0
-71 -269 0
-71 -287 0
-71 -305 0
-71 -323 0
-71 -341 0
-89 -107 0
-89 -125 0
-89 -143 0
-89 -161 0
-89 -179 0
-89 -197 0
-89 -215 0
-89 -233 0
-89 -251 0
-89 -269 0
-89 -287 0
-89 -305 0
-89 -323 0
-89 -341 0
-107 -125 0
-107 -143 0
-107 -161 0
-107 -179 0
-107 -197 0
-107 -215 0
-107 -233 0
-107 -251 0
-107 -269 0
-107 -287 0
-107 -305 0
-107 -323 0
-107 -341 0
-125 -143 0
-125 -161 0
-125 -179 0
-125 -197 0
-125 -215 0
-125 -233 0
-125 -251 0
-125 -269 0
-125 -287 0
-125 -305 0
-125 -323 0
-125 -341 0
-143 -161 0
-143 -179 0
-143 -197 0
-143 -215 0
-143 -233 0
-143 -251 0
-143 -269 0
-143 -287 0
-143 -305 0
-143 -323 0
-143 -341 0
-161 -179 0
-161 -197 0
-161 -215 0
-161 -233 0
-161 -251 0
-161 -269 0
-161 -287 0
-161 -305 0
-161 -323 0
-161 -341 0
-179 -197 0
-179 -215 0
-179 -233 0
-179 -251 0
-179 -269 0
-179 -287 0
-179 -305 0
-179 -323 0
-179 -341 0
-197 -215 0
-197 -233 0
-197 -251 0
-197 -269 0
-197 -287 0
-197 -305 0
-197 -323 0
-197 -341 0
-215 -233 0
-215 -251 0
-215 -269 0
-215 -287 0
-215 -305 0
-215 -323 0
-215 -341 0
-233 -251 0
-233 -269 0
-233 -287 0
-233 -305 0
-233 -323 0
-233 -341 0
-251 -269 0
-251 -287 0
-251 -305 0
-251 -323 0
-251 -341 0
-269 -287 0
-269 -305 0
-269 -323 0
-269 -341 0
-287 -305 0
-287 -323 0
-287 -341 0
-305 -323 0
-305 -341 0
-323 -341 0
-18 -36 0
-18 -54 0
-18 -72 0
-18 -90 0
-18 -108 0
-18 -126 0
-18 -144 0
-18 -162 0
-18 -180 0
-18 -198 0
-18 -216 0
-18 -234 0
-18 -252 0
-18 -270 0
-18 -288 0
-18 -306 0
-18 -324 0
-18 -342 0
-36 -54 0
-36 -72 0
-36 -90 0
-36 -108 0
-36 -126 0
-36 -144 0
-36 -162 0
-36 -180 0
-36 -198 0
-36 -216 0
-36 -234 0
-36 -252 0
-36 -270 0
-36 -288 0
-36 -306 0
-36 -324 0
-36 -342 0
-54 -72 0
-54 -90 0
-54 -108 0
-54 -126 0
-54 -144 0
-54 -162 0
-54 -180 0
-54 -198 0
-54 -216 0
-54 -234 0
-54 -252 0
-54 -270 0
-54 -288 0
-54 -306 0
-54 -324 0
-54 -342 0
-72 -90 0
-72 -108 0
-72 -126 0
-72 -144 0
-72 -162 0
-72 -180 0
-72 -198 0
-72 -216 0
-72 -234 0
-72 -252 0
-72 -270 0
-72 -288 0
-72 -306 0
-72 -324 0
-72 -342 0
-90 -108 0
-90 -126 0
-90 -144 0
-90 -162 0
-90 -180 0
-90 -198 0
-90 -216 0
-90 -234 0
-90 -252 0
-90 -270 0
-90 -288 0
-90 -306 0
-90 -324 0
-90 -342 0
-108 -126 0
-108 -144 0
-108 -162 0
-108 -180 0
-108 -198 0
-108 -216 0
-108 -234 0
-108 -252 0
-108 -270 0
-108 -288 0
-108 -306 0
-108 -324 0
-108 -342 0
-126 -144 0
-126 -162 0
-126 -180 0
-126 -198 0
-126 -216 0
-126 -234 0
-126 -252 0
-126 -270 0
-126 -288 0
-126 -306 0
-126 -324 0
-126 -342 0
-144 -162 0
-144 -180 0
-144 -198 0
-144 -216 0
-144 -234 0
-144 -252 0
-144 -270 0
-144 -288 0
-144 -306 0
-144 -324 0
-144 -342 0
-162 -180 0
-162 -198 0
-162 -216 0
-162 -234 0
-162 -252 0
-162 -270 0
-162 -288 0
-162 -306 0
-162 -324 0
-162 -342 0
-180 -198 0
-180 -216 0
-180 -234 0
-180 -252 0
-180 -270 0
-180 -288 0
-180 -306 0
-180 -324 0
-180 -342 0
-198 -216 0
-198 -234 0
-198 -252 0
-198 -270 0
-198 -288 0
-198 -306 0
-198 -324 0
-198 -342 0
-216 -234 0
-216 -252 0
-216 -270 0
-216 -288 0
-216 -306 0
-216 -324 0
-216 -342 0
-234 -252 0
-234 -270 0
-234 -288 0
-234 -306 0
-234 -324 0
-234 -342 0
-252 -270 0
-252 -288 0
-252 -306 0
-252 -324 0
-252 -342 0
-270 -288 0
-270 -306 0
-270 -324 0
-270 -342 0
-288 -306 0
-288 -324 0
-288 -342 0
-306 -324 0
-306 -342 0
-324 -342 0
-343 -362 0
-343 -381 0
-343 -400 0
-343 -419 0
-343 -438 0
-343 -457 0
-343 -476 0
-343 -495 0
-343 -514 0
-343 -533 0
-343 -552 0
-343 -571 0
-343 -590 0
-343 -609 0
-343 -628 0
-343 -647 0
-343 -666 0
-362 -381 0
-362 -400 0
-362 -419 0
-362 -438 0
-362 -457 0
-362 -476 0
-362 -495 0
-362 -514 0
-362 -533 0
-362 -552 0
-362 -571 0
-362 -590 0
-362 -609 0
-362 -628 0
-362 -647 0
-362 -666 0
-381 -400 0
-381 -419 0
-381 -438 0
-381 -457 0
-381 -476 0
-381 -495 0
-381 -514 0
-381 -533 0
-381 -552 0
-381 -571 0
-381 -590 0
-381 -609 0
-381 -628 0
-381 -647 0
-381 -666 0
-400 -419 0
-400 -438 0
-400 -457 0
-400 -476 0
-400 -495 0
-400 -514 0
-400 -533 0
-400 -552 0
-400 -571 0
-400 -590 0
-400 -609 0
-400 -628 0
-400 -647 0
-400 -666 0
-419 -438 0
-419 -457 0
-419 -476 0
-419 -495 0
-419 -514 0
-419 -533 0
-419 -552 0
-419 -571 0
-419 -590 0
-419 -609 0
-419 -628 0
-419 -647 0
-419 -666 0
-438 -457 0
-438 -476 0
-438 -495 0
-438 -514 0
-438 -533 0
-438 -552 0
-438 -571 0
-438 -590 0
-438 -609 0
-438 -628 0
-438 -647 0
-438 -666 0
-457 -476 0
-457 -495 0
-457 -514 0
-457 -533 0
-457 -552 0
-457 -571 0
-457 -590 0
-457 -609 0
-457 -628 0
-457 -647 0
-457 -666 0
-476 -495 0
-476 -514 0
-476 -533 0
-476 -552 0
-476 -571 0
-476 -590 0
-476 -609 0
-476 -628 0
-476 -647 0
-476 -666 0
-495 -514 0
-495 -533 0
-495 -552 0
-495 -571 0
-495 -590 0
-495 -609 0
-495 -628 0
-495 -647 0
-495 -666 0
-514 -533 0
-514 -552 0
-514 -571 0
-514 -590 0
-514 -609 0
-514 -628 0
-514 -647 0
-514 -666 0
-533 -552 0
-533 -571 0
-533 -590 0
-533 -609 0
-533 -628 0
-533 -647 0
-533 -666 0
-552 -571 0
-552 -590 0
-552 -609 0
-552 -628 0
-552 -647 0
-552 -666 0
-571 -590 0
-571 -609 0
-571 -628 0
-571 -647 0
-571 -666 0
-590 -609 0
-590 -628 0
-590 -647 0
-590 -666 0
-609 -628 0
-609 -647 0
-609 -666 0
-628 -647 0
-628 -666 0
-647 -666 0
-344 -363 0
-344 -382 0
-344 -401 0
-344 -420 0
-344 -439 0
-344 -458 0
-344 -477 0
-344 -496 0
-344 -515 0
-344 -534 0
-344 -553 0
-344 -572 0
-344 -591 0
-344 -610 0
-344 -629 0
-344 -648 0
-344 -667 0
-363 -382 0
-363 -401 0
-363 -420 0
-363 -439 0
-363 -458 0
-363 -477 0
-363 -496 0
-363 -515 0
-363 -534 0
-363 -553 0
-363 -572 0
-363 -591 0
-363 -610 0
-363 -629 0
-363 -648 0
-363 -667 0
-382 -401 0
-382 -420 0
-382 -439 0
-382 -458 0
-382 -477 0
-382 -496 0
-382 -515 0
-382 -534 0
-382 -553 0
-382 -572 0
-382 -591 0
-382 -610 0
-382 -629 0
-382 -648 0
-382 -667 0
-401 -420 0
-401 -439 0
-401 -458 0
-401 -477 0
-401 -496 0
-401 -515 0
-401 -534 0
-401 -553 0
-401 -572 0
-401 -591 0
-401 -610 0
-401 -629 0
-401 -648 0
-401 -667 0
-420 -439 0
-420 -458 0
-420 -477 0
-420 -496 0
-420 -515 0
-420 -534 0
-420 -553 0
-420 -572 0
-420 -591 0
-420 -610 0
-420 -629 0
-420 -648 0
-420 -667 0
-439 -458 0
-439 -477 0
-439 -496 0
-439 -515 0
-439 -534 0
-439 -553 0
-439 -572 0
-439 -591 0
-439 -610 0
-439 -629 0
-439 -648 0
-439 -667 0
-458 -477 0
-458 -496 0
-458 -515 0
-458 -534 0
-458 -553 0
-458 -572 0
-458 -591 0
-458 -610 0
-458 -629 0
-458 -648 0
-458 -667 0
-477 -496 0
-477 -515 0
-477 -534 0
-477 -553 0
-477 -572 0
-477 -591 0
-477 -610 0
-477 -629 0
-477 -648 0
-477 -667 0
-496 -515 0
-496 -534 0
-496 -553 0
-496 -572 0
-496 -591 0
-496 -610 0
-496 -629 0
-496 -648 0
-496 -667 0
-515 -534 0
-515 -553 0
-515 -572 0
-515 -591 0
-515 -610 0
-515 -629 0
-515 -648 0
-515 -667 0
-534 -553 0
-534 -572 0
-534 -591 0
-534 -610 0
-534 -629 0
-534 -648 0
-534 -667 0
-553 -572 0
-553 -591 0
-553 -610 0
-553 -629 0
-553 -648 0
-553 -667 0
-572 -591 0
-572 -610 0
-572 -629 0
-572 -648 0
-572 -667 0
-591 -610 0
-591 -629 0
-591 -648 0
-591 -667 0
-610 -629 0
-610 -648 0
-610 -667 0
-629 -648 0
-629 -667 0
-648 -667 0
-345 -364 0
-345 -383 0
-345 -402 0
-345 -421 0
-345 -440 0
-345 -459 0
-345 -478 0
-345 -497 0
-345 -516 0
-345 -535 0
-345 -554 0
-345 -573 0
-345 -592 0
-345 -611 0
-345 -630 0
-345 -649 0
-345 -668 0
-364 -383 0
-364 -402 0
-364 -421 0
-364 -440 0
-364 -459 0
-364 -478 0
-364 -497 0
-364 -516 0
-364 -535 0
-364 -554 0
-364 -573 0
-364 -592 0
-364 -611 0
-364 -630 0
-364 -649 0
-364 -668 0
-383 -402 0
-383 -421 0
-383 -440 0
-383 -459 0
-383 -478 0
-383 -497 0
-383 -516 0
-383 -535 0
-383 -554 0
-383 -573 0
-383 -592 0
-383 -611 0
-383 -630 0
-383 -649 0
-383 -668 0
-402 -421 0
-402 -440 0
-402 -459 0
-402 -478 0
-402 -497 0
-402 -516 0
-402 -535 0
-402 -554 0
-402 -573 0
-402 -592 0
-402 -611 0
-402 -630 0
-402 -649 0
-402 -668 0
-421 -440 0
-421 -459 0
-421 -478 0
-421 -497 0
-421 -516 0
-421 -535 0
-421 -554 0
-421 -573 0
-421 -592 0
-421 -611 0
-421 -630 0
-421 -649 0
-421 -668 0
-440 -459 0
-440 -478 0
-440 -497 0
-440 -516 0
-440 -535 0
-440 -554 0
-440 -573 0
-440 -592 0
-440 -611 0
-440 -630 0
-440 -649 0
-440 -668 0
-459 -478 0
-459 -497 0
-459 -516 0
-459 -535 0
-459 -554 0
-459 -573 0
-459 -592 0
-459 -611 0
-459 -630 0
-459 -649 0
-459 -668 0
-478 -497 0
-478 -516 0
-478 -535 0
-478 -554 0
-478 -573 0
-478 -592 0
-478 -611 0
-478 -630 0
-478 -649 0
-478 -668 0
-497 -516 0
-497 -535 0
-497 -554 0
-497 -573 0
-497 -592 0
-497 -611 0
-497 -630 0
-497 -649 0
-497 -668 0
-516 -535 0
-516 -554 0
-516 -573 0
-516 -592 0
-516 -611 0
-516 -630 0
-516 -649 0
-516 -668 0
-535 -554 0
-535 -573 0
-535 -592 0
-535 -611 0
-535 -630 0
-535 -649 0
-535 -668 0
-554 -573 0
-554 -592 0
-554 -611 0
-554 -630 0
-554 -649 0
-554 -668 0
-573 -592 0
-573 -611 0
-573 -630 0
-573 -649 0
-573 -668 0
-592 -611 0
-592 -630 0
-592 -649 0
-592 -668 0
-611 -630 0
-611 -649 0
-611 -668 0
-630 -649 0
-630 -668 0
-649 -668 0
-346 -365 0
-346 -384 0
-346 -403 0
-346 -422 0
-346 -441 0
-346 -460 0
-346 -479 0
-346 -498 0
-346 -517 0
-346 -536 0
-346 -555 0
-346 -574 0
-346 -593 0
-346 -612 0
-346 -631 0
-346 -650 0
-346 -669 0
-365 -384 0
-365 -403 0
-365 -422 0
-365 -441 0
-365 -460 0
-365 -479 0
-365 -498 0
-365 -517 0
-365 -536 0
-365 -555 0
-365 -574 0
-365 -593 0
-365 -612 0
-365 -631 0
-365 -650 0
-365 -669 0
-384 -403 0
-384 -422 0
-384 -441 0
-384 -460 0
-384 -479 0
-384 -498 0
-384 -517 0
-384 -536 0
-384 -555 0
-384 -574 0
-384 -593 0
-384 -612 0
-384 -631 0
-384 -650 0
-384 -669 0
-403 -422 0
-403 -441 0
-403 -460 0
-403 -479 0
-403 -498 0
-403 -517 0
-403 -536 0
-403 -555 0
-403 -574 0
-403 -593 0
-403 -612 0
-403 -631 0
-403 -650 0
-403 -669 0
-422 -441 0
-422 -460 0
-422 -479 0
-422 -498 0
-422 -517 0
-422 -536 0
-422 -555 0
-422 -574 0
-422 -593 0
-422 -612 0
-422 -631 0
-422 -650 0
-422 -669 0
-441 -460 0
-441 -479 0
-441 -498 0
-441 -517 0
-441 -536 0
-441 -555 0
-441 -574 0
-441 -593 0
-441 -612 0
-441 -631 0
-441 -650 0
-441 -669 0
-460 -479 0
-460 -498 0
-460 -517 0
-460 -536 0
-460 -555 0
-460 -574 0
-460 -593 0
-460 -612 0
-460 -631 0
-460 -650 0
-460 -669 0
-479 -498 0
-479 -517 0
-479 -536 0
-479 -555 0
-479 -574 0
-479 -593 0
-479 -612 0
-479 -631 0
-479 -650 0
-479 -669 0
-498 -517 0
-498 -536 0
-498 -555 0
-498 -574 0
-498 -593 0
-498 -612 0
-498 -631 0
-498 -650 0
-498 -669 0
-517 -536 0
-517 -555 0
-517 -574 0
-517 -593 0
-517 -612 0
-517 -631 0
-517 -650 0
-517 -669 0
-536 -555 0
-536 -574 0
-536 -593 0
-536 -612 0
-536 -631 0
-536 -650 0
-536 -669 0
-555 -574 0
-555 -593 0
-555 -612 0
-555 -631 0
-555 -650 0
-555 -669 0
-574 -593 0
-574 -612 0
-574 -631 0
-574 -650 0
-574 -669 0
-593 -612 0
-593 -631 0
-593 -650 0
-593 -669 0
-612 -631 0
-612 -650 0
-612 -669 0
-631 -650 0
-631 -669 0
-650 -669 0
-347 -366 0
-347 -385 0
-347 -404 0
-347 -423 0
-347 -442 0
-347 -461 0
-347 -480 0
-347 -499 0
-347 -518 0
-347 -537 0
-347 -556 0
-347 -575 0
-347 -594 0
-347 -613 0
-347 -632 0
-347 -651 0
-347 -670 0
-366 -385 0
-366 -404 0
-366 -423 0
-366 -442 0
-366 -461 0
-366 -480 0
-366 -499 0
-366 -518 0
-366 -537 0
-366 -556 0
-366 -575 0
-366 -594 0
-366 -613 0
-366 -632 0
-366 -651 0
-366 -670 0
-385 -404 0
-385 -423 0
-385 -442 0
-385 -461 0
-385 -480 0
-385 -499 0
-385 -518 0
-385 -537 0
-385 -556 0
-385 -575 0
-385 -594 0
-385 -613 0
-385 -632 0
-385 -651 0
-385 -670 0
-404 -423 0
-404 -442 0
-404 -461 0
-404 -480 0
-404 -499 0
-404 -518 0
-404 -537 0
-404 -556 0
-404 -575 0
-404 -594 0
-404 -613 0
-404 -632 0
-404 -651 0
-404 -670 0
-423 -442 0
-423 -461 0
-423 -480 0
-423 -499 0
-423 -518 0
-423 -537 0
-423 -556 0
-423 -575 0
-423 -594 0
-423 -613 0
-423 -632 0
-423 -651 0
-423 -670 0
-442 -461 0
-442 -480 0
-442 -499 0
-442 -518 0
-442 -537 0
-442 -556 0
-442 -575 0
-442 -594 0
-442 -613 0
-442 -632 0
-442 -651 0
-442 -670 0
-461 -480 0
-461 -499 0
-461 -518 0
-461 -537 0
-461 -556 0
-461 -575 0
-461 -594 0
-461 -613 0
-461 -632 0
-461 -651 0
-461 -670 0
-480 -499 0
-480 -518 0
-480 -537 0
-480 -556 0
-480 -575 0
-480 -594 0
-480 -613 0
-480 -632 0
-480 -651 0
-480 -670 0
-499 -518 0
-499 -537 0
-499 -556 0
-499 -575 0
-499 -594 0
-499 -613 0
-499 -632 0
-499 -651 0
-499 -670 0
-518 -537 0
-518 -556 0
-518 -575 0
-518 -594 0
-518 -613 0
-518 -632 0
-518 -651 0
-518 -670 0
-537 -556 0
-537 -575 0
-537 -594 0
-537 -613 0
-537 -632 0
-537 -651 0
-537 -670 0
-556 -575 0
-556 -594 0
-556 -613 0
-556 -632 0
-556 -651 0
-556 -670 0
-575 -594 0
-575 -613 0
-575 -632 0
-575 -651 0
-575 -670 0
-594 -613 0
-594 -632 0
-594 -651 0
-594 -670 0
-613 -632 0
-613 -651 0
-613 -670 0
-632 -651 0
-632 -670 0
-651 -670 0
-348 -367 0
-348 -386 0
-348 -405 0
-348 -424 0
-348 -443 0
-348 -462 0
-348 -481 0
-348 -500 0
-348 -519 0
-348 -538 0
-348 -557 0
-348 -576 0
-348 -595 0
-348 -614 0
-348 -633 0
-348 -652 0
-348 -671 0
-367 -386 0
-367 -405 0
-367 -424 0
-367 -443 0
-367 -462 0
-367 -481 0
-367 -500 0
-367 -519 0
-367 -538 0
-367 -557 0
-367 -576 0
-367 -595 0
-367 -614 0
-367 -633 0
-367 -652 0
-367 -671 0
-386 -405 0
-386 -424 0
-386 -443 0
-386 -462 0
-386 -481 0
-386 -500 0
-386 -519 0
-386 -538 0
-386 -557 0
-386 -576 0
-386 -595 0
-386 -614 0
-386 -633 0
-386 -652 0
-386 -671 0
-405 -424 0
-405 -443 0
-405 -462 0
-405 -481 0
-405 -500 0
-405 -519 0
-405 -538 0
-405 -557 0
-405 -576 0
-405 -595 0
-405 -614 0
-405 -633 0
-405 -652 0
-405 -671 0
-424 -443 0
-424 -462 0
-424 -481 0
-424 -500 0
-424 -519 0
-424 -538 0
-424 -557 0
-424 -576 0
-424 -595 0
-424 -614 0
-424 -633 0
-424 -652 0
-424 -671 0
-443 -462 0
-443 -481 0
-443 -500 0
-443 -519 0
-443 -538 0
-443 -557 0
-443 -576 0
-443 -595 0
-443 -614 0
-443 -633 0
-443 -652 0
-443 -671 0
-462 -481 0
-462 -500 0
-462 -519 0
-462 -538 0
-462 -557 0
-462 -576 0
-462 -595 0
-462 -614 0
-462 -633 0
-462 -652 0
-462 -671 0
-481 -500 0
-481 -519 0
-481 -538 0
-481 -557 0
-481 -576 0
-481 -595 0
-481 -614 0
-481 -633 0
-481 -652 0
-481 -671 0
-500 -519 0
-500 -538 0
-500 -557 0
-500 -576 0
-500 -595 0
-500 -614 0
-500 -633 0
-500 -652 0
-500 -671 0
-519 -538 0
-519 -557 0
-519 -576 0
-519 -595 0
-519 -614 0
-519 -633 0
-519 -652 0
-519 -671 0
-538 -557 0
-538 -576 0
-538 -595 0
-538 -614 0
-538 -633 0
-538 -652 0
-538 -671 0
-557 -576 0
-557 -595 0
-557 -614 0
-557 -633 0
-557 -652 0
-557 -671 0
-576 -595 0
-576 -614 0
-576 -633 0
-576 -652 0
-576 -671 0
-595 -614 0
-595 -633 0
-595 -652 0
-595 -671 0
-614 -633 0
-614 -652 0
-614 -671 0
-633 -652 0
-633 -671 0
-652 -671 0
-349 -368 0
-349 -387 0
-349 -406 0
-349 -425 0
-349 -444 0
-349 -463 0
-349 -482 0
-349 -501 0
-349 -520 0
-349 -539 0
-349 -558 0
-349 -577 0
-349 -596 0
-349 -615 0
-349 -634 0
-349 -653 0
-349 -672 0
-368 -387 0
-368 -406 0
-368 -425 0
-368 -444 0
-368 -463 0
-368 -482 0
-368 -501 0
-368 -520 0
-368 -539 0
-368 -558 0
-368 -577 0
-368 -596 0
-368 -615 0
-368 -634 0
-368 -653 0
-368 -672 0
-387 -406 0
-387 -425 0
-387 -444 0
-387 -463 0
-387 -482 0
-387 -501 0
-387 -520 0
-387 -539 0
-387 -558 0
-387 -577 0
-387 -596 0
-387 -615 0
-387 -634 0
-387 -653 0
-387 -672 0
-406 -425 0
-406 -444 0
-406 -463 0
-406 -482 0
-406 -501 0
-406 -520 0
-406 -539 0
-406 -558 0
-406 -577 0
-406 -596 0
-406 -615 0
-406 -634 0
-406 -653 0
-406 -672 0
-425 -444 0
-425 -463 0
-425 -482 0
-425 -501 0
-425 -520 0
-425 -539 0
-425 -558 0
-425 -577 0
-425 -596 0
-425 -615 0
-425 -634 0
-425 -653 0
-425 -672 0
-444 -463 0
-444 -482 0
-444 -501 0
-444 -520 0
-444 -539 0
-444 -558 0
-444 -577 0
-444 -596 0
-444 -615 0
-444 -634 0
-444 -653 0
-444 -672 0
-463 -482 0
-463 -501 0
-463 -520 0
-463 -539 0
-463 -558 0
-463 -577 0
-463 -596 0
-463 -615 0
-463 -634 0
-463 -653 0
-463 -672 0
-482 -501 0
-482 -520 0
-482 -539 0
-482 -558 0
-482 -577 0
-482 -596 0
-482 -615 0
-482 -634 0
-482 -653 0
-482 -672 0
-501 -520 0
-501 -539 0
-501 -558 0
-501 -577 0
-501 -596 0
-501 -615 0
-501 -634 0
-501 -653 0
-501 -672 0
-520 -539 0
-520 -558 0
-520 -577 0
-520 -596 0
-520 -615 0
-520 -634 0
-520 -653 0
-520 -672 0
-539 -558 0
-539 -577 0
-539 -596 0
-539 -615 0
-539 -634 0
-539 -653 0
-539 -672 0
-558 -577 0
-558 -596 0
-558 -615 0
-558 -634 0
-558 -653 0
-558 -672 0
-577 -596 0
-577 -615 0
-577 -634 0
-577 -653 0
-577 -672 0
-596 -615 0
-596 -634 0
-596 -653 0
-596 -672 0
-615 -634 0
-615 -653 0
-615 -672 0
-634 -653 0
-634 -672 0
-653 -672 0
-350 -369 0
-350 -388 0
-350 -407 0
-350 -426 0
-350 -445 0
-350 -464 0
-350 -483 0
-350 -502 0
-350 -521 0
-350 -540 0
-350 -559 0
-350 -578 0
-350 -597 0
-350 -616 0
-350 -635 0
-350 -654 0
-350 -673 0
-369 -388 0
-369 -407 0
-369 -426 0
-369 -445 0
-369 -464 0
-369 -483 0
-369 -502 0
-369 -521 0
-369 -540 0
-369 -559 0
-369 -578 0
-369 -597 0
-369 -616 0
-369 -635 0
-369 -654 0
-369 -673 0
-388 -407 0
-388 -426 0
-388 -445 0
-388 -464 0
-388 -483 0
-388 -502 0
-388 -521 0
-388 -540 0
-388 -559 0
-388 -578 0
-388 -597 0
-388 -616 0
-388 -635 0
-388 -654 0
-388 -673 0
-407 -426 0
-407 -445 0
-407 -464 0
-407 -483 0
-407 -502 0
-407 -521 0
-407 -540 0
-407 -559 0
-407 -578 0
-407 -597 0
-407 -616 0
-407 -635 0
-407 -654 0
-407 -673 0
-426 -445 0
-426 -464 0
-426 -483 0
-426 -502 0
-426 -521 0
-426 -540 0
-426 -559 0
-426 -578 0
-426 -597 0
-426 -616 0
-426 -635 0
-426 -654 0
-426 -673 0
-445 -464 0
-445 -483 0
-445 -502 0
-445 -521 0
-445 -540 0
-445 -559 0
-445 -578 0
-445 -597 0
-445 -616 0
-445 -635 0
-445 -654 0
-445 -673 0
-464 -483 0
-464 -502 0
-464 -521 0
-464 -540 0
-464 -559 0
-464 -578 0
-464 -597 0
-464 -616 0
-464 -635 0
-464 -654 0
-464 -673 0
-483 -502 0
-483 -521 0
-483 -540 0
-483 -559 0
-483 -578 0
-483 -597 0
-483 -616 0
-483 -635 0
-483 -654 0
-483 -673 0
-502 -521 0
-502 -540 0
-502 -559 0
-502 -578 0
-502 -597 0
-502 -616 0
-502 -635 0
-502 -654 0
-502 -673 0
-521 -540 0
-521 -559 0
-521 -578 0
-521 -597 0
-521 -616 0
-521 -635 0
-521 -654 0
-521 -673 0
-540 -559 0
-540 -578 0
-540 -597 0
-540 -616 0
-540 -635 0
-540 -654 0
-540 -673 0
-559 -578 0
-559 -597 0
-559 -616 0
-559 -635 0
-559 -654 0
-559 -673 0
-578 -597 0
-578 -616 0
-578 -635 0
-578 -654 0
-578 -673 0
-597 -616 0
-597 -635 0
-597 -654 0
-597 -673 0
-616 -635 0
-616 -654 0
-616 -673 0
-635 -654 0
-635 -673 0
-654 -673 0
-351 -370 0
-351 -389 0
-351 -408 0
-351 -427 0
-351 -446 0
-351 -465 0
-351 -484 0
-351 -503 0
-351 -522 0
-351 -541 0
-351 -560 0
-351 -579 0
-351 -598 0
-351 -617 0
-351 -636 0
-351 -655 0
-351 -674 0
-370 -389 0
-370 -408 0
-370 -427 0
-370 -446 0
-370 -465 0
-370 -484 0
-370 -503 0
-370 -522 0
-370 -541 0
-370 -560 0
-370 -579 0
-370 -598 0
-370 -617 0
-370 -636 0
-370 -655 0
-370 -674 0
-389 -408 0
-389 -427 0
-389 -446 0
-389 -465 0
-389 -484 0
-389 -503 0
-389 -522 0
-389 -541 0
-389 -560 0
-389 -579 0
-389 -598 0
-389 -617 0
-389 -636 0
-389 -655 0
-389 -674 0
-408 -427 0
-408 -446 0
-408 -465 0
-408 -484 0
-408 -503 0
-408 -522 0
-408 -541 0
-408 -560 0
-408 -579 0
-408 -598 0
-408 -617 0
-408 -636 0
-408 -655 0
-408 -674 0
-427 -446 0
-427 -465 0
-427 -484 0
-427 -503 0
-427 -522 0
-427 -541 0
-427 -560 0
-427 -579 0
-427 -598 0
-427 -617 0
-427 -636 0
-427 -655 0
-427 -674 0
-446 -465 0
-446 -484 0
-446 -503 0
-446 -522 0
-446 -541 0
-446 -560 0
-446 -579 0
-446 -598 0
-446 -617 0
-446 -636 0
-446 -655 0
-446 -674 0
-465 -484 0
-465 -503 0
-465 -522 0
-465 -541 0
-465 -560 0
-465 -579 0
-465 -598 0
-465 -617 0
-465 -636 0
-465 -655 0
-465 -674 0
-484 -503 0
-484 -522 0
-484 -541 0
-484 -560 0
-484 -579 0
-484 -598 0
-484 -617 0
-484 -636 0
-484 -655 0
-484 -674 0
-503 -522 0
-503 -541 0
-503 -560 0
-503 -579 0
-503 -598 0
-503 -617 0
-503 -636 0
-503 -655 0
-503 -674 0
-522 -541 0
-522 -560 0
-522 -579 0
-522 -598 0
-522 -617 0
-522 -636 0
-522 -655 0
-522 -674 0
-541 -560 0
-541 -579 0
-541 -598 0
-541 -617 0
-541 -636 0
-541 -655 0
-541 -674 0
-560 -579 0
-560 -598 0
-560 -617 0
-560 -636 0
-560 -655 0
-560 -674 0
-579 -598 0
-579 -617 0
-579 -636 0
-579 -655 0
-579 -674 0
-598 -617 0
-598 -636 0
-598 -655 0
-598 -674 0
-617 -636 0
-617 -655 0
-617 -674 0
-636 -655 0
-636 -674 0
-655 -674 0
-352 -371 0
-352 -390 0
-352 -409 0
-352 -428 0
-352 -447 0
-352 -466 0
-352 -485 0
-352 -504 0
-352 -523 0
-352 -542 0
-352 -561 0
-352 -580 0
-352 -599 0
-352 -618 0
-352 -637 0
-352 -656 0
-352 -675 0
-371 -390 0
-371 -409 0
-371 -428 0
-371 -447 0
-371 -466 0
-371 -485 0
-371 -504 0
-371 -523 0
-371 -542 0
-371 -561 0
-371 -580 0
-371 -599 0
-371 -618 0
-371 -637 0
-371 -656 0
-371 -675 0
-390 -409 0
-390 -428 0
-390 -447 0
-390 -466 0
-390 -485 0
-390 -504 0
-390 -523 0
-390 -542 0
-390 -561 0
-390 -580 0
-390 -599 0
-390 -618 0
-390 -637 0
-390 -656 0
-390 -675 0
-409 -428 0
-409 -447 0
-409 -466 0
-409 -485 0
-409 -504 0
-409 -523 0
-409 -542 0
-409 -561 0
-409 -580 0
-409 -599 0
-409 -618 0
-409 -637 0
-409 -656 0
-409 -675 0
-428 -447 0
-428 -466 0
-428 -485 0
-428 -504 0
-428 -523 0
-428 -542 0
-428 -561 0
-428 -580 0
-428 -599 0
-428 -618 0
-428 -637 0
-428 -656 0
-428 -675 0
-447 -466 0
-447 -485 0
-447 -504 0
-447 -523 0
-447 -542 0
-447 -561 0
-447 -580 0
-447 -599 0
-447 -618 0
-447 -637 0
-447 -656 0
-447 -675 0
-466 -485 0
-466 -504 0
-466 -523 0
-466 -542 0
-466 -561 0
-466 -580 0
-466 -599 0
-466 -618 0
-466 -637 0
-466 -656 0
-466 -675 0
-485 -504 0
-485 -523 0
-485 -542 0
-485 -561 0
-485 -580 0
-485 -599 0
-485 -618 0
-485 -637 0
-485 -656 0
-485 -675 0
-504 -523 0
-504 -542 0
-504 -561 0
-504 -580 0
-504 -599 0
-504 -618 0
-504 -637 0
-504 -656 0
-504 -675 0
-523 -542 0
-523 -561 0
-523 -580 0
-523 -599 0
-523 -618 0
-523 -637 0
-523 -656 0
-523 -675 0
-542 -561 0
-542 -580 0
-542 -599 0
-542 -618 0
-542 -637 0
-542 -656 0
-542 -675 0
-561 -580 0
-561 -599 0
-561 -618 0
-561 -637 0
-561 -656 0
-561 -675 0
-580 -599 0
-580 -618 0
-580 -637 0
-580 -656 0
-580 -675 0
-599 -618 0
-599 -637 0
-599 -656 0
-599 -675 0
-618 -637 0
-618 -656 0
-618 -675 0
-637 -656 0
-637 -675 0
-656 -675 0
-353 -372 0
-353 -391 0
-353 -410 0
-353 -429 0
-353 -448 0
-353 -467 0
-353 -486 0
-353 -505 0
-353 -524 0
-353 -543 0
-353 -562 0
-353 -581 0
-353 -600 0
-353 -619 0
-353 -638 0
-353 -657 0
-353 -676 0
-372 -391 0
-372 -410 0
-372 -429 0
-372 -448 0
-372 -467 0
-372 -486 0
-372 -505 0
-372 -524 0
-372 -543 0
-372 -562 0
-372 -581 0
-372 -600 0
-372 -619 0
-372 -638 0
-372 -657 0
-372 -676 0
-391 -410 0
-391 -429 0
-391 -448 0
-391 -467 0
-391 -486 0
-391 -505 0
-391 -524 0
-391 -543 0
-391 -562 0
-391 -581 0
-391 -600 0
-391 -619 0
-391 -638 0
-391 -657 0
-391 -676 0
-410 -429 0
-410 -448 0
-410 -467 0
-410 -486 0
-410 -505 0
-410 -524 0
-410 -543 0
-410 -562 0
-410 -581 0
-410 -600 0
-410 -619 0
-410 -638 0
-410 -657 0
-410 -676 0
-429 -448 0
-429 -467 0
-429 -486 0
-429 -505 0
-429 -524 0
-429 -543 0
-429 -562 0
-429 -581 0
-429 -600 0
-429 -619 0
-429 -638 0
-429 -657 0
-429 -676 0
-448 -467 0
-448 -486 0
-448 -505 0
-448 -524 0
-448 -543 0
-448 -562 0
-448 -581 0
-448 -600 0
-448 -619 0
-448 -638 0
-448 -657 0
-448 -676 0
-467 -486 0
-467 -505 0
-467 -524 0
-467 -543 0
-467 -562 0
-467 -581 0
-467 -600 0
-467 -619 0
-467 -638 0
-467 -657 0
-467 -676 0
-486 -505 0
-486 -524 0
-486 -543 0
-486 -562 0
-486 -581 0
-486 -600 0
-486 -619 0
-486 -638 0
-486 -657 0
-486 -676 0
-505 -524 0
-505 -543 0
-505 -562 0
-505 -581 0
-505 -600 0
-505 -619 0
-505 -638 0
-505 -657 0
-505 -676 0
-524 -543 0
-524 -562 0
-524 -581 0
-524 -600 0
-524 -619 0
-524 -638 0
-524 -657 0
-524 -676 0
-543 -562 0
-543 -581 0
-543 -600 0
-543 -619 0
-543 -638 0
-543 -657 0
-543 -676 0
-562 -581 0
-562 -600 0
-562 -619 0
-562 -638 0
-562 -657 0
-562 -676 0
-581 -600 0
-581 -619 0
-581 -638 0
-581 -657 0
-581 -676 0
-600 -619 0
-600 -638 0
-600 -657 0
-600 -676 0
-619 -638 0
-619 -657 0
-619 -676 0
-638 -657 0
-638 -676 0
-657 -676 0
-354 -373 0
-354 -392 0
-354 -411 0
-354 -430 0
-354 -449 0
-354 -468 0
-354 -487 0
-354 -506 0
-354 -525 0
-354 -544 0
-354 -563 0
-354 -582 0
-354 -601 0
-354 -620 0
-354 -639 0
-354 -658 0
-354 -677 0
-373 -392 0
-373 -411 0
-373 -430 0
-373 -449 0
-373 -468 0
-373 -487 0
-373 -506 0
-373 -525 0
-373 -544 0
-373 -563 0
-373 -582 0
-373 -601 0
-373 -620 0
-373 -639 0
-373 -658 0
-373 -677 0
-392 -411 0
-392 -430 0
-392 -449 0
-392 -468 0
-392 -487 0
-392 -506 0
-392 -525 0
-392 -544 0
-392 -563 0
-392 -582 0
-392 -601 0
-392 -620 0
-392 -639 0
-392 -658 0
-392 -677 0
-411 -430 0
-411 -449 0
-411 -468 0
-411 -487 0
-411 -506 0
-411 -525 0
-411 -544 0
-411 -563 0
-411 -582 0
-411 -601 0
-411 -620 0
-411 -639 0
-411 -658 0
-411 -677 0
-430 -449 0
-430 -468 0
-430 -487 0
-430 -506 0
-430 -525 0
-430 -544 0
-430 -563 0
-430 -582 0
-430 -601 0
-430 -620 0
-430 -639 0
-430 -658 0
-430 -677 0
-449 -468 0
-449 -487 0
-449 -506 0
-449 -525 0
-449 -544 0
-449 -563 0
-449 -582 0
-449 -601 0
-449 -620 0
-449 -639 0
-449 -658 0
-449 -677 0
-468 -487 0
-468 -506 0
-468 -525 0
-468 -544 0
-468 -563 0
-468 -582 0
-468 -601 0
-468 -620 0
-468 -639 0
-468 -658 0
-468 -677 0
-487 -506 0
-487 -525 0
-487 -544 0
-487 -563 0
-487 -582 0
-487 -601 0
-487 -620 0
-487 -639 0
-487 -658 0
-487 -677 0
-506 -525 0
-506 -544 0
-506 -563 0
-506 -582 0
-506 -601 0
-506 -620 0
-506 -639 0
-506 -658 0
-506 -677 0
-525 -544 0
-525 -563 0
-525 -582 0
-525 -601 0
-525 -620 0
-525 -639 0
-525 -658 0
-525 -677 0
-544 -563 0
-544 -582 0
-544 -601 0
-544 -620 0
-544 -639 0
-544 -658 0
-544 -677 0
-563 -582 0
-563 -601 0
-563 -620 0
-563 -639 0
-563 -658 0
-563 -677 0
-582 -601 0
-582 -620 0
-582 -639 0
-582 -658 0
-582 -677 0
-601 -620 0
-601 -639 0
-601 -658 0
-601 -677 0
-620 -639 0
-620 -658 0
-620 -677 0
-639 -658 0
-639 -677 0
-658 -677 0
-355 -374 0
-355 -393 0
-355 -412 0
-355 -431 0
-355 -450 0
-355 -469 0
-355 -488 0
-355 -507 0
-355 -526 0
-355 -545 0
-355 -564 0
-355 -583 0
-355 -602 0
-355 -621 0
-355 -640 0
-355 -659 0
-355 -678 0
-374 -393 0
-374 -412 0
-374 -431 0
-374 -450 0
-374 -469 0
-374 -488 0
-374 -507 0
-374 -526 0
-374 -545 0
-374 -564 0
-374 -583 0
-374 -602 0
-374 -621 0
-374 -640 0
-374 -659 0
-374 -678 0
-393 -412 0
-393 -431 0
-393 -450 0
-393 -469 0
-393 -488 0
-393 -507 0
-393 -526 0
-393 -545 0
-393 -564 0
-393 -583 0
-393 -602 0
-393 -621 0
-393 -640 0
-393 -659 0
-393 -678 0
-412 -431 0
-412 -450 0
-412 -469 0
-412 -488 0
-412 -507 0
-412 -526 0
-412 -545 0
-412 -564 0
-412 -583 0
-412 -602 0
-412 -621 0
-412 -640 0
-412 -659 0
-412 -678 0
-431 -450 0
-431 -469 0
-431 -488 0
-431 -507 0
-431 -526 0
-431 -545 0
-431 -564 0
-431 -583 0
-431 -602 0
-431 -621 0
-431 -640 0
-431 -659 0
-431 -678 0
-450 -469 0
-450 -488 0
-450 -507 0
-450 -526 0
-450 -545 0
-450 -564 0
-450 -583 0
-450 -602 0
-450 -621 0
-450 -640 0
-450 -659 0
-450 -678 0
-469 -488 0
-469 -507 0
-469 -526 0
-469 -545 0
-469 -564 0
-469 -583 0
-469 -602 0
-469 -621 0
-469 -640 0
-469 -659 0
-469 -678 0
-488 -507 0
-488 -526 0
-488 -545 0
-488 -564 0
-488 -583 0
-488 -602 0
-488 -621 0
-488 -640 0
-488 -659 0
-488 -678 0
-507 -526 0
-507 -545 0
-507 -564 0
-507 -583 0
-507 -602 0
-507 -621 0
-507 -640 0
-507 -659 0
-507 -678 0
-526 -545 0
-526 -564 0
-526 -583 0
-526 -602 0
-526 -621 0
-526 -640 0
-526 -659 0
-526 -678 0
-545 -564 0
-545 -583 0
-545 -602 0
-545 -621 0
-545 -640 0
-545 -659 0
-545 -678 0
-564 -583 0
-564 -602 0
-564 -621 0
-564 -640 0
-564 -659 0
-564 -678 0
-583 -602 0
-583 -621 0
-583 -640 0
-583 -659 0
-583 -678 0
-602 -621 0
-602 -640 0
-602 -659 0
-602 -678 0
-621 -640 0
-621 -659 0
-621 -678 0
-640 -659 0
-640 -678 0
-659 -678 0
-356 -375 0
-356 -394 0
-356 -413 0
-356 -432 0
-356 -451 0
-356 -470 0
-356 -489 0
-356 -508 0
-356 -527 0
-356 -546 0
-356 -565 0
-356 -584 0
-356 -603 0
-356 -622 0
-356 -641 0
-356 -660 0
-356 -679 0
-375 -394 0
-375 -413 0
-375 -432 0
-375 -451 0
-375 -470 0
-375 -489 0
-375 -508 0
-375 -527 0
-375 -546 0
-375 -565 0
-375 -584 0
-375 -603 0
-375 -622 0
-375 -641 0
-375 -660 0
-375 -679 0
-394 -413 0
-394 -432 0
-394 -451 0
-394 -470 0
-394 -489 0
-394 -508 0
-394 -527 0
-394 -546 0
-394 -565 0
-394 -584 0
-394 -603 0
-394 -622 0
-394 -641 0
-394 -660 0
-394 -679 0
-413 -432 0
-413 -451 0
-413 -470 0
-413 -489 0
-413 -508 0
-413 -527 0
-413 -546 0
-413 -565 0
-413 -584 0
-413 -603 0
-413 -622 0
-413 -641 0
-413 -660 0
-413 -679 0
-432 -451 0
-432 -470 0
-432 -489 0
-432 -508 0
-432 -527 0
-432 -546 0
-432 -565 0
-432 -584 0
-432 -603 0
-432 -622 0
-432 -641 0
-432 -660 0
-432 -679 0
-451 -470 0
-451 -489 0
-451 -508 0
-451 -527 0
-451 -546 0
-451 -565 0
-451 -584 0
-451 -603 0
-451 -622 0
-451 -641 0
-451 -660 0
-451 -679 0
-470 -489 0
-470 -508 0
-470 -527 0
-470 -546 0
-470 -565 0
-470 -584 0
-470 -603 0
-470 -622 0
-470 -641 0
-470 -660 0
-470 -679 0
-489 -508 0
-489 -527 0
-489 -546 0
-489 -565 0
-489 -584 0
-489 -603 0
-489 -622 0
-489 -641 0
-489 -660 0
-489 -679 0
-508 -527 0
-508 -546 0
-508 -565 0
-508 -584 0
-508 -603 0
-508 -622 0
-508 -641 0
-508 -660 0
-508 -679 0
-527 -546 0
-527 -565 0
-527 -584 0
-527 -603 0
-527 -622 0
-527 -641 0
-527 -660 0
-527 -679 0
-546 -565 0
-546 -584 0
-546 -603 0
-546 -622 0
-546 -641 0
-546 -660 0
-546 -679 0
-565 -584 0
-565 -603 0
-565 -622 0
-565 -641 0
-565 -660 0
-565 -679 0
-584 -603 0
-584 -622 0
-584 -641 0
-584 -660 0
-584 -679 0
-603 -622 0
-603 -641 0
-603 -660 0
-603 -679 0
-622 -641 0
-622 -660 0
-622 -679 0
-641 -660 0
-641 -679 0
-660 -679 0
-357 -376 0
-357 -395 0
-357 -414 0
-357 -433 0
-357 -452 0
-357 -471 0
-357 -490 0
-357 -509 0
-357 -528 0
-357 -547 0
-357 -566 0
-357 -585 0
-357 -604 0
-357 -623 0
-357 -642 0
-357 -661 0
-357 -680 0
-376 -395 0
-376 -414 0
-376 -433 0
-376 -452 0
-376 -471 0
-376 -490 0
-376 -509 0
-376 -528 0
-376 -547 0
-376 -566 0
-376 -585 0
-376 -604 0
-376 -623 0
-376 -642 0
-376 -661 0
-376 -680 0
-395 -414 0
-395 -433 0
-395 -452 0
-395 -471 0
-395 -490 0
-395 -509 0
-395 -528 0
-395 -547 0
-395 -566 0
-395 -585 0
-395 -604 0
-395 -623 0
-395 -642 0
-395 -661 0
-395 -680 0
-414 -433 0
-414 -452 0
-414 -471 0
-414 -490 0
-414 -509 0
-414 -528 0
-414 -547 0
-414 -566 0
-414 -585 0
-414 -604 0
-414 -623 0
-414 -642 0
-414 -661 0
-414 -680 0
-433 -452 0
-433 -471 0
-433 -490 0
-433 -509 0
-433 -528 0
-433 -547 0
-433 -566 0
-433 -585 0
-433 -604 0
-433 -623 0
-433 -642 0
-433 -661 0
-433 -680 0
-452 -471 0
-452 -490 0
-452 -509 0
-452 -528 0
-452 -547 0
-452 -566 0
-452 -585 0
-452 -604 0
-452 -623 0
-452 -642 0
-452 -661 0
-452 -680 0
-471 -490 0
-471 -509 0
-471 -528 0
-471 -547 0
-471 -566 0
-471 -585 0
-471 -604 0
-471 -623 0
-471 -642 0
-471 -661 0
-471 -680 0
-490 -509 0
-490 -528 0
-490 -547 0
-490 -566 0
-490 -585 0
-490 -604 0
-490 -623 0
-490 -642 0
-490 -661 0
-490 -680 0
-509 -528 0
-509 -547 0
-509 -566 0
-509 -585 0
-509 -604 0
-509 -623 0
-509 -642 0
-509 -661 0
-509 -680 0
-528 -547 0
-528 -566 0
-528 -585 0
-528 -604 0
-528 -623 0
-528 -642 0
-528 -661 0
-528 -680 0
-547 -566 0
-547 -585 0
-547 -604 0
-547 -623 0
-547 -642 0
-547 -661 0
-547 -680 0
-566 -585 0
-566 -604 0
-566 -623 0
-566 -642 0
-566 -661 0
-566 -680 0
-585 -604 0
-585 -623 0
-585 -642 0
-585 -661 0
-585 -680 0
-604 -623 0
-604 -642 0
-604 -661 0
-604 -680 0
-623 -642 0
-623 -661 0
-623 -680 0
-642 -661 0
-642 -680 0
-661 -680 0
-358 -377 0
-358 -396 0
-358 -415 0
-358 -434 0
-358 -453 0
-358 -472 0
-358 -491 0
-358 -510 0
-358 -529 0
-358 -548 0
-358 -567 0
-358 -586 0
-358 -605 0
-358 -624 0
-358 -643 0
-358 -662 0
-358 -681 0
-377 -396 0
-377 -415 0
-377 -434 0
-377 -453 0
-377 -472 0
-377 -491 0
-377 -510 0
-377 -529 0
-377 -548 0
-377 -567 0
-377 -586 0
-377 -605 0
-377 -624 0
-377 -643 0
-377 -662 0
-377 -681 0
-396 -415 0
-396 -434 0
-396 -453 0
-396 -472 0
-396 -491 0
-396 -510 0
-396 -529 0
-396 -548 0
-396 -567 0
-396 -586 0
-396 -605 0
-396 -624 0
-396 -643 0
-396 -662 0
-396 -681 0
-415 -434 0
-415 -453 0
-415 -472 0
-415 -491 0
-415 -510 0
-415 -529 0
-415 -548 0
-415 -567 0
-415 -586 0
-415 -605 0
-415 -624 0
-415 -643 0
-415 -662 0
-415 -681 0
-434 -453 0
-434 -472 0
-434 -491 0
-434 -510 0
-434 -529 0
-434 -548 0
-434 -567 0
-434 -586 0
-434 -605 0
-434 -624 0
-434 -643 0
-434 -662 0
-434 -681 0
-453 -472 0
-453 -491 0
-453 -510 0
-453 -529 0
-453 -548 0
-453 -567 0
-453 -586 0
-453 -605 0
-453 -624 0
-453 -643 0
-453 -662 0
-453 -681 0
-472 -491 0
-472 -510 0
-472 -529 0
-472 -548 0
-472 -567 0
-472 -586 0
-472 -605 0
-472 -624 0
-472 -643 0
-472 -662 0
-472 -681 0
-491 -510 0
-491 -529 0
-491 -548 0
-491 -567 0
-491 -586 0
-491 -605 0
-491 -624 0
-491 -643 0
-491 -662 0
-491 -681 0
-510 -529 0
-510 -548 0
-510 -567 0
-510 -586 0
-510 -605 0
-510 -624 0
-510 -643 0
-510 -662 0
-510 -681 0
-529 -548 0
-529 -567 0
-529 -586 0
-529 -605 0
-529 -624 0
-529 -643 0
-529 -662 0
-529 -681 0
-548 -567 0
-548 -586 0
-548 -605 0
-548 -624 0
-548 -643 0
-548 -662 0
-548 -681 0
-567 -586 0
-567 -605 0
-567 -624 0
-567 -643 0
-567 -662 0
-567 -681 0
-586 -605 0
-586 -624 0
-586 -643 0
-586 -662 0
-586 -681 0
-605 -624 0
-605 -643 0
-605 -662 0
-605 -681 0
-624 -643 0
-624 -662 0
-624 -681 0
-643 -662 0
-643 -681 0
-662 -681 0
-359 -378 0
-359 -397 0
-359 -416 0
-359 -435 0
-359 -454 0
-359 -473 0
-359 -492 0
-359 -511 0
-359 -530 0
-359 -549 0
-359 -568 0
-359 -587 0
-359 -606 0
-359 -625 0
-359 -644 0
-359 -663 0
-359 -682 0
-378 -397 0
-378 -416 0
-378 -435 0
-378 -454 0
-378 -473 0
-378 -492 0
-378 -511 0
-378 -530 0
-378 -549 0
-378 -568 0
-378 -587 0
-378 -606 0
-378 -625 0
-378 -644 0
-378 -663 0
-378 -682 0
-397 -416 0
-397 -435 0
-397 -454 0
-397 -473 0
-397 -492 0
-397 -511 0
-397 -530 0
-397 -549 0
-397 -568 0
-397 -587 0
-397 -606 0
-397 -625 0
-397 -644 0
-397 -663 0
-397 -682 0
-416 -435 0
-416 -454 0
-416 -473 0
-416 -492 0
-416 -511 0
-416 -530 0
-416 -549 0
-416 -568 0
-416 -587 0
-416 -606 0
-416 -625 0
-416 -644 0
-416 -663 0
-416 -682 0
-435 -454 0
-435 -473 0
-435 -492 0
-435 -511 0
-435 -530 0
-435 -549 0
-435 -568 0
-435 -587 0
-435 -606 0
-435 -625 0
-435 -644 0
-435 -663 0
-435 -682 0
-454 -473 0
-454 -492 0
-454 -511 0
-454 -530 0
-454 -549 0
-454 -568 0
-454 -587 0
-454 -606 0
-454 -625 0
-454 -644 0
-454 -663 0
-454 -682 0
-473 -492 0
-473 -511 0
-473 -530 0
-473 -549 0
-473 -568 0
-473 -587 0
-473 -606 0
-473 -625 0
-473 -644 0
-473 -663 0
-473 -682 0
-492 -511 0
-492 -530 0
-492 -549 0
-492 -568 0
-492 -587 0
-492 -606 0
-492 -625 0
-492 -644 0
-492 -663 0
-492 -682 0
-511 -530 0
-511 -549 0
-511 -568 0
-511 -587 0
-511 -606 0
-511 -625 0
-511 -644 0
-511 -663 0
-511 -682 0
-530 -549 0
-530 -568 0
-530 -587 0
-530 -606 0
-530 -625 0
-530 -644 0
-530 -663 0
-530 -682 0
-549 -568 0
-549 -587 0
-549 -606 0
-549 -625 0
-549 -644 0
-549 -663 0
-549 -682 0
-568 -587 0
-568 -606 0
-568 -625 0
-568 -644 0
-568 -663 0
-568 -682 0
-587 -606 0
-587 -625 0
-587 -644 0
-587 -663 0
-587 -682 0
-606 -625 0
-606 -644 0
-606 -663 0
-606 -682 0
-625 -644 0
-625 -663 0
-625 -682 0
-644 -663 0
-644 -682 0
-663 -682 0
-360 -379 0
-360 -398 0
-360 -417 0
-360 -436 0
-360 -455 0
-360 -474 0
-360 -493 0
-360 -512 0
-360 -531 0
-360 -550 0
-360 -569 0
-360 -588 0
-360 -607 0
-360 -626 0
-360 -645 0
-360 -664 0
-360 -683 0
-379 -398 0
-379 -417 0
-379 -436 0
-379 -455 0
-379 -474 0
-379 -493 0
-379 -512 0
-379 -531 0
-379 -550 0
-379 -569 0
-379 -588 0
-379 -607 0
-379 -626 0
-379 -645 0
-379 -664 0
-379 -683 0
-398 -417 0
-398 -436 0
-398 -455 0
-398 -474 0
-398 -493 0
-398 -512 0
-398 -531 0
-398 -550 0
-398 -569 0
-398 -588 0
-398 -607 0
-398 -626 0
-398 -645 0
-398 -664 0
-398 -683 0
-417 -436 0
-417 -455 0
-417 -474 0
-417 -493 0
-417 -512 0
-417 -531 0
-417 -550 0
-417 -569 0
-417 -588 0
-417 -607 0
-417 -626 0
-417 -645 0
-417 -664 0
-417 -683 0
-436 -455 0
-436 -474 0
-436 -493 0
-436 -512 0
-436 -531 0
-436 -550 0
-436 -569 0
-436 -588 0
-436 -607 0
-436 -626 0
-436 -645 0
-436 -664 0
-436 -683 0
-455 -474 0
-455 -493 0
-455 -512 0
-455 -531 0
-455 -550 0
-455 -569 0
-455 -588 0
-455 -607 0
-455 -626 0
-455 -645 0
-455 -664 0
-455 -683 0
-474 -493 0
-474 -512 0
-474 -531 0
-474 -550 0
-474 -569 0
-474 -588 0
-474 -607 0
-474 -626 0
-474 -645 0
-474 -664 0
-474 -683 0
-493 -512 0
-493 -531 0
-493 -550 0
-493 -569 0
-493 -588 0
-493 -607 0
-493 -626 0
-493 -645 0
-493 -664 0
-493 -683 0
-512 -531 0
-512 -550 0
-512 -569 0
-512 -588 0
-512 -607 0
-512 -626 0
-512 -645 0
-512 -664 0
-512 -683 0
-531 -550 0
-531 -569 0
-531 -588 0
-531 -607 0
-531 -626 0
-531 -645 0
-531 -664 0
-531 -683 0
-550 -569 0
-550 -588 0
-550 -607 0
-550 -626 0
-550 -645 0
-550 -664 0
-550 -683 0
-569 -588 0
-569 -607 0
-569 -626 0
-569 -645 0
-569 -664 0
-569 -683 0
-588 -607 0
-588 -626 0
-588 -645 0
-588 -664 0
-588 -683 0
-607 -626 0
-607 -645 0
-607 -664 0
-607 -683 0
-626 -645 0
-626 -664 0
-626 -683 0
-645 -664 0
-645 -683 0
-664 -683 0
-361 -380 0
-361 -399 0
-361 -418 0
-361 -437 0
-361 -456 0
-361 -475 0
-361 -494 0
-361 -513 0
-361 -532 0
-361 -551 0
-361 -570 0
-361 -589 0
-361 -608 0
-361 -627 0
-361 -646 0
-361 -665 0
-361 -684 0
-380 -399 0
-380 -418 0
-380 -437 0
-380 -456 0
-380 -475 0
-380 -494 0
-380 -513 0
-380 -532 0
-380 -551 0
-380 -570 0
-380 -589 0
-380 -608 0
-380 -627 0
-380 -646 0
-380 -665 0
-380 -684 0
-399 -418 0
-399 -437 0
-399 -456 0
-399 -475 0
-399 -494 0
-399 -513 0
-399 -532 0
-399 -551 0
-399 -570 0
-399 -589 0
-399 -608 0
-399 -627 0
-399 -646 0
-399 -665 0
-399 -684 0
-418 -437 0
-418 -456 0
-418 -475 0
-418 -494 0
-418 -513 0
-418 -532 0
-418 -551 0
-418 -570 0
-418 -589 0
-418 -608 0
-418 -627 0
-418 -646 0
-418 -665 0
-418 -684 0
-437 -456 0
-437 -475 0
-437 -494 0
-437 -513 0
-437 -532 0
-437 -551 0
-437 -570 0
-437 -589 0
-437 -608 0
-437 -627 0
-437 -646 0
-437 -665 0
-437 -684 0
-456 -475 0
-456 -494 0
-456 -513 0
-456 -532 0
-456 -551 0
-456 -570 0
-456 -589 0
-456 -608 0
-456 -627 0
-456 -646 0
-456 -665 0
-456 -684 0
-475 -494 0
-475 -513 0
-475 -532 0
-475 -551 0
-475 -570 0
-475 -589 0
-475 -608 0
-475 -627 0
-475 -646 0
-475 -665 0
-475 -684 0
-494 -513 0
-494 -532 0
-494 -551 0
-494 -570 0
-494 -589 0
-494 -608 0
-494 -627 0
-494 -646 0
-494 -665 0
-494 -684 0
-513 -532 0
-513 -551 0
-513 -570 0
-513 -589 0
-513 -608 0
-513 -627 0
-513 -646 0
-513 -665 0
-513 -684 0
-532 -551 0
-532 -570 0
-532 -589 0
-532 -608 0
-532 -627 0
-532 -646 0
-532 -665 0
-532 -684 0
-551 -570 0
-551 -589 0
-551 -608 0
-551 -627 0
-551 -646 0
-551 -665 0
-551 -684 0
-570 -589 0
-570 -608 0
-570 -627 0
-570 -646 0
-570 -665 0
-570 -684 0
-589 -608 0
-589 -627 0
-589 -646 0
-589 -665 0
-589 -684 0
-608 -627 0
-608 -646 0
-608 -665 0
-608 -684 0
-627 -646 0
-627 -665 0
-627 -684 0
-646 -665 0
-646 -684 0
-665 -684 0
