c Phase 3 generated performance instance
c family=capacity2_violation
c scale=7
c variant=default
c noise_percent=0
c expected=UNSATISFIABLE
p cnf 105 3515
-1 -2 0
-1 -3 0
-1 -4 0
-1 -5 0
-1 -6 0
-1 -7 0
-2 -3 0
-2 -4 0
-2 -5 0
-2 -6 0
-2 -7 0
-3 -4 0
-3 -5 0
-3 -6 0
-3 -7 0
-4 -5 0
-4 -6 0
-4 -7 0
-5 -6 0
-5 -7 0
-6 -7 0
1 2 3 4 5 6 7 0
-8 -9 0
-8 -10 0
-8 -11 0
-8 -12 0
-8 -13 0
-8 -14 0
-9 -10 0
-9 -11 0
-9 -12 0
-9 -13 0
-9 -14 0
-10 -11 0
-10 -12 0
-10 -13 0
-10 -14 0
-11 -12 0
-11 -13 0
-11 -14 0
-12 -13 0
-12 -14 0
-13 -14 0
8 9 10 11 12 13 14 0
-15 -16 0
-15 -17 0
-15 -18 0
-15 -19 0
-15 -20 0
-15 -21 0
-16 -17 0
-16 -18 0
-16 -19 0
-16 -20 0
-16 -21 0
-17 -18 0
-17 -19 0
-17 -20 0
-17 -21 0
-18 -19 0
-18 -20 0
-18 -21 0
-19 -20 0
-19 -21 0
-20 -21 0
15 16 17 18 19 20 21 0
-22 -23 0
-22 -24 0
-22 -25 0
-22 -26 0
-22 -27 0
-22 -28 0
-23 -24 0
-23 -25 0
-23 -26 0
-23 -27 0
-23 -28 0
-24 -25 0
-24 -26 0
-24 -27 0
-24 -28 0
-25 -26 0
-25 -27 0
-25 -28 0
-26 -27 0
-26 -28 0
-27 -28 0
22 23 24 25 26 27 28 0
-29 -30 0
-29 -31 0
-29 -32 0
-29 -33 0
-29 -34 0
-29 -35 0
-30 -31 0
-30 -32 0
-30 -33 0
-30 -34 0
-30 -35 0
-31 -32 0
-31 -33 0
-31 -34 0
-31 -35 0
-32 -33 0
-32 -34 0
-32 -35 0
-33 -34 0
-33 -35 0
-34 -35 0
29 30 31 32 33 34 35 0
-36 -37 0
-36 -38 0
-36 -39 0
-36 -40 0
-36 -41 0
-36 -42 0
-37 -38 0
-37 -39 0
-37 -40 0
-37 -41 0
-37 -42 0
-38 -39 0
-38 -40 0
-38 -41 0
-38 -42 0
-39 -40 0
-39 -41 0
-39 -42 0
-40 -41 0
-40 -42 0
-41 -42 0
36 37 38 39 40 41 42 0
-43 -44 0
-43 -45 0
-43 -46 0
-43 -47 0
-43 -48 0
-43 -49 0
-44 -45 0
-44 -46 0
-44 -47 0
-44 -48 0
-44 -49 0
-45 -46 0
-45 -47 0
-45 -48 0
-45 -49 0
-46 -47 0
-46 -48 0
-46 -49 0
-47 -48 0
-47 -49 0
-48 -49 0
43 44 45 46 47 48 49 0
-50 -51 0
-50 -52 0
-50 -53 0
-50 -54 0
-50 -55 0
-50 -56 0
-51 -52 0
-51 -53 0
-51 -54 0
-51 -55 0
-51 -56 0
-52 -53 0
-52 -54 0
-52 -55 0
-52 -56 0
-53 -54 0
-53 -55 0
-53 -56 0
-54 -55 0
-54 -56 0
-55 -56 0
50 51 52 53 54 55 56 0
-57 -58 0
-57 -59 0
-57 -60 0
-57 -61 0
-57 -62 0
-57 -63 0
-58 -59 0
-58 -60 0
-58 -61 0
-58 -62 0
-58 -63 0
-59 -60 0
-59 -61 0
-59 -62 0
-59 -63 0
-60 -61 0
-60 -62 0
-60 -63 0
-61 -62 0
-61 -63 0
-62 -63 0
57 58 59 60 61 62 63 0
-64 -65 0
-64 -66 0
-64 -67 0
-64 -68 0
-64 -69 0
-64 -70 0
-65 -66 0
-65 -67 0
-65 -68 0
-65 -69 0
-65 -70 0
-66 -67 0
-66 -68 0
-66 -69 0
-66 -70 0
-67 -68 0
-67 -69 0
-67 -70 0
-68 -69 0
-68 -70 0
-69 -70 0
64 65 66 67 68 69 70 0
-71 -72 0
-71 -73 0
-71 -74 0
-71 -75 0
-71 -76 0
-71 -77 0
-72 -73 0
-72 -74 0
-72 -75 0
-72 -76 0
-72 -77 0
-73 -74 0
-73 -75 0
-73 -76 0
-73 -77 0
-74 -75 0
-74 -76 0
-74 -77 0
-75 -76 0
-75 -77 0
-76 -77 0
71 72 73 74 75 76 77 0
-78 -79 0
-78 -80 0
-78 -81 0
-78 -82 0
-78 -83 0
-78 -84 0
-79 -80 0
-79 -81 0
-79 -82 0
-79 -83 0
-79 -84 0
-80 -81 0
-80 -82 0
-80 -83 0
-80 -84 0
-81 -82 0
-81 -83 0
-81 -84 0
-82 -83 0
-82 -84 0
-83 -84 0
78 79 80 81 82 83 84 0
-85 -86 0
-85 -87 0
-85 -88 0
-85 -89 0
-85 -90 0
-85 -91 0
-86 -87 0
-86 -88 0
-86 -89 0
-86 -90 0
-86 -91 0
-87 -88 0
-87 -89 0
-87 -90 0
-87 -91 0
-88 -89 0
-88 -90 0
-88 -91 0
-89 -90 0
-89 -91 0
-90 -91 0
85 86 87 88 89 90 91 0
-92 -93 0
-92 -94 0
-92 -95 0
-92 -96 0
-92 -97 0
-92 -98 0
-93 -94 0
-93 -95 0
-93 -96 0
-93 -97 0
-93 -98 0
-94 -95 0
-94 -96 0
-94 -97 0
-94 -98 0
-95 -96 0
-95 -97 0
-95 -98 0
-96 -97 0
-96 -98 0
-97 -98 0
92 93 94 95 96 97 98 0
-99 -100 0
-99 -101 0
-99 -102 0
-99 -103 0
-99 -104 0
-99 -105 0
-100 -101 0
-100 -102 0
-100 -103 0
-100 -104 0
-100 -105 0
-101 -102 0
-101 -103 0
-101 -104 0
-101 -105 0
-102 -103 0
-102 -104 0
-102 -105 0
-103 -104 0
-103 -105 0
-104 -105 0
99 100 101 102 103 104 105 0
-1 -8 -15 0
-1 -8 -22 0
-1 -8 -29 0
-1 -8 -36 0
-1 -8 -43 0
-1 -8 -50 0
-1 -8 -57 0
-1 -8 -64 0
-1 -8 -71 0
-1 -8 -78 0
-1 -8 -85 0
-1 -8 -92 0
-1 -8 -99 0
-1 -15 -22 0
-1 -15 -29 0
-1 -15 -36 0
-1 -15 -43 0
-1 -15 -50 0
-1 -15 -57 0
-1 -15 -64 0
-1 -15 -71 0
-1 -15 -78 0
-1 -15 -85 0
-1 -15 -92 0
-1 -15 -99 0
-1 -22 -29 0
-1 -22 -36 0
-1 -22 -43 0
-1 -22 -50 0
-1 -22 -57 0
-1 -22 -64 0
-1 -22 -71 0
-1 -22 -78 0
-1 -22 -85 0
-1 -22 -92 0
-1 -22 -99 0
-1 -29 -36 0
-1 -29 -43 0
-1 -29 -50 0
-1 -29 -57 0
-1 -29 -64 0
-1 -29 -71 0
-1 -29 -78 0
-1 -29 -85 0
-1 -29 -92 0
-1 -29 -99 0
-1 -36 -43 0
-1 -36 -50 0
-1 -36 -57 0
-1 -36 -64 0
-1 -36 -71 0
-1 -36 -78 0
-1 -36 -85 0
-1 -36 -92 0
-1 -36 -99 0
-1 -43 -50 0
-1 -43 -57 0
-1 -43 -64 0
-1 -43 -71 0
-1 -43 -78 0
-1 -43 -85 0
-1 -43 -92 0
-1 -43 -99 0
-1 -50 -57 0
-1 -50 -64 0
-1 -50 -71 0
-1 -50 -78 0
-1 -50 -85 0
-1 -50 -92 0
-1 -50 -99 0
-1 -57 -64 0
-1 -57 -71 0
-1 -57 -78 0
-1 -57 -85 0
-1 -57 -92 0
-1 -57 -99 0
-1 -64 -71 0
-1 -64 -78 0
-1 -64 -85 0
-1 -64 -92 0
-1 -64 -99 0
-1 -71 -78 0
-1 -71 -85 0
-1 -71 -92 0
-1 -71 -99 0
-1 -78 -85 0
-1 -78 -92 0
-1 -78 -99 0
-1 -85 -92 0
-1 -85 -99 0
-1 -92 -99 0
-8 -15 -22 0
-8 -15 -29 0
-8 -15 -36 0
-8 -15 -43 0
-8 -15 -50 0
-8 -15 -57 0
-8 -15 -64 0
-8 -15 -71 0
-8 -15 -78 0
-8 -15 -85 0
-8 -15 -92 0
-8 -15 -99 0
-8 -22 -29 0
-8 -22 -36 0
-8 -22 -43 0
-8 -22 -50 0
-8 -22 -57 0
-8 -22 -64 0
-8 -22 -71 0
-8 -22 -78 0
-8 -22 -85 0
-8 -22 -92 0
-8 -22 -99 0
-8 -29 -36 0
-8 -29 -43 0
-8 -29 -50 0
-8 -29 -57 0
-8 -29 -64 0
-8 -29 -71 0
-8 -29 -78 0
-8 -29 -85 0
-8 -29 -92 0
-8 -29 -99 0
-8 -36 -43 0
-8 -36 -50 0
-8 -36 -57 0
-8 -36 -64 0
-8 -36 -71 0
-8 -36 -78 0
-8 -36 -85 0
-8 -36 -92 0
-8 -36 -99 0
-8 -43 -50 0
-8 -43 -57 0
-8 -43 -64 0
-8 -43 -71 0
-8 -43 -78 0
-8 -43 -85 0
-8 -43 -92 0
-8 -43 -99 0
-8 -50 -57 0
-8 -50 -64 0
-8 -50 -71 0
-8 -50 -78 0
-8 -50 -85 0
-8 -50 -92 0
-8 -50 -99 0
-8 -57 -64 0
-8 -57 -71 0
-8 -57 -78 0
-8 -57 -85 0
-8 -57 -92 0
-8 -57 -99 0
-8 -64 -71 0
-8 -64 -78 0
-8 -64 -85 0
-8 -64 -92 0
-8 -64 -99 0
-8 -71 -78 0
-8 -71 -85 0
-8 -71 -92 0
-8 -71 -99 0
-8 -78 -85 0
-8 -78 -92 0
-8 -78 -99 0
-8 -85 -92 0
-8 -85 -99 0
-8 -92 -99 0
-15 -22 -29 0
-15 -22 -36 0
-15 -22 -43 0
-15 -22 -50 0
-15 -22 -57 0
-15 -22 -64 0
-15 -22 -71 0
-15 -22 -78 0
-15 -22 -85 0
-15 -22 -92 0
-15 -22 -99 0
-15 -29 -36 0
-15 -29 -43 0
-15 -29 -50 0
-15 -29 -57 0
-15 -29 -64 0
-15 -29 -71 0
-15 -29 -78 0
-15 -29 -85 0
-15 -29 -92 0
-15 -29 -99 0
-15 -36 -43 0
-15 -36 -50 0
-15 -36 -57 0
-15 -36 -64 0
-15 -36 -71 0
-15 -36 -78 0
-15 -36 -85 0
-15 -36 -92 0
-15 -36 -99 0
-15 -43 -50 0
-15 -43 -57 0
-15 -43 -64 0
-15 -43 -71 0
-15 -43 -78 0
-15 -43 -85 0
-15 -43 -92 0
-15 -43 -99 0
-15 -50 -57 0
-15 -50 -64 0
-15 -50 -71 0
-15 -50 -78 0
-15 -50 -85 0
-15 -50 -92 0
-15 -50 -99 0
-15 -57 -64 0
-15 -57 -71 0
-15 -57 -78 0
-15 -57 -85 0
-15 -57 -92 0
-15 -57 -99 0
-15 -64 -71 0
-15 -64 -78 0
-15 -64 -85 0
-15 -64 -92 0
-15 -64 -99 0
-15 -71 -78 0
-15 -71 -85 0
-15 -71 -92 0
-15 -71 -99 0
-15 -78 -85 0
-15 -78 -92 0
-15 -78 -99 0
-15 -85 -92 0
-15 -85 -99 0
-15 -92 -99 0
-22 -29 -36 0
-22 -29 -43 0
-22 -29 -50 0
-22 -29 -57 0
-22 -29 -64 0
-22 -29 -71 0
-22 -29 -78 0
-22 -29 -85 0
-22 -29 -92 0
-22 -29 -99 0
-22 -36 -43 0
-22 -36 -50 0
-22 -36 -57 0
-22 -36 -64 0
-22 -36 -71 0
-22 -36 -78 0
-22 -36 -85 0
-22 -36 -92 0
-22 -36 -99 0
-22 -43 -50 0
-22 -43 -57 0
-22 -43 -64 0
-22 -43 -71 0
-22 -43 -78 0
-22 -43 -85 0
-22 -43 -92 0
-22 -43 -99 0
-22 -50 -57 0
-22 -50 -64 0
-22 -50 -71 0
-22 -50 -78 0
-22 -50 -85 0
-22 -50 -92 0
-22 -50 -99 0
-22 -57 -64 0
-22 -57 -71 0
-22 -57 -78 0
-22 -57 -85 0
-22 -57 -92 0
-22 -57 -99 0
-22 -64 -71 0
-22 -64 -78 0
-22 -64 -85 0
-22 -64 -92 0
-22 -64 -99 0
-22 -71 -78 0
-22 -71 -85 0
-22 -71 -92 0
-22 -71 -99 0
-22 -78 -85 0
-22 -78 -92 0
-22 -78 -99 0
-22 -85 -92 0
-22 -85 -99 0
-22 -92 -99 0
-29 -36 -43 0
-29 -36 -50 0
-29 -36 -57 0
-29 -36 -64 0
-29 -36 -71 0
-29 -36 -78 0
-29 -36 -85 0
-29 -36 -92 0
-29 -36 -99 0
-29 -43 -50 0
-29 -43 -57 0
-29 -43 -64 0
-29 -43 -71 0
-29 -43 -78 0
-29 -43 -85 0
-29 -43 -92 0
-29 -43 -99 0
-29 -50 -57 0
-29 -50 -64 0
-29 -50 -71 0
-29 -50 -78 0
-29 -50 -85 0
-29 -50 -92 0
-29 -50 -99 0
-29 -57 -64 0
-29 -57 -71 0
-29 -57 -78 0
-29 -57 -85 0
-29 -57 -92 0
-29 -57 -99 0
-29 -64 -71 0
-29 -64 -78 0
-29 -64 -85 0
-29 -64 -92 0
-29 -64 -99 0
-29 -71 -78 0
-29 -71 -85 0
-29 -71 -92 0
-29 -71 -99 0
-29 -78 -85 0
-29 -78 -92 0
-29 -78 -99 0
-29 -85 -92 0
-29 -85 -99 0
-29 -92 -99 0
-36 -43 -50 0
-36 -43 -57 0
-36 -43 -64 0
-36 -43 -71 0
-36 -43 -78 0
-36 -43 -85 0
-36 -43 -92 0
-36 -43 -99 0
-36 -50 -57 0
-36 -50 -64 0
-36 -50 -71 0
-36 -50 -78 0
-36 -50 -85 0
-36 -50 -92 0
-36 -50 -99 0
-36 -57 -64 0
-36 -57 -71 0
-36 -57 -78 0
-36 -57 -85 0
-36 -57 -92 0
-36 -57 -99 0
-36 -64 -71 0
-36 -64 -78 0
-36 -64 -85 0
-36 -64 -92 0
-36 -64 -99 0
-36 -71 -78 0
-36 -71 -85 0
-36 -71 -92 0
-36 -71 -99 0
-36 -78 -85 0
-36 -78 -92 0
-36 -78 -99 0
-36 -85 -92 0
-36 -85 -99 0
-36 -92 -99 0
-43 -50 -57 0
-43 -50 -64 0
-43 -50 -71 0
-43 -50 -78 0
-43 -50 -85 0
-43 -50 -92 0
-43 -50 -99 0
-43 -57 -64 0
-43 -57 -71 0
-43 -57 -78 0
-43 -57 -85 0
-43 -57 -92 0
-43 -57 -99 0
-43 -64 -71 0
-43 -64 -78 0
-43 -64 -85 0
-43 -64 -92 0
-43 -64 -99 0
-43 -71 -78 0
-43 -71 -85 0
-43 -71 -92 0
-43 -71 -99 0
-43 -78 -85 0
-43 -78 -92 0
-43 -78 -99 0
-43 -85 -92 0
-43 -85 -99 0
-43 -92 -99 0
-50 -57 -64 0
-50 -57 -71 0
-50 -57 -78 0
-50 -57 -85 0
-50 -57 -92 0
-50 -57 -99 0
-50 -64 -71 0
-50 -64 -78 0
-50 -64 -85 0
-50 -64 -92 0
-50 -64 -99 0
-50 -71 -78 0
-50 -71 -85 0
-50 -71 -92 0
-50 -71 -99 0
-50 -78 -85 0
-50 -78 -92 0
-50 -78 -99 0
-50 -85 -92 0
-50 -85 -99 0
-50 -92 -99 0
-57 -64 -71 0
-57 -64 -78 0
-57 -64 -85 0
-57 -64 -92 0
-57 -64 -99 0
-57 -71 -78 0
-57 -71 -85 0
-57 -71 -92 0
-57 -71 -99 0
-57 -78 -85 0
-57 -78 -92 0
-57 -78 -99 0
-57 -85 -92 0
-57 -85 -99 0
-57 -92 -99 0
-64 -71 -78 0
-64 -71 -85 0
-64 -71 -92 0
-64 -71 -99 0
-64 -78 -85 0
-64 -78 -92 0
-64 -78 -99 0
-64 -85 -92 0
-64 -85 -99 0
-64 -92 -99 0
-71 -78 -85 0
-71 -78 -92 0
-71 -78 -99 0
-71 -85 -92 0
-71 -85 -99 0
-71 -92 -99 0
-78 -85 -92 0
-78 -85 -99 0
-78 -92 -99 0
-85 -92 -99 0
-2 -9 -16 0
-2 -9 -23 0
-2 -9 -30 0
-2 -9 -37 0
-2 -9 -44 0
-2 -9 -51 0
-2 -9 -58 0
-2 -9 -65 0
-2 -9 -72 0
-2 -9 -79 0
-2 -9 -86 0
-2 -9 -93 0
-2 -9 -100 0
-2 -16 -23 0
-2 -16 -30 0
-2 -16 -37 0
-2 -16 -44 0
-2 -16 -51 0
-2 -16 -58 0
-2 -16 -65 0
-2 -16 -72 0
-2 -16 -79 0
-2 -16 -86 0
-2 -16 -93 0
-2 -16 -100 0
-2 -23 -30 0
-2 -23 -37 0
-2 -23 -44 0
-2 -23 -51 0
-2 -23 -58 0
-2 -23 -65 0
-2 -23 -72 0
-2 -23 -79 0
-2 -23 -86 0
-2 -23 -93 0
-2 -23 -100 0
-2 -30 -37 0
-2 -30 -44 0
-2 -30 -51 0
-2 -30 -58 0
-2 -30 -65 0
-2 -30 -72 0
-2 -30 -79 0
-2 -30 -86 0
-2 -30 -93 0
-2 -30 -100 0
-2 -37 -44 0
-2 -37 -51 0
-2 -37 -58 0
-2 -37 -65 0
-2 -37 -72 0
-2 -37 -79 0
-2 -37 -86 0
-2 -37 -93 0
-2 -37 -100 0
-2 -44 -51 0
-2 -44 -58 0
-2 -44 -65 0
-2 -44 -72 0
-2 -44 -79 0
-2 -44 -86 0
-2 -44 -93 0
-2 -44 -100 0
-2 -51 -58 0
-2 -51 -65 0
-2 -51 -72 0
-2 -51 -79 0
-2 -51 -86 0
-2 -51 -93 0
-2 -51 -100 0
-2 -58 -65 0
-2 -58 -72 0
-2 -58 -79 0
-2 -58 -86 0
-2 -58 -93 0
-2 -58 -100 0
-2 -65 -72 0
-2 -65 -79 0
-2 -65 -86 0
-2 -65 -93 0
-2 -65 -100 0
-2 -72 -79 0
-2 -72 -86 0
-2 -72 -93 0
-2 -72 -100 0
-2 -79 -86 0
-2 -79 -93 0
-2 -79 -100 0
-2 -86 -93 0
-2 -86 -100 0
-2 -93 -100 0
-9 -16 -23 0
-9 -16 -30 0
-9 -16 -37 0
-9 -16 -44 0
-9 -16 -51 0
-9 -16 -58 0
-9 -16 -65 0
-9 -16 -72 0
-9 -16 -79 0
-9 -16 -86 0
-9 -16 -93 0
-9 -16 -100 0
-9 -23 -30 0
-9 -23 -37 0
-9 -23 -44 0
-9 -23 -51 0
-9 -23 -58 0
-9 -23 -65 0
-9 -23 -72 0
-9 -23 -79 0
-9 -23 -86 0
-9 -23 -93 0
-9 -23 -100 0
-9 -30 -37 0
-9 -30 -44 0
-9 -30 -51 0
-9 -30 -58 0
-9 -30 -65 0
-9 -30 -72 0
-9 -30 -79 0
-9 -30 -86 0
-9 -30 -93 0
-9 -30 -100 0
-9 -37 -44 0
-9 -37 -51 0
-9 -37 -58 0
-9 -37 -65 0
-9 -37 -72 0
-9 -37 -79 0
-9 -37 -86 0
-9 -37 -93 0
-9 -37 -100 0
-9 -44 -51 0
-9 -44 -58 0
-9 -44 -65 0
-9 -44 -72 0
-9 -44 -79 0
-9 -44 -86 0
-9 -44 -93 0
-9 -44 -100 0
-9 -51 -58 0
-9 -51 -65 0
-9 -51 -72 0
-9 -51 -79 0
-9 -51 -86 0
-9 -51 -93 0
-9 -51 -100 0
-9 -58 -65 0
-9 -58 -72 0
-9 -58 -79 0
-9 -58 -86 0
-9 -58 -93 0
-9 -58 -100 0
-9 -65 -72 0
-9 -65 -79 0
-9 -65 -86 0
-9 -65 -93 0
-9 -65 -100 0
-9 -72 -79 0
-9 -72 -86 0
-9 -72 -93 0
-9 -72 -100 0
-9 -79 -86 0
-9 -79 -93 0
-9 -79 -100 0
-9 -86 -93 0
-9 -86 -100 0
-9 -93 -100 0
-16 -23 -30 0
-16 -23 -37 0
-16 -23 -44 0
-16 -23 -51 0
-16 -23 -58 0
-16 -23 -65 0
-16 -23 -72 0
-16 -23 -79 0
-16 -23 -86 0
-16 -23 -93 0
-16 -23 -100 0
-16 -30 -37 0
-16 -30 -44 0
-16 -30 -51 0
-16 -30 -58 0
-16 -30 -65 0
-16 -30 -72 0
-16 -30 -79 0
-16 -30 -86 0
-16 -30 -93 0
-16 -30 -100 0
-16 -37 -44 0
-16 -37 -51 0
-16 -37 -58 0
-16 -37 -65 0
-16 -37 -72 0
-16 -37 -79 0
-16 -37 -86 0
-16 -37 -93 0
-16 -37 -100 0
-16 -44 -51 0
-16 -44 -58 0
-16 -44 -65 0
-16 -44 -72 0
-16 -44 -79 0
-16 -44 -86 0
-16 -44 -93 0
-16 -44 -100 0
-16 -51 -58 0
-16 -51 -65 0
-16 -51 -72 0
-16 -51 -79 0
-16 -51 -86 0
-16 -51 -93 0
-16 -51 -100 0
-16 -58 -65 0
-16 -58 -72 0
-16 -58 -79 0
-16 -58 -86 0
-16 -58 -93 0
-16 -58 -100 0
-16 -65 -72 0
-16 -65 -79 0
-16 -65 -86 0
-16 -65 -93 0
-16 -65 -100 0
-16 -72 -79 0
-16 -72 -86 0
-16 -72 -93 0
-16 -72 -100 0
-16 -79 -86 0
-16 -79 -93 0
-16 -79 -100 0
-16 -86 -93 0
-16 -86 -100 0
-16 -93 -100 0
-23 -30 -37 0
-23 -30 -44 0
-23 -30 -51 0
-23 -30 -58 0
-23 -30 -65 0
-23 -30 -72 0
-23 -30 -79 0
-23 -30 -86 0
-23 -30 -93 0
-23 -30 -100 0
-23 -37 -44 0
-23 -37 -51 0
-23 -37 -58 0
-23 -37 -65 0
-23 -37 -72 0
-23 -37 -79 0
-23 -37 -86 0
-23 -37 -93 0
-23 -37 -100 0
-23 -44 -51 0
-23 -44 -58 0
-23 -44 -65 0
-23 -44 -72 0
-23 -44 -79 0
-23 -44 -86 0
-23 -44 -93 0
-23 -44 -100 0
-23 -51 -58 0
-23 -51 -65 0
-23 -51 -72 0
-23 -51 -79 0
-23 -51 -86 0
-23 -51 -93 0
-23 -51 -100 0
-23 -58 -65 0
-23 -58 -72 0
-23 -58 -79 0
-23 -58 -86 0
-23 -58 -93 0
-23 -58 -100 0
-23 -65 -72 0
-23 -65 -79 0
-23 -65 -86 0
-23 -65 -93 0
-23 -65 -100 0
-23 -72 -79 0
-23 -72 -86 0
-23 -72 -93 0
-23 -72 -100 0
-23 -79 -86 0
-23 -79 -93 0
-23 -79 -100 0
-23 -86 -93 0
-23 -86 -100 0
-23 -93 -100 0
-30 -37 -44 0
-30 -37 -51 0
-30 -37 -58 0
-30 -37 -65 0
-30 -37 -72 0
-30 -37 -79 0
-30 -37 -86 0
-30 -37 -93 0
-30 -37 -100 0
-30 -44 -51 0
-30 -44 -58 0
-30 -44 -65 0
-30 -44 -72 0
-30 -44 -79 0
-30 -44 -86 0
-30 -44 -93 0
-30 -44 -100 0
-30 -51 -58 0
-30 -51 -65 0
-30 -51 -72 0
-30 -51 -79 0
-30 -51 -86 0
-30 -51 -93 0
-30 -51 -100 0
-30 -58 -65 0
-30 -58 -72 0
-30 -58 -79 0
-30 -58 -86 0
-30 -58 -93 0
-30 -58 -100 0
-30 -65 -72 0
-30 -65 -79 0
-30 -65 -86 0
-30 -65 -93 0
-30 -65 -100 0
-30 -72 -79 0
-30 -72 -86 0
-30 -72 -93 0
-30 -72 -100 0
-30 -79 -86 0
-30 -79 -93 0
-30 -79 -100 0
-30 -86 -93 0
-30 -86 -100 0
-30 -93 -100 0
-37 -44 -51 0
-37 -44 -58 0
-37 -44 -65 0
-37 -44 -72 0
-37 -44 -79 0
-37 -44 -86 0
-37 -44 -93 0
-37 -44 -100 0
-37 -51 -58 0
-37 -51 -65 0
-37 -51 -72 0
-37 -51 -79 0
-37 -51 -86 0
-37 -51 -93 0
-37 -51 -100 0
-37 -58 -65 0
-37 -58 -72 0
-37 -58 -79 0
-37 -58 -86 0
-37 -58 -93 0
-37 -58 -100 0
-37 -65 -72 0
-37 -65 -79 0
-37 -65 -86 0
-37 -65 -93 0
-37 -65 -100 0
-37 -72 -79 0
-37 -72 -86 0
-37 -72 -93 0
-37 -72 -100 0
-37 -79 -86 0
-37 -79 -93 0
-37 -79 -100 0
-37 -86 -93 0
-37 -86 -100 0
-37 -93 -100 0
-44 -51 -58 0
-44 -51 -65 0
-44 -51 -72 0
-44 -51 -79 0
-44 -51 -86 0
-44 -51 -93 0
-44 -51 -100 0
-44 -58 -65 0
-44 -58 -72 0
-44 -58 -79 0
-44 -58 -86 0
-44 -58 -93 0
-44 -58 -100 0
-44 -65 -72 0
-44 -65 -79 0
-44 -65 -86 0
-44 -65 -93 0
-44 -65 -100 0
-44 -72 -79 0
-44 -72 -86 0
-44 -72 -93 0
-44 -72 -100 0
-44 -79 -86 0
-44 -79 -93 0
-44 -79 -100 0
-44 -86 -93 0
-44 -86 -100 0
-44 -93 -100 0
-51 -58 -65 0
-51 -58 -72 0
-51 -58 -79 0
-51 -58 -86 0
-51 -58 -93 0
-51 -58 -100 0
-51 -65 -72 0
-51 -65 -79 0
-51 -65 -86 0
-51 -65 -93 0
-51 -65 -100 0
-51 -72 -79 0
-51 -72 -86 0
-51 -72 -93 0
-51 -72 -100 0
-51 -79 -86 0
-51 -79 -93 0
-51 -79 -100 0
-51 -86 -93 0
-51 -86 -100 0
-51 -93 -100 0
-58 -65 -72 0
-58 -65 -79 0
-58 -65 -86 0
-58 -65 -93 0
-58 -65 -100 0
-58 -72 -79 0
-58 -72 -86 0
-58 -72 -93 0
-58 -72 -100 0
-58 -79 -86 0
-58 -79 -93 0
-58 -79 -100 0
-58 -86 -93 0
-58 -86 -100 0
-58 -93 -100 0
-65 -72 -79 0
-65 -72 -86 0
-65 -72 -93 0
-65 -72 -100 0
-65 -79 -86 0
-65 -79 -93 0
-65 -79 -100 0
-65 -86 -93 0
-65 -86 -100 0
-65 -93 -100 0
-72 -79 -86 0
-72 -79 -93 0
-72 -79 -100 0
-72 -86 -93 0
-72 -86 -100 0
-72 -93 -100 0
-79 -86 -93 0
-79 -86 -100 0
-79 -93 -100 0
-86 -93 -100 0
-3 -10 -17 0
-3 -10 -24 0
-3 -10 -31 0
-3 -10 -38 0
-3 -10 -45 0
-3 -10 -52 0
-3 -10 -59 0
-3 -10 -66 0
-3 -10 -73 0
-3 -10 -80 0
-3 -10 -87 0
-3 -10 -94 0
-3 -10 -101 0
-3 -17 -24 0
-3 -17 -31 0
-3 -17 -38 0
-3 -17 -45 0
-3 -17 -52 0
-3 -17 -59 0
-3 -17 -66 0
-3 -17 -73 0
-3 -17 -80 0
-3 -17 -87 0
-3 -17 -94 0
-3 -17 -101 0
-3 -24 -31 0
-3 -24 -38 0
-3 -24 -45 0
-3 -24 -52 0
-3 -24 -59 0
-3 -24 -66 0
-3 -24 -73 0
-3 -24 -80 0
-3 -24 -87 0
-3 -24 -94 0
-3 -24 -101 0
-3 -31 -38 0
-3 -31 -45 0
-3 -31 -52 0
-3 -31 -59 0
-3 -31 -66 0
-3 -31 -73 0
-3 -31 -80 0
-3 -31 -87 0
-3 -31 -94 0
-3 -31 -101 0
-3 -38 -45 0
-3 -38 -52 0
-3 -38 -59 0
-3 -38 -66 0
-3 -38 -73 0
-3 -38 -80 0
-3 -38 -87 0
-3 -38 -94 0
-3 -38 -101 0
-3 -45 -52 0
-3 -45 -59 0
-3 -45 -66 0
-3 -45 -73 0
-3 -45 -80 0
-3 -45 -87 0
-3 -45 -94 0
-3 -45 -101 0
-3 -52 -59 0
-3 -52 -66 0
-3 -52 -73 0
-3 -52 -80 0
-3 -52 -87 0
-3 -52 -94 0
-3 -52 -101 0
-3 -59 -66 0
-3 -59 -73 0
-3 -59 -80 0
-3 -59 -87 0
-3 -59 -94 0
-3 -59 -101 0
-3 -66 -73 0
-3 -66 -80 0
-3 -66 -87 0
-3 -66 -94 0
-3 -66 -101 0
-3 -73 -80 0
-3 -73 -87 0
-3 -73 -94 0
-3 -73 -101 0
-3 -80 -87 0
-3 -80 -94 0
-3 -80 -101 0
-3 -87 -94 0
-3 -87 -101 0
-3 -94 -101 0
-10 -17 -24 0
-10 -17 -31 0
-10 -17 -38 0
-10 -17 -45 0
-10 -17 -52 0
-10 -17 -59 0
-10 -17 -66 0
-10 -17 -73 0
-10 -17 -80 0
-10 -17 -87 0
-10 -17 -94 0
-10 -17 -101 0
-10 -24 -31 0
-10 -24 -38 0
-10 -24 -45 0
-10 -24 -52 0
-10 -24 -59 0
-10 -24 -66 0
-10 -24 -73 0
-10 -24 -80 0
-10 -24 -87 0
-10 -24 -94 0
-10 -24 -101 0
-10 -31 -38 0
-10 -31 -45 0
-10 -31 -52 0
-10 -31 -59 0
-10 -31 -66 0
-10 -31 -73 0
-10 -31 -80 0
-10 -31 -87 0
-10 -31 -94 0
-10 -31 -101 0
-10 -38 -45 0
-10 -38 -52 0
-10 -38 -59 0
-10 -38 -66 0
-10 -38 -73 0
-10 -38 -80 0
-10 -38 -87 0
-10 -38 -94 0
-10 -38 -101 0
-10 -45 -52 0
-10 -45 -59 0
-10 -45 -66 0
-10 -45 -73 0
-10 -45 -80 0
-10 -45 -87 0
-10 -45 -94 0
-10 -45 -101 0
-10 -52 -59 0
-10 -52 -66 0
-10 -52 -73 0
-10 -52 -80 0
-10 -52 -87 0
-10 -52 -94 0
-10 -52 -101 0
-10 -59 -66 0
-10 -59 -73 0
-10 -59 -80 0
-10 -59 -87 0
-10 -59 -94 0
-10 -59 -101 0
-10 -66 -73 0
-10 -66 -80 0
-10 -66 -87 0
-10 -66 -94 0
-10 -66 -101 0
-10 -73 -80 0
-10 -73 -87 0
-10 -73 -94 0
-10 -73 -101 0
-10 -80 -87 0
-10 -80 -94 0
-10 -80 -101 0
-10 -87 -94 0
-10 -87 -101 0
-10 -94 -101 0
-17 -24 -31 0
-17 -24 -38 0
-17 -24 -45 0
-17 -24 -52 0
-17 -24 -59 0
-17 -24 -66 0
-17 -24 -73 0
-17 -24 -80 0
-17 -24 -87 0
-17 -24 -94 0
-17 -24 -101 0
-17 -31 -38 0
-17 -31 -45 0
-17 -31 -52 0
-17 -31 -59 0
-17 -31 -66 0
-17 -31 -73 0
-17 -31 -80 0
-17 -31 -87 0
-17 -31 -94 0
-17 -31 -101 0
-17 -38 -45 0
-17 -38 -52 0
-17 -38 -59 0
-17 -38 -66 0
-17 -38 -73 0
-17 -38 -80 0
-17 -38 -87 0
-17 -38 -94 0
-17 -38 -101 0
-17 -45 -52 0
-17 -45 -59 0
-17 -45 -66 0
-17 -45 -73 0
-17 -45 -80 0
-17 -45 -87 0
-17 -45 -94 0
-17 -45 -101 0
-17 -52 -59 0
-17 -52 -66 0
-17 -52 -73 0
-17 -52 -80 0
-17 -52 -87 0
-17 -52 -94 0
-17 -52 -101 0
-17 -59 -66 0
-17 -59 -73 0
-17 -59 -80 0
-17 -59 -87 0
-17 -59 -94 0
-17 -59 -101 0
-17 -66 -73 0
-17 -66 -80 0
-17 -66 -87 0
-17 -66 -94 0
-17 -66 -101 0
-17 -73 -80 0
-17 -73 -87 0
-17 -73 -94 0
-17 -73 -101 0
-17 -80 -87 0
-17 -80 -94 0
-17 -80 -101 0
-17 -87 -94 0
-17 -87 -101 0
-17 -94 -101 0
-24 -31 -38 0
-24 -31 -45 0
-24 -31 -52 0
-24 -31 -59 0
-24 -31 -66 0
-24 -31 -73 0
-24 -31 -80 0
-24 -31 -87 0
-24 -31 -94 0
-24 -31 -101 0
-24 -38 -45 0
-24 -38 -52 0
-24 -38 -59 0
-24 -38 -66 0
-24 -38 -73 0
-24 -38 -80 0
-24 -38 -87 0
-24 -38 -94 0
-24 -38 -101 0
-24 -45 -52 0
-24 -45 -59 0
-24 -45 -66 0
-24 -45 -73 0
-24 -45 -80 0
-24 -45 -87 0
-24 -45 -94 0
-24 -45 -101 0
-24 -52 -59 0
-24 -52 -66 0
-24 -52 -73 0
-24 -52 -80 0
-24 -52 -87 0
-24 -52 -94 0
-24 -52 -101 0
-24 -59 -66 0
-24 -59 -73 0
-24 -59 -80 0
-24 -59 -87 0
-24 -59 -94 0
-24 -59 -101 0
-24 -66 -73 0
-24 -66 -80 0
-24 -66 -87 0
-24 -66 -94 0
-24 -66 -101 0
-24 -73 -80 0
-24 -73 -87 0
-24 -73 -94 0
-24 -73 -101 0
-24 -80 -87 0
-24 -80 -94 0
-24 -80 -101 0
-24 -87 -94 0
-24 -87 -101 0
-24 -94 -101 0
-31 -38 -45 0
-31 -38 -52 0
-31 -38 -59 0
-31 -38 -66 0
-31 -38 -73 0
-31 -38 -80 0
-31 -38 -87 0
-31 -38 -94 0
-31 -38 -101 0
-31 -45 -52 0
-31 -45 -59 0
-31 -45 -66 0
-31 -45 -73 0
-31 -45 -80 0
-31 -45 -87 0
-31 -45 -94 0
-31 -45 -101 0
-31 -52 -59 0
-31 -52 -66 0
-31 -52 -73 0
-31 -52 -80 0
-31 -52 -87 0
-31 -52 -94 0
-31 -52 -101 0
-31 -59 -66 0
-31 -59 -73 0
-31 -59 -80 0
-31 -59 -87 0
-31 -59 -94 0
-31 -59 -101 0
-31 -66 -73 0
-31 -66 -80 0
-31 -66 -87 0
-31 -66 -94 0
-31 -66 -101 0
-31 -73 -80 0
-31 -73 -87 0
-31 -73 -94 0
-31 -73 -101 0
-31 -80 -87 0
-31 -80 -94 0
-31 -80 -101 0
-31 -87 -94 0
-31 -87 -101 0
-31 -94 -101 0
-38 -45 -52 0
-38 -45 -59 0
-38 -45 -66 0
-38 -45 -73 0
-38 -45 -80 0
-38 -45 -87 0
-38 -45 -94 0
-38 -45 -101 0
-38 -52 -59 0
-38 -52 -66 0
-38 -52 -73 0
-38 -52 -80 0
-38 -52 -87 0
-38 -52 -94 0
-38 -52 -101 0
-38 -59 -66 0
-38 -59 -73 0
-38 -59 -80 0
-38 -59 -87 0
-38 -59 -94 0
-38 -59 -101 0
-38 -66 -73 0
-38 -66 -80 0
-38 -66 -87 0
-38 -66 -94 0
-38 -66 -101 0
-38 -73 -80 0
-38 -73 -87 0
-38 -73 -94 0
-38 -73 -101 0
-38 -80 -87 0
-38 -80 -94 0
-38 -80 -101 0
-38 -87 -94 0
-38 -87 -101 0
-38 -94 -101 0
-45 -52 -59 0
-45 -52 -66 0
-45 -52 -73 0
-45 -52 -80 0
-45 -52 -87 0
-45 -52 -94 0
-45 -52 -101 0
-45 -59 -66 0
-45 -59 -73 0
-45 -59 -80 0
-45 -59 -87 0
-45 -59 -94 0
-45 -59 -101 0
-45 -66 -73 0
-45 -66 -80 0
-45 -66 -87 0
-45 -66 -94 0
-45 -66 -101 0
-45 -73 -80 0
-45 -73 -87 0
-45 -73 -94 0
-45 -73 -101 0
-45 -80 -87 0
-45 -80 -94 0
-45 -80 -101 0
-45 -87 -94 0
-45 -87 -101 0
-45 -94 -101 0
-52 -59 -66 0
-52 -59 -73 0
-52 -59 -80 0
-52 -59 -87 0
-52 -59 -94 0
-52 -59 -101 0
-52 -66 -73 0
-52 -66 -80 0
-52 -66 -87 0
-52 -66 -94 0
-52 -66 -101 0
-52 -73 -80 0
-52 -73 -87 0
-52 -73 -94 0
-52 -73 -101 0
-52 -80 -87 0
-52 -80 -94 0
-52 -80 -101 0
-52 -87 -94 0
-52 -87 -101 0
-52 -94 -101 0
-59 -66 -73 0
-59 -66 -80 0
-59 -66 -87 0
-59 -66 -94 0
-59 -66 -101 0
-59 -73 -80 0
-59 -73 -87 0
-59 -73 -94 0
-59 -73 -101 0
-59 -80 -87 0
-59 -80 -94 0
-59 -80 -101 0
-59 -87 -94 0
-59 -87 -101 0
-59 -94 -101 0
-66 -73 -80 0
-66 -73 -87 0
-66 -73 -94 0
-66 -73 -101 0
-66 -80 -87 0
-66 -80 -94 0
-66 -80 -101 0
-66 -87 -94 0
-66 -87 -101 0
-66 -94 -101 0
-73 -80 -87 0
-73 -80 -94 0
-73 -80 -101 0
-73 -87 -94 0
-73 -87 -101 0
-73 -94 -101 0
-80 -87 -94 0
-80 -87 -101 0
-80 -94 -101 0
-87 -94 -101 0
-4 -11 -18 0
-4 -11 -25 0
-4 -11 -32 0
-4 -11 -39 0
-4 -11 -46 0
-4 -11 -53 0
-4 -11 -60 0
-4 -11 -67 0
-4 -11 -74 0
-4 -11 -81 0
-4 -11 -88 0
-4 -11 -95 0
-4 -11 -102 0
-4 -18 -25 0
-4 -18 -32 0
-4 -18 -39 0
-4 -18 -46 0
-4 -18 -53 0
-4 -18 -60 0
-4 -18 -67 0
-4 -18 -74 0
-4 -18 -81 0
-4 -18 -88 0
-4 -18 -95 0
-4 -18 -102 0
-4 -25 -32 0
-4 -25 -39 0
-4 -25 -46 0
-4 -25 -53 0
-4 -25 -60 0
-4 -25 -67 0
-4 -25 -74 0
-4 -25 -81 0
-4 -25 -88 0
-4 -25 -95 0
-4 -25 -102 0
-4 -32 -39 0
-4 -32 -46 0
-4 -32 -53 0
-4 -32 -60 0
-4 -32 -67 0
-4 -32 -74 0
-4 -32 -81 0
-4 -32 -88 0
-4 -32 -95 0
-4 -32 -102 0
-4 -39 -46 0
-4 -39 -53 0
-4 -39 -60 0
-4 -39 -67 0
-4 -39 -74 0
-4 -39 -81 0
-4 -39 -88 0
-4 -39 -95 0
-4 -39 -102 0
-4 -46 -53 0
-4 -46 -60 0
-4 -46 -67 0
-4 -46 -74 0
-4 -46 -81 0
-4 -46 -88 0
-4 -46 -95 0
-4 -46 -102 0
-4 -53 -60 0
-4 -53 -67 0
-4 -53 -74 0
-4 -53 -81 0
-4 -53 -88 0
-4 -53 -95 0
-4 -53 -102 0
-4 -60 -67 0
-4 -60 -74 0
-4 -60 -81 0
-4 -60 -88 0
-4 -60 -95 0
-4 -60 -102 0
-4 -67 -74 0
-4 -67 -81 0
-4 -67 -88 0
-4 -67 -95 0
-4 -67 -102 0
-4 -74 -81 0
-4 -74 -88 0
-4 -74 -95 0
-4 -74 -102 0
-4 -81 -88 0
-4 -81 -95 0
-4 -81 -102 0
-4 -88 -95 0
-4 -88 -102 0
-4 -95 -102 0
-11 -18 -25 0
-11 -18 -32 0
-11 -18 -39 0
-11 -18 -46 0
-11 -18 -53 0
-11 -18 -60 0
-11 -18 -67 0
-11 -18 -74 0
-11 -18 -81 0
-11 -18 -88 0
-11 -18 -95 0
-11 -18 -102 0
-11 -25 -32 0
-11 -25 -39 0
-11 -25 -46 0
-11 -25 -53 0
-11 -25 -60 0
-11 -25 -67 0
-11 -25 -74 0
-11 -25 -81 0
-11 -25 -88 0
-11 -25 -95 0
-11 -25 -102 0
-11 -32 -39 0
-11 -32 -46 0
-11 -32 -53 0
-11 -32 -60 0
-11 -32 -67 0
-11 -32 -74 0
-11 -32 -81 0
-11 -32 -88 0
-11 -32 -95 0
-11 -32 -102 0
-11 -39 -46 0
-11 -39 -53 0
-11 -39 -60 0
-11 -39 -67 0
-11 -39 -74 0
-11 -39 -81 0
-11 -39 -88 0
-11 -39 -95 0
-11 -39 -102 0
-11 -46 -53 0
-11 -46 -60 0
-11 -46 -67 0
-11 -46 -74 0
-11 -46 -81 0
-11 -46 -88 0
-11 -46 -95 0
-11 -46 -102 0
-11 -53 -60 0
-11 -53 -67 0
-11 -53 -74 0
-11 -53 -81 0
-11 -53 -88 0
-11 -53 -95 0
-11 -53 -102 0
-11 -60 -67 0
-11 -60 -74 0
-11 -60 -81 0
-11 -60 -88 0
-11 -60 -95 0
-11 -60 -102 0
-11 -67 -74 0
-11 -67 -81 0
-11 -67 -88 0
-11 -67 -95 0
-11 -67 -102 0
-11 -74 -81 0
-11 -74 -88 0
-11 -74 -95 0
-11 -74 -102 0
-11 -81 -88 0
-11 -81 -95 0
-11 -81 -102 0
-11 -88 -95 0
-11 -88 -102 0
-11 -95 -102 0
-18 -25 -32 0
-18 -25 -39 0
-18 -25 -46 0
-18 -25 -53 0
-18 -25 -60 0
-18 -25 -67 0
-18 -25 -74 0
-18 -25 -81 0
-18 -25 -88 0
-18 -25 -95 0
-18 -25 -102 0
-18 -32 -39 0
-18 -32 -46 0
-18 -32 -53 0
-18 -32 -60 0
-18 -32 -67 0
-18 -32 -74 0
-18 -32 -81 0
-18 -32 -88 0
-18 -32 -95 0
-18 -32 -102 0
-18 -39 -46 0
-18 -39 -53 0
-18 -39 -60 0
-18 -39 -67 0
-18 -39 -74 0
-18 -39 -81 0
-18 -39 -88 0
-18 -39 -95 0
-18 -39 -102 0
-18 -46 -53 0
-18 -46 -60 0
-18 -46 -67 0
-18 -46 -74 0
-18 -46 -81 0
-18 -46 -88 0
-18 -46 -95 0
-18 -46 -102 0
-18 -53 -60 0
-18 -53 -67 0
-18 -53 -74 0
-18 -53 -81 0
-18 -53 -88 0
-18 -53 -95 0
-18 -53 -102 0
-18 -60 -67 0
-18 -60 -74 0
-18 -60 -81 0
-18 -60 -88 0
-18 -60 -95 0
-18 -60 -102 0
-18 -67 -74 0
-18 -67 -81 0
-18 -67 -88 0
-18 -67 -95 0
-18 -67 -102 0
-18 -74 -81 0
-18 -74 -88 0
-18 -74 -95 0
-18 -74 -102 0
-18 -81 -88 0
-18 -81 -95 0
-18 -81 -102 0
-18 -88 -95 0
-18 -88 -102 0
-18 -95 -102 0
-25 -32 -39 0
-25 -32 -46 0
-25 -32 -53 0
-25 -32 -60 0
-25 -32 -67 0
-25 -32 -74 0
-25 -32 -81 0
-25 -32 -88 0
-25 -32 -95 0
-25 -32 -102 0
-25 -39 -46 0
-25 -39 -53 0
-25 -39 -60 0
-25 -39 -67 0
-25 -39 -74 0
-25 -39 -81 0
-25 -39 -88 0
-25 -39 -95 0
-25 -39 -102 0
-25 -46 -53 0
-25 -46 -60 0
-25 -46 -67 0
-25 -46 -74 0
-25 -46 -81 0
-25 -46 -88 0
-25 -46 -95 0
-25 -46 -102 0
-25 -53 -60 0
-25 -53 -67 0
-25 -53 -74 0
-25 -53 -81 0
-25 -53 -88 0
-25 -53 -95 0
-25 -53 -102 0
-25 -60 -67 0
-25 -60 -74 0
-25 -60 -81 0
-25 -60 -88 0
-25 -60 -95 0
-25 -60 -102 0
-25 -67 -74 0
-25 -67 -81 0
-25 -67 -88 0
-25 -67 -95 0
-25 -67 -102 0
-25 -74 -81 0
-25 -74 -88 0
-25 -74 -95 0
-25 -74 -102 0
-25 -81 -88 0
-25 -81 -95 0
-25 -81 -102 0
-25 -88 -95 0
-25 -88 -102 0
-25 -95 -102 0
-32 -39 -46 0
-32 -39 -53 0
-32 -39 -60 0
-32 -39 -67 0
-32 -39 -74 0
-32 -39 -81 0
-32 -39 -88 0
-32 -39 -95 0
-32 -39 -102 0
-32 -46 -53 0
-32 -46 -60 0
-32 -46 -67 0
-32 -46 -74 0
-32 -46 -81 0
-32 -46 -88 0
-32 -46 -95 0
-32 -46 -102 0
-32 -53 -60 0
-32 -53 -67 0
-32 -53 -74 0
-32 -53 -81 0
-32 -53 -88 0
-32 -53 -95 0
-32 -53 -102 0
-32 -60 -67 0
-32 -60 -74 0
-32 -60 -81 0
-32 -60 -88 0
-32 -60 -95 0
-32 -60 -102 0
-32 -67 -74 0
-32 -67 -81 0
-32 -67 -88 0
-32 -67 -95 0
-32 -67 -102 0
-32 -74 -81 0
-32 -74 -88 0
-32 -74 -95 0
-32 -74 -102 0
-32 -81 -88 0
-32 -81 -95 0
-32 -81 -102 0
-32 -88 -95 0
-32 -88 -102 0
-32 -95 -102 0
-39 -46 -53 0
-39 -46 -60 0
-39 -46 -67 0
-39 -46 -74 0
-39 -46 -81 0
-39 -46 -88 0
-39 -46 -95 0
-39 -46 -102 0
-39 -53 -60 0
-39 -53 -67 0
-39 -53 -74 0
-39 -53 -81 0
-39 -53 -88 0
-39 -53 -95 0
-39 -53 -102 0
-39 -60 -67 0
-39 -60 -74 0
-39 -60 -81 0
-39 -60 -88 0
-39 -60 -95 0
-39 -60 -102 0
-39 -67 -74 0
-39 -67 -81 0
-39 -67 -88 0
-39 -67 -95 0
-39 -67 -102 0
-39 -74 -81 0
-39 -74 -88 0
-39 -74 -95 0
-39 -74 -102 0
-39 -81 -88 0
-39 -81 -95 0
-39 -81 -102 0
-39 -88 -95 0
-39 -88 -102 0
-39 -95 -102 0
-46 -53 -60 0
-46 -53 -67 0
-46 -53 -74 0
-46 -53 -81 0
-46 -53 -88 0
-46 -53 -95 0
-46 -53 -102 0
-46 -60 -67 0
-46 -60 -74 0
-46 -60 -81 0
-46 -60 -88 0
-46 -60 -95 0
-46 -60 -102 0
-46 -67 -74 0
-46 -67 -81 0
-46 -67 -88 0
-46 -67 -95 0
-46 -67 -102 0
-46 -74 -81 0
-46 -74 -88 0
-46 -74 -95 0
-46 -74 -102 0
-46 -81 -88 0
-46 -81 -95 0
-46 -81 -102 0
-46 -88 -95 0
-46 -88 -102 0
-46 -95 -102 0
-53 -60 -67 0
-53 -60 -74 0
-53 -60 -81 0
-53 -60 -88 0
-53 -60 -95 0
-53 -60 -102 0
-53 -67 -74 0
-53 -67 -81 0
-53 -67 -88 0
-53 -67 -95 0
-53 -67 -102 0
-53 -74 -81 0
-53 -74 -88 0
-53 -74 -95 0
-53 -74 -102 0
-53 -81 -88 0
-53 -81 -95 0
-53 -81 -102 0
-53 -88 -95 0
-53 -88 -102 0
-53 -95 -102 0
-60 -67 -74 0
-60 -67 -81 0
-60 -67 -88 0
-60 -67 -95 0
-60 -67 -102 0
-60 -74 -81 0
-60 -74 -88 0
-60 -74 -95 0
-60 -74 -102 0
-60 -81 -88 0
-60 -81 -95 0
-60 -81 -102 0
-60 -88 -95 0
-60 -88 -102 0
-60 -95 -102 0
-67 -74 -81 0
-67 -74 -88 0
-67 -74 -95 0
-67 -74 -102 0
-67 -81 -88 0
-67 -81 -95 0
-67 -81 -102 0
-67 -88 -95 0
-67 -88 -102 0
-67 -95 -102 0
-74 -81 -88 0
-74 -81 -95 0
-74 -81 -102 0
-74 -88 -95 0
-74 -88 -102 0
-74 -95 -102 0
-81 -88 -95 0
-81 -88 -102 0
-81 -95 -102 0
-88 -95 -102 0
-5 -12 -19 0
-5 -12 -26 0
-5 -12 -33 0
-5 -12 -40 0
-5 -12 -47 0
-5 -12 -54 0
-5 -12 -61 0
-5 -12 -68 0
-5 -12 -75 0
-5 -12 -82 0
-5 -12 -89 0
-5 -12 -96 0
-5 -12 -103 0
-5 -19 -26 0
-5 -19 -33 0
-5 -19 -40 0
-5 -19 -47 0
-5 -19 -54 0
-5 -19 -61 0
-5 -19 -68 0
-5 -19 -75 0
-5 -19 -82 0
-5 -19 -89 0
-5 -19 -96 0
-5 -19 -103 0
-5 -26 -33 0
-5 -26 -40 0
-5 -26 -47 0
-5 -26 -54 0
-5 -26 -61 0
-5 -26 -68 0
-5 -26 -75 0
-5 -26 -82 0
-5 -26 -89 0
-5 -26 -96 0
-5 -26 -103 0
-5 -33 -40 0
-5 -33 -47 0
-5 -33 -54 0
-5 -33 -61 0
-5 -33 -68 0
-5 -33 -75 0
-5 -33 -82 0
-5 -33 -89 0
-5 -33 -96 0
-5 -33 -103 0
-5 -40 -47 0
-5 -40 -54 0
-5 -40 -61 0
-5 -40 -68 0
-5 -40 -75 0
-5 -40 -82 0
-5 -40 -89 0
-5 -40 -96 0
-5 -40 -103 0
-5 -47 -54 0
-5 -47 -61 0
-5 -47 -68 0
-5 -47 -75 0
-5 -47 -82 0
-5 -47 -89 0
-5 -47 -96 0
-5 -47 -103 0
-5 -54 -61 0
-5 -54 -68 0
-5 -54 -75 0
-5 -54 -82 0
-5 -54 -89 0
-5 -54 -96 0
-5 -54 -103 0
-5 -61 -68 0
-5 -61 -75 0
-5 -61 -82 0
-5 -61 -89 0
-5 -61 -96 0
-5 -61 -103 0
-5 -68 -75 0
-5 -68 -82 0
-5 -68 -89 0
-5 -68 -96 0
-5 -68 -103 0
-5 -75 -82 0
-5 -75 -89 0
-5 -75 -96 0
-5 -75 -103 0
-5 -82 -89 0
-5 -82 -96 0
-5 -82 -103 0
-5 -89 -96 0
-5 -89 -103 0
-5 -96 -103 0
-12 -19 -26 0
-12 -19 -33 0
-12 -19 -40 0
-12 -19 -47 0
-12 -19 -54 0
-12 -19 -61 0
-12 -19 -68 0
-12 -19 -75 0
-12 -19 -82 0
-12 -19 -89 0
-12 -19 -96 0
-12 -19 -103 0
-12 -26 -33 0
-12 -26 -40 0
-12 -26 -47 0
-12 -26 -54 0
-12 -26 -61 0
-12 -26 -68 0
-12 -26 -75 0
-12 -26 -82 0
-12 -26 -89 0
-12 -26 -96 0
-12 -26 -103 0
-12 -33 -40 0
-12 -33 -47 0
-12 -33 -54 0
-12 -33 -61 0
-12 -33 -68 0
-12 -33 -75 0
-12 -33 -82 0
-12 -33 -89 0
-12 -33 -96 0
-12 -33 -103 0
-12 -40 -47 0
-12 -40 -54 0
-12 -40 -61 0
-12 -40 -68 0
-12 -40 -75 0
-12 -40 -82 0
-12 -40 -89 0
-12 -40 -96 0
-12 -40 -103 0
-12 -47 -54 0
-12 -47 -61 0
-12 -47 -68 0
-12 -47 -75 0
-12 -47 -82 0
-12 -47 -89 0
-12 -47 -96 0
-12 -47 -103 0
-12 -54 -61 0
-12 -54 -68 0
-12 -54 -75 0
-12 -54 -82 0
-12 -54 -89 0
-12 -54 -96 0
-12 -54 -103 0
-12 -61 -68 0
-12 -61 -75 0
-12 -61 -82 0
-12 -61 -89 0
-12 -61 -96 0
-12 -61 -103 0
-12 -68 -75 0
-12 -68 -82 0
-12 -68 -89 0
-12 -68 -96 0
-12 -68 -103 0
-12 -75 -82 0
-12 -75 -89 0
-12 -75 -96 0
-12 -75 -103 0
-12 -82 -89 0
-12 -82 -96 0
-12 -82 -103 0
-12 -89 -96 0
-12 -89 -103 0
-12 -96 -103 0
-19 -26 -33 0
-19 -26 -40 0
-19 -26 -47 0
-19 -26 -54 0
-19 -26 -61 0
-19 -26 -68 0
-19 -26 -75 0
-19 -26 -82 0
-19 -26 -89 0
-19 -26 -96 0
-19 -26 -103 0
-19 -33 -40 0
-19 -33 -47 0
-19 -33 -54 0
-19 -33 -61 0
-19 -33 -68 0
-19 -33 -75 0
-19 -33 -82 0
-19 -33 -89 0
-19 -33 -96 0
-19 -33 -103 0
-19 -40 -47 0
-19 -40 -54 0
-19 -40 -61 0
-19 -40 -68 0
-19 -40 -75 0
-19 -40 -82 0
-19 -40 -89 0
-19 -40 -96 0
-19 -40 -103 0
-19 -47 -54 0
-19 -47 -61 0
-19 -47 -68 0
-19 -47 -75 0
-19 -47 -82 0
-19 -47 -89 0
-19 -47 -96 0
-19 -47 -103 0
-19 -54 -61 0
-19 -54 -68 0
-19 -54 -75 0
-19 -54 -82 0
-19 -54 -89 0
-19 -54 -96 0
-19 -54 -103 0
-19 -61 -68 0
-19 -61 -75 0
-19 -61 -82 0
-19 -61 -89 0
-19 -61 -96 0
-19 -61 -103 0
-19 -68 -75 0
-19 -68 -82 0
-19 -68 -89 0
-19 -68 -96 0
-19 -68 -103 0
-19 -75 -82 0
-19 -75 -89 0
-19 -75 -96 0
-19 -75 -103 0
-19 -82 -89 0
-19 -82 -96 0
-19 -82 -103 0
-19 -89 -96 0
-19 -89 -103 0
-19 -96 -103 0
-26 -33 -40 0
-26 -33 -47 0
-26 -33 -54 0
-26 -33 -61 0
-26 -33 -68 0
-26 -33 -75 0
-26 -33 -82 0
-26 -33 -89 0
-26 -33 -96 0
-26 -33 -103 0
-26 -40 -47 0
-26 -40 -54 0
-26 -40 -61 0
-26 -40 -68 0
-26 -40 -75 0
-26 -40 -82 0
-26 -40 -89 0
-26 -40 -96 0
-26 -40 -103 0
-26 -47 -54 0
-26 -47 -61 0
-26 -47 -68 0
-26 -47 -75 0
-26 -47 -82 0
-26 -47 -89 0
-26 -47 -96 0
-26 -47 -103 0
-26 -54 -61 0
-26 -54 -68 0
-26 -54 -75 0
-26 -54 -82 0
-26 -54 -89 0
-26 -54 -96 0
-26 -54 -103 0
-26 -61 -68 0
-26 -61 -75 0
-26 -61 -82 0
-26 -61 -89 0
-26 -61 -96 0
-26 -61 -103 0
-26 -68 -75 0
-26 -68 -82 0
-26 -68 -89 0
-26 -68 -96 0
-26 -68 -103 0
-26 -75 -82 0
-26 -75 -89 0
-26 -75 -96 0
-26 -75 -103 0
-26 -82 -89 0
-26 -82 -96 0
-26 -82 -103 0
-26 -89 -96 0
-26 -89 -103 0
-26 -96 -103 0
-33 -40 -47 0
-33 -40 -54 0
-33 -40 -61 0
-33 -40 -68 0
-33 -40 -75 0
-33 -40 -82 0
-33 -40 -89 0
-33 -40 -96 0
-33 -40 -103 0
-33 -47 -54 0
-33 -47 -61 0
-33 -47 -68 0
-33 -47 -75 0
-33 -47 -82 0
-33 -47 -89 0
-33 -47 -96 0
-33 -47 -103 0
-33 -54 -61 0
-33 -54 -68 0
-33 -54 -75 0
-33 -54 -82 0
-33 -54 -89 0
-33 -54 -96 0
-33 -54 -103 0
-33 -61 -68 0
-33 -61 -75 0
-33 -61 -82 0
-33 -61 -89 0
-33 -61 -96 0
-33 -61 -103 0
-33 -68 -75 0
-33 -68 -82 0
-33 -68 -89 0
-33 -68 -96 0
-33 -68 -103 0
-33 -75 -82 0
-33 -75 -89 0
-33 -75 -96 0
-33 -75 -103 0
-33 -82 -89 0
-33 -82 -96 0
-33 -82 -103 0
-33 -89 -96 0
-33 -89 -103 0
-33 -96 -103 0
-40 -47 -54 0
-40 -47 -61 0
-40 -47 -68 0
-40 -47 -75 0
-40 -47 -82 0
-40 -47 -89 0
-40 -47 -96 0
-40 -47 -103 0
-40 -54 -61 0
-40 -54 -68 0
-40 -54 -75 0
-40 -54 -82 0
-40 -54 -89 0
-40 -54 -96 0
-40 -54 -103 0
-40 -61 -68 0
-40 -61 -75 0
-40 -61 -82 0
-40 -61 -89 0
-40 -61 -96 0
-40 -61 -103 0
-40 -68 -75 0
-40 -68 -82 0
-40 -68 -89 0
-40 -68 -96 0
-40 -68 -103 0
-40 -75 -82 0
-40 -75 -89 0
-40 -75 -96 0
-40 -75 -103 0
-40 -82 -89 0
-40 -82 -96 0
-40 -82 -103 0
-40 -89 -96 0
-40 -89 -103 0
-40 -96 -103 0
-47 -54 -61 0
-47 -54 -68 0
-47 -54 -75 0
-47 -54 -82 0
-47 -54 -89 0
-47 -54 -96 0
-47 -54 -103 0
-47 -61 -68 0
-47 -61 -75 0
-47 -61 -82 0
-47 -61 -89 0
-47 -61 -96 0
-47 -61 -103 0
-47 -68 -75 0
-47 -68 -82 0
-47 -68 -89 0
-47 -68 -96 0
-47 -68 -103 0
-47 -75 -82 0
-47 -75 -89 0
-47 -75 -96 0
-47 -75 -103 0
-47 -82 -89 0
-47 -82 -96 0
-47 -82 -103 0
-47 -89 -96 0
-47 -89 -103 0
-47 -96 -103 0
-54 -61 -68 0
-54 -61 -75 0
-54 -61 -82 0
-54 -61 -89 0
-54 -61 -96 0
-54 -61 -103 0
-54 -68 -75 0
-54 -68 -82 0
-54 -68 -89 0
-54 -68 -96 0
-54 -68 -103 0
-54 -75 -82 0
-54 -75 -89 0
-54 -75 -96 0
-54 -75 -103 0
-54 -82 -89 0
-54 -82 -96 0
-54 -82 -103 0
-54 -89 -96 0
-54 -89 -103 0
-54 -96 -103 0
-61 -68 -75 0
-61 -68 -82 0
-61 -68 -89 0
-61 -68 -96 0
-61 -68 -103 0
-61 -75 -82 0
-61 -75 -89 0
-61 -75 -96 0
-61 -75 -103 0
-61 -82 -89 0
-61 -82 -96 0
-61 -82 -103 0
-61 -89 -96 0
-61 -89 -103 0
-61 -96 -103 0
-68 -75 -82 0
-68 -75 -89 0
-68 -75 -96 0
-68 -75 -103 0
-68 -82 -89 0
-68 -82 -96 0
-68 -82 -103 0
-68 -89 -96 0
-68 -89 -103 0
-68 -96 -103 0
-75 -82 -89 0
-75 -82 -96 0
-75 -82 -103 0
-75 -89 -96 0
-75 -89 -103 0
-75 -96 -103 0
-82 -89 -96 0
-82 -89 -103 0
-82 -96 -103 0
-89 -96 -103 0
-6 -13 -20 0
-6 -13 -27 0
-6 -13 -34 0
-6 -13 -41 0
-6 -13 -48 0
-6 -13 -55 0
-6 -13 -62 0
-6 -13 -69 0
-6 -13 -76 0
-6 -13 -83 0
-6 -13 -90 0
-6 -13 -97 0
-6 -13 -104 0
-6 -20 -27 0
-6 -20 -34 0
-6 -20 -41 0
-6 -20 -48 0
-6 -20 -55 0
-6 -20 -62 0
-6 -20 -69 0
-6 -20 -76 0
-6 -20 -83 0
-6 -20 -90 0
-6 -20 -97 0
-6 -20 -104 0
-6 -27 -34 0
-6 -27 -41 0
-6 -27 -48 0
-6 -27 -55 0
-6 -27 -62 0
-6 -27 -69 0
-6 -27 -76 0
-6 -27 -83 0
-6 -27 -90 0
-6 -27 -97 0
-6 -27 -104 0
-6 -34 -41 0
-6 -34 -48 0
-6 -34 -55 0
-6 -34 -62 0
-6 -34 -69 0
-6 -34 -76 0
-6 -34 -83 0
-6 -34 -90 0
-6 -34 -97 0
-6 -34 -104 0
-6 -41 -48 0
-6 -41 -55 0
-6 -41 -62 0
-6 -41 -69 0
-6 -41 -76 0
-6 -41 -83 0
-6 -41 -90 0
-6 -41 -97 0
-6 -41 -104 0
-6 -48 -55 0
-6 -48 -62 0
-6 -48 -69 0
-6 -48 -76 0
-6 -48 -83 0
-6 -48 -90 0
-6 -48 -97 0
-6 -48 -104 0
-6 -55 -62 0
-6 -55 -69 0
-6 -55 -76 0
-6 -55 -83 0
-6 -55 -90 0
-6 -55 -97 0
-6 -55 -104 0
-6 -62 -69 0
-6 -62 -76 0
-6 -62 -83 0
-6 -62 -90 0
-6 -62 -97 0
-6 -62 -104 0
-6 -69 -76 0
-6 -69 -83 0
-6 -69 -90 0
-6 -69 -97 0
-6 -69 -104 0
-6 -76 -83 0
-6 -76 -90 0
-6 -76 -97 0
-6 -76 -104 0
-6 -83 -90 0
-6 -83 -97 0
-6 -83 -104 0
-6 -90 -97 0
-6 -90 -104 0
-6 -97 -104 0
-13 -20 -27 0
-13 -20 -34 0
-13 -20 -41 0
-13 -20 -48 0
-13 -20 -55 0
-13 -20 -62 0
-13 -20 -69 0
-13 -20 -76 0
-13 -20 -83 0
-13 -20 -90 0
-13 -20 -97 0
-13 -20 -104 0
-13 -27 -34 0
-13 -27 -41 0
-13 -27 -48 0
-13 -27 -55 0
-13 -27 -62 0
-13 -27 -69 0
-13 -27 -76 0
-13 -27 -83 0
-13 -27 -90 0
-13 -27 -97 0
-13 -27 -104 0
-13 -34 -41 0
-13 -34 -48 0
-13 -34 -55 0
-13 -34 -62 0
-13 -34 -69 0
-13 -34 -76 0
-13 -34 -83 0
-13 -34 -90 0
-13 -34 -97 0
-13 -34 -104 0
-13 -41 -48 0
-13 -41 -55 0
-13 -41 -62 0
-13 -41 -69 0
-13 -41 -76 0
-13 -41 -83 0
-13 -41 -90 0
-13 -41 -97 0
-13 -41 -104 0
-13 -48 -55 0
-13 -48 -62 0
-13 -48 -69 0
-13 -48 -76 0
-13 -48 -83 0
-13 -48 -90 0
-13 -48 -97 0
-13 -48 -104 0
-13 -55 -62 0
-13 -55 -69 0
-13 -55 -76 0
-13 -55 -83 0
-13 -55 -90 0
-13 -55 -97 0
-13 -55 -104 0
-13 -62 -69 0
-13 -62 -76 0
-13 -62 -83 0
-13 -62 -90 0
-13 -62 -97 0
-13 -62 -104 0
-13 -69 -76 0
-13 -69 -83 0
-13 -69 -90 0
-13 -69 -97 0
-13 -69 -104 0
-13 -76 -83 0
-13 -76 -90 0
-13 -76 -97 0
-13 -76 -104 0
-13 -83 -90 0
-13 -83 -97 0
-13 -83 -104 0
-13 -90 -97 0
-13 -90 -104 0
-13 -97 -104 0
-20 -27 -34 0
-20 -27 -41 0
-20 -27 -48 0
-20 -27 -55 0
-20 -27 -62 0
-20 -27 -69 0
-20 -27 -76 0
-20 -27 -83 0
-20 -27 -90 0
-20 -27 -97 0
-20 -27 -104 0
-20 -34 -41 0
-20 -34 -48 0
-20 -34 -55 0
-20 -34 -62 0
-20 -34 -69 0
-20 -34 -76 0
-20 -34 -83 0
-20 -34 -90 0
-20 -34 -97 0
-20 -34 -104 0
-20 -41 -48 0
-20 -41 -55 0
-20 -41 -62 0
-20 -41 -69 0
-20 -41 -76 0
-20 -41 -83 0
-20 -41 -90 0
-20 -41 -97 0
-20 -41 -104 0
-20 -48 -55 0
-20 -48 -62 0
-20 -48 -69 0
-20 -48 -76 0
-20 -48 -83 0
-20 -48 -90 0
-20 -48 -97 0
-20 -48 -104 0
-20 -55 -62 0
-20 -55 -69 0
-20 -55 -76 0
-20 -55 -83 0
-20 -55 -90 0
-20 -55 -97 0
-20 -55 -104 0
-20 -62 -69 0
-20 -62 -76 0
-20 -62 -83 0
-20 -62 -90 0
-20 -62 -97 0
-20 -62 -104 0
-20 -69 -76 0
-20 -69 -83 0
-20 -69 -90 0
-20 -69 -97 0
-20 -69 -104 0
-20 -76 -83 0
-20 -76 -90 0
-20 -76 -97 0
-20 -76 -104 0
-20 -83 -90 0
-20 -83 -97 0
-20 -83 -104 0
-20 -90 -97 0
-20 -90 -104 0
-20 -97 -104 0
-27 -34 -41 0
-27 -34 -48 0
-27 -34 -55 0
-27 -34 -62 0
-27 -34 -69 0
-27 -34 -76 0
-27 -34 -83 0
-27 -34 -90 0
-27 -34 -97 0
-27 -34 -104 0
-27 -41 -48 0
-27 -41 -55 0
-27 -41 -62 0
-27 -41 -69 0
-27 -41 -76 0
-27 -41 -83 0
-27 -41 -90 0
-27 -41 -97 0
-27 -41 -104 0
-27 -48 -55 0
-27 -48 -62 0
-27 -48 -69 0
-27 -48 -76 0
-27 -48 -83 0
-27 -48 -90 0
-27 -48 -97 0
-27 -48 -104 0
-27 -55 -62 0
-27 -55 -69 0
-27 -55 -76 0
-27 -55 -83 0
-27 -55 -90 0
-27 -55 -97 0
-27 -55 -104 0
-27 -62 -69 0
-27 -62 -76 0
-27 -62 -83 0
-27 -62 -90 0
-27 -62 -97 0
-27 -62 -104 0
-27 -69 -76 0
-27 -69 -83 0
-27 -69 -90 0
-27 -69 -97 0
-27 -69 -104 0
-27 -76 -83 0
-27 -76 -90 0
-27 -76 -97 0
-27 -76 -104 0
-27 -83 -90 0
-27 -83 -97 0
-27 -83 -104 0
-27 -90 -97 0
-27 -90 -104 0
-27 -97 -104 0
-34 -41 -48 0
-34 -41 -55 0
-34 -41 -62 0
-34 -41 -69 0
-34 -41 -76 0
-34 -41 -83 0
-34 -41 -90 0
-34 -41 -97 0
-34 -41 -104 0
-34 -48 -55 0
-34 -48 -62 0
-34 -48 -69 0
-34 -48 -76 0
-34 -48 -83 0
-34 -48 -90 0
-34 -48 -97 0
-34 -48 -104 0
-34 -55 -62 0
-34 -55 -69 0
-34 -55 -76 0
-34 -55 -83 0
-34 -55 -90 0
-34 -55 -97 0
-34 -55 -104 0
-34 -62 -69 0
-34 -62 -76 0
-34 -62 -83 0
-34 -62 -90 0
-34 -62 -97 0
-34 -62 -104 0
-34 -69 -76 0
-34 -69 -83 0
-34 -69 -90 0
-34 -69 -97 0
-34 -69 -104 0
-34 -76 -83 0
-34 -76 -90 0
-34 -76 -97 0
-34 -76 -104 0
-34 -83 -90 0
-34 -83 -97 0
-34 -83 -104 0
-34 -90 -97 0
-34 -90 -104 0
-34 -97 -104 0
-41 -48 -55 0
-41 -48 -62 0
-41 -48 -69 0
-41 -48 -76 0
-41 -48 -83 0
-41 -48 -90 0
-41 -48 -97 0
-41 -48 -104 0
-41 -55 -62 0
-41 -55 -69 0
-41 -55 -76 0
-41 -55 -83 0
-41 -55 -90 0
-41 -55 -97 0
-41 -55 -104 0
-41 -62 -69 0
-41 -62 -76 0
-41 -62 -83 0
-41 -62 -90 0
-41 -62 -97 0
-41 -62 -104 0
-41 -69 -76 0
-41 -69 -83 0
-41 -69 -90 0
-41 -69 -97 0
-41 -69 -104 0
-41 -76 -83 0
-41 -76 -90 0
-41 -76 -97 0
-41 -76 -104 0
-41 -83 -90 0
-41 -83 -97 0
-41 -83 -104 0
-41 -90 -97 0
-41 -90 -104 0
-41 -97 -104 0
-48 -55 -62 0
-48 -55 -69 0
-48 -55 -76 0
-48 -55 -83 0
-48 -55 -90 0
-48 -55 -97 0
-48 -55 -104 0
-48 -62 -69 0
-48 -62 -76 0
-48 -62 -83 0
-48 -62 -90 0
-48 -62 -97 0
-48 -62 -104 0
-48 -69 -76 0
-48 -69 -83 0
-48 -69 -90 0
-48 -69 -97 0
-48 -69 -104 0
-48 -76 -83 0
-48 -76 -90 0
-48 -76 -97 0
-48 -76 -104 0
-48 -83 -90 0
-48 -83 -97 0
-48 -83 -104 0
-48 -90 -97 0
-48 -90 -104 0
-48 -97 -104 0
-55 -62 -69 0
-55 -62 -76 0
-55 -62 -83 0
-55 -62 -90 0
-55 -62 -97 0
-55 -62 -104 0
-55 -69 -76 0
-55 -69 -83 0
-55 -69 -90 0
-55 -69 -97 0
-55 -69 -104 0
-55 -76 -83 0
-55 -76 -90 0
-55 -76 -97 0
-55 -76 -104 0
-55 -83 -90 0
-55 -83 -97 0
-55 -83 -104 0
-55 -90 -97 0
-55 -90 -104 0
-55 -97 -104 0
-62 -69 -76 0
-62 -69 -83 0
-62 -69 -90 0
-62 -69 -97 0
-62 -69 -104 0
-62 -76 -83 0
-62 -76 -90 0
-62 -76 -97 0
-62 -76 -104 0
-62 -83 -90 0
-62 -83 -97 0
-62 -83 -104 0
-62 -90 -97 0
-62 -90 -104 0
-62 -97 -104 0
-69 -76 -83 0
-69 -76 -90 0
-69 -76 -97 0
-69 -76 -104 0
-69 -83 -90 0
-69 -83 -97 0
-69 -83 -104 0
-69 -90 -97 0
-69 -90 -104 0
-69 -97 -104 0
-76 -83 -90 0
-76 -83 -97 0
-76 -83 -104 0
-76 -90 -97 0
-76 -90 -104 0
-76 -97 -104 0
-83 -90 -97 0
-83 -90 -104 0
-83 -97 -104 0
-90 -97 -104 0
-7 -14 -21 0
-7 -14 -28 0
-7 -14 -35 0
-7 -14 -42 0
-7 -14 -49 0
-7 -14 -56 0
-7 -14 -63 0
-7 -14 -70 0
-7 -14 -77 0
-7 -14 -84 0
-7 -14 -91 0
-7 -14 -98 0
-7 -14 -105 0
-7 -21 -28 0
-7 -21 -35 0
-7 -21 -42 0
-7 -21 -49 0
-7 -21 -56 0
-7 -21 -63 0
-7 -21 -70 0
-7 -21 -77 0
-7 -21 -84 0
-7 -21 -91 0
-7 -21 -98 0
-7 -21 -105 0
-7 -28 -35 0
-7 -28 -42 0
-7 -28 -49 0
-7 -28 -56 0
-7 -28 -63 0
-7 -28 -70 0
-7 -28 -77 0
-7 -28 -84 0
-7 -28 -91 0
-7 -28 -98 0
-7 -28 -105 0
-7 -35 -42 0
-7 -35 -49 0
-7 -35 -56 0
-7 -35 -63 0
-7 -35 -70 0
-7 -35 -77 0
-7 -35 -84 0
-7 -35 -91 0
-7 -35 -98 0
-7 -35 -105 0
-7 -42 -49 0
-7 -42 -56 0
-7 -42 -63 0
-7 -42 -70 0
-7 -42 -77 0
-7 -42 -84 0
-7 -42 -91 0
-7 -42 -98 0
-7 -42 -105 0
-7 -49 -56 0
-7 -49 -63 0
-7 -49 -70 0
-7 -49 -77 0
-7 -49 -84 0
-7 -49 -91 0
-7 -49 -98 0
-7 -49 -105 0
-7 -56 -63 0
-7 -56 -70 0
-7 -56 -77 0
-7 -56 -84 0
-7 -56 -91 0
-7 -56 -98 0
-7 -56 -105 0
-7 -63 -70 0
-7 -63 -77 0
-7 -63 -84 0
-7 -63 -91 0
-7 -63 -98 0
-7 -63 -105 0
-7 -70 -77 0
-7 -70 -84 0
-7 -70 -91 0
-7 -70 -98 0
-7 -70 -105 0
-7 -77 -84 0
-7 -77 -91 0
-7 -77 -98 0
-7 -77 -105 0
-7 -84 -91 0
-7 -84 -98 0
-7 -84 -105 0
-7 -91 -98 0
-7 -91 -105 0
-7 -98 -105 0
-14 -21 -28 0
-14 -21 -35 0
-14 -21 -42 0
-14 -21 -49 0
-14 -21 -56 0
-14 -21 -63 0
-14 -21 -70 0
-14 -21 -77 0
-14 -21 -84 0
-14 -21 -91 0
-14 -21 -98 0
-14 -21 -105 0
-14 -28 -35 0
-14 -28 -42 0
-14 -28 -49 0
-14 -28 -56 0
-14 -28 -63 0
-14 -28 -70 0
-14 -28 -77 0
-14 -28 -84 0
-14 -28 -91 0
-14 -28 -98 0
-14 -28 -105 0
-14 -35 -42 0
-14 -35 -49 0
-14 -35 -56 0
-14 -35 -63 0
-14 -35 -70 0
-14 -35 -77 0
-14 -35 -84 0
-14 -35 -91 0
-14 -35 -98 0
-14 -35 -105 0
-14 -42 -49 0
-14 -42 -56 0
-14 -42 -63 0
-14 -42 -70 0
-14 -42 -77 0
-14 -42 -84 0
-14 -42 -91 0
-14 -42 -98 0
-14 -42 -105 0
-14 -49 -56 0
-14 -49 -63 0
-14 -49 -70 0
-14 -49 -77 0
-14 -49 -84 0
-14 -49 -91 0
-14 -49 -98 0
-14 -49 -105 0
-14 -56 -63 0
-14 -56 -70 0
-14 -56 -77 0
-14 -56 -84 0
-14 -56 -91 0
-14 -56 -98 0
-14 -56 -105 0
-14 -63 -70 0
-14 -63 -77 0
-14 -63 -84 0
-14 -63 -91 0
-14 -63 -98 0
-14 -63 -105 0
-14 -70 -77 0
-14 -70 -84 0
-14 -70 -91 0
-14 -70 -98 0
-14 -70 -105 0
-14 -77 -84 0
-14 -77 -91 0
-14 -77 -98 0
-14 -77 -105 0
-14 -84 -91 0
-14 -84 -98 0
-14 -84 -105 0
-14 -91 -98 0
-14 -91 -105 0
-14 -98 -105 0
-21 -28 -35 0
-21 -28 -42 0
-21 -28 -49 0
-21 -28 -56 0
-21 -28 -63 0
-21 -28 -70 0
-21 -28 -77 0
-21 -28 -84 0
-21 -28 -91 0
-21 -28 -98 0
-21 -28 -105 0
-21 -35 -42 0
-21 -35 -49 0
-21 -35 -56 0
-21 -35 -63 0
-21 -35 -70 0
-21 -35 -77 0
-21 -35 -84 0
-21 -35 -91 0
-21 -35 -98 0
-21 -35 -105 0
-21 -42 -49 0
-21 -42 -56 0
-21 -42 -63 0
-21 -42 -70 0
-21 -42 -77 0
-21 -42 -84 0
-21 -42 -91 0
-21 -42 -98 0
-21 -42 -105 0
-21 -49 -56 0
-21 -49 -63 0
-21 -49 -70 0
-21 -49 -77 0
-21 -49 -84 0
-21 -49 -91 0
-21 -49 -98 0
-21 -49 -105 0
-21 -56 -63 0
-21 -56 -70 0
-21 -56 -77 0
-21 -56 -84 0
-21 -56 -91 0
-21 -56 -98 0
-21 -56 -105 0
-21 -63 -70 0
-21 -63 -77 0
-21 -63 -84 0
-21 -63 -91 0
-21 -63 -98 0
-21 -63 -105 0
-21 -70 -77 0
-21 -70 -84 0
-21 -70 -91 0
-21 -70 -98 0
-21 -70 -105 0
-21 -77 -84 0
-21 -77 -91 0
-21 -77 -98 0
-21 -77 -105 0
-21 -84 -91 0
-21 -84 -98 0
-21 -84 -105 0
-21 -91 -98 0
-21 -91 -105 0
-21 -98 -105 0
-28 -35 -42 0
-28 -35 -49 0
-28 -35 -56 0
-28 -35 -63 0
-28 -35 -70 0
-28 -35 -77 0
-28 -35 -84 0
-28 -35 -91 0
-28 -35 -98 0
-28 -35 -105 0
-28 -42 -49 0
-28 -42 -56 0
-28 -42 -63 0
-28 -42 -70 0
-28 -42 -77 0
-28 -42 -84 0
-28 -42 -91 0
-28 -42 -98 0
-28 -42 -105 0
-28 -49 -56 0
-28 -49 -63 0
-28 -49 -70 0
-28 -49 -77 0
-28 -49 -84 0
-28 -49 -91 0
-28 -49 -98 0
-28 -49 -105 0
-28 -56 -63 0
-28 -56 -70 0
-28 -56 -77 0
-28 -56 -84 0
-28 -56 -91 0
-28 -56 -98 0
-28 -56 -105 0
-28 -63 -70 0
-28 -63 -77 0
-28 -63 -84 0
-28 -63 -91 0
-28 -63 -98 0
-28 -63 -105 0
-28 -70 -77 0
-28 -70 -84 0
-28 -70 -91 0
-28 -70 -98 0
-28 -70 -105 0
-28 -77 -84 0
-28 -77 -91 0
-28 -77 -98 0
-28 -77 -105 0
-28 -84 -91 0
-28 -84 -98 0
-28 -84 -105 0
-28 -91 -98 0
-28 -91 -105 0
-28 -98 -105 0
-35 -42 -49 0
-35 -42 -56 0
-35 -42 -63 0
-35 -42 -70 0
-35 -42 -77 0
-35 -42 -84 0
-35 -42 -91 0
-35 -42 -98 0
-35 -42 -105 0
-35 -49 -56 0
-35 -49 -63 0
-35 -49 -70 0
-35 -49 -77 0
-35 -49 -84 0
-35 -49 -91 0
-35 -49 -98 0
-35 -49 -105 0
-35 -56 -63 0
-35 -56 -70 0
-35 -56 -77 0
-35 -56 -84 0
-35 -56 -91 0
-35 -56 -98 0
-35 -56 -105 0
-35 -63 -70 0
-35 -63 -77 0
-35 -63 -84 0
-35 -63 -91 0
-35 -63 -98 0
-35 -63 -105 0
-35 -70 -77 0
-35 -70 -84 0
-35 -70 -91 0
-35 -70 -98 0
-35 -70 -105 0
-35 -77 -84 0
-35 -77 -91 0
-35 -77 -98 0
-35 -77 -105 0
-35 -84 -91 0
-35 -84 -98 0
-35 -84 -105 0
-35 -91 -98 0
-35 -91 -105 0
-35 -98 -105 0
-42 -49 -56 0
-42 -49 -63 0
-42 -49 -70 0
-42 -49 -77 0
-42 -49 -84 0
-42 -49 -91 0
-42 -49 -98 0
-42 -49 -105 0
-42 -56 -63 0
-42 -56 -70 0
-42 -56 -77 0
-42 -56 -84 0
-42 -56 -91 0
-42 -56 -98 0
-42 -56 -105 0
-42 -63 -70 0
-42 -63 -77 0
-42 -63 -84 0
-42 -63 -91 0
-42 -63 -98 0
-42 -63 -105 0
-42 -70 -77 0
-42 -70 -84 0
-42 -70 -91 0
-42 -70 -98 0
-42 -70 -105 0
-42 -77 -84 0
-42 -77 -91 0
-42 -77 -98 0
-42 -77 -105 0
-42 -84 -91 0
-42 -84 -98 0
-42 -84 -105 0
-42 -91 -98 0
-42 -91 -105 0
-42 -98 -105 0
-49 -56 -63 0
-49 -56 -70 0
-49 -56 -77 0
-49 -56 -84 0
-49 -56 -91 0
-49 -56 -98 0
-49 -56 -105 0
-49 -63 -70 0
-49 -63 -77 0
-49 -63 -84 0
-49 -63 -91 0
-49 -63 -98 0
-49 -63 -105 0
-49 -70 -77 0
-49 -70 -84 0
-49 -70 -91 0
-49 -70 -98 0
-49 -70 -105 0
-49 -77 -84 0
-49 -77 -91 0
-49 -77 -98 0
-49 -77 -105 0
-49 -84 -91 0
-49 -84 -98 0
-49 -84 -105 0
-49 -91 -98 0
-49 -91 -105 0
-49 -98 -105 0
-56 -63 -70 0
-56 -63 -77 0
-56 -63 -84 0
-56 -63 -91 0
-56 -63 -98 0
-56 -63 -105 0
-56 -70 -77 0
-56 -70 -84 0
-56 -70 -91 0
-56 -70 -98 0
-56 -70 -105 0
-56 -77 -84 0
-56 -77 -91 0
-56 -77 -98 0
-56 -77 -105 0
-56 -84 -91 0
-56 -84 -98 0
-56 -84 -105 0
-56 -91 -98 0
-56 -91 -105 0
-56 -98 -105 0
-63 -70 -77 0
-63 -70 -84 0
-63 -70 -91 0
-63 -70 -98 0
-63 -70 -105 0
-63 -77 -84 0
-63 -77 -91 0
-63 -77 -98 0
-63 -77 -105 0
-63 -84 -91 0
-63 -84 -98 0
-63 -84 -105 0
-63 -91 -98 0
-63 -91 -105 0
-63 -98 -105 0
-70 -77 -84 0
-70 -77 -91 0
-70 -77 -98 0
-70 -77 -105 0
-70 -84 -91 0
-70 -84 -98 0
-70 -84 -105 0
-70 -91 -98 0
-70 -91 -105 0
-70 -98 -105 0
-77 -84 -91 0
-77 -84 -98 0
-77 -84 -105 0
-77 -91 -98 0
-77 -91 -105 0
-77 -98 -105 0
-84 -91 -98 0
-84 -91 -105 0
-84 -98 -105 0
-91 -98 -105 0
