c Phase 3 generated performance instance
c family=hidden_pigeonhole
c scale=6
c variant=default
c noise_percent=0
c expected=UNSATISFIABLE
p cnf 177 288
-1 -2 31 0
-1 -2 -31 0
-1 -3 32 0
-1 -3 -32 0
-1 -4 33 0
-1 -4 -33 0
-1 -5 34 0
-1 -5 -34 0
-2 -3 35 0
-2 -3 -35 0
-2 -4 36 0
-2 -4 -36 0
-2 -5 37 0
-2 -5 -37 0
-3 -4 38 0
-3 -4 -38 0
-3 -5 39 0
-3 -5 -39 0
-4 -5 40 0
-4 -5 -40 0
1 2 41 0
3 -41 42 0
4 5 -42 0
-6 -7 43 0
-6 -7 -43 0
-6 -8 44 0
-6 -8 -44 0
-6 -9 45 0
-6 -9 -45 0
-6 -10 46 0
-6 -10 -46 0
-7 -8 47 0
-7 -8 -47 0
-7 -9 48 0
-7 -9 -48 0
-7 -10 49 0
-7 -10 -49 0
-8 -9 50 0
-8 -9 -50 0
-8 -10 51 0
-8 -10 -51 0
-9 -10 52 0
-9 -10 -52 0
6 7 53 0
8 -53 54 0
9 10 -54 0
-11 -12 55 0
-11 -12 -55 0
-11 -13 56 0
-11 -13 -56 0
-11 -14 57 0
-11 -14 -57 0
-11 -15 58 0
-11 -15 -58 0
-12 -13 59 0
-12 -13 -59 0
-12 -14 60 0
-12 -14 -60 0
-12 -15 61 0
-12 -15 -61 0
-13 -14 62 0
-13 -14 -62 0
-13 -15 63 0
-13 -15 -63 0
-14 -15 64 0
-14 -15 -64 0
11 12 65 0
13 -65 66 0
14 15 -66 0
-16 -17 67 0
-16 -17 -67 0
-16 -18 68 0
-16 -18 -68 0
-16 -19 69 0
-16 -19 -69 0
-16 -20 70 0
-16 -20 -70 0
-17 -18 71 0
-17 -18 -71 0
-17 -19 72 0
-17 -19 -72 0
-17 -20 73 0
-17 -20 -73 0
-18 -19 74 0
-18 -19 -74 0
-18 -20 75 0
-18 -20 -75 0
-19 -20 76 0
-19 -20 -76 0
16 17 77 0
18 -77 78 0
19 20 -78 0
-21 -22 79 0
-21 -22 -79 0
-21 -23 80 0
-21 -23 -80 0
-21 -24 81 0
-21 -24 -81 0
-21 -25 82 0
-21 -25 -82 0
-22 -23 83 0
-22 -23 -83 0
-22 -24 84 0
-22 -24 -84 0
-22 -25 85 0
-22 -25 -85 0
-23 -24 86 0
-23 -24 -86 0
-23 -25 87 0
-23 -25 -87 0
-24 -25 88 0
-24 -25 -88 0
21 22 89 0
23 -89 90 0
24 25 -90 0
-26 -27 91 0
-26 -27 -91 0
-26 -28 92 0
-26 -28 -92 0
-26 -29 93 0
-26 -29 -93 0
-26 -30 94 0
-26 -30 -94 0
-27 -28 95 0
-27 -28 -95 0
-27 -29 96 0
-27 -29 -96 0
-27 -30 97 0
-27 -30 -97 0
-28 -29 98 0
-28 -29 -98 0
-28 -30 99 0
-28 -30 -99 0
-29 -30 100 0
-29 -30 -100 0
26 27 101 0
28 -101 102 0
29 30 -102 0
-1 -6 103 0
-1 -6 -103 0
-1 -11 104 0
-1 -11 -104 0
-1 -16 105 0
-1 -16 -105 0
-1 -21 106 0
-1 -21 -106 0
-1 -26 107 0
-1 -26 -107 0
-6 -11 108 0
-6 -11 -108 0
-6 -16 109 0
-6 -16 -109 0
-6 -21 110 0
-6 -21 -110 0
-6 -26 111 0
-6 -26 -111 0
-11 -16 112 0
-11 -16 -112 0
-11 -21 113 0
-11 -21 -113 0
-11 -26 114 0
-11 -26 -114 0
-16 -21 115 0
-16 -21 -115 0
-16 -26 116 0
-16 -26 -116 0
-21 -26 117 0
-21 -26 -117 0
-2 -7 118 0
-2 -7 -118 0
-2 -12 119 0
-2 -12 -119 0
-2 -17 120 0
-2 -17 -120 0
-2 -22 121 0
-2 -22 -121 0
-2 -27 122 0
-2 -27 -122 0
-7 -12 123 0
-7 -12 -123 0
-7 -17 124 0
-7 -17 -124 0
-7 -22 125 0
-7 -22 -125 0
-7 -27 126 0
-7 -27 -126 0
-12 -17 127 0
-12 -17 -127 0
-12 -22 128 0
-12 -22 -128 0
-12 -27 129 0
-12 -27 -129 0
-17 -22 130 0
-17 -22 -130 0
-17 -27 131 0
-17 -27 -131 0
-22 -27 132 0
-22 -27 -132 0
-3 -8 133 0
-3 -8 -133 0
-3 -13 134 0
-3 -13 -134 0
-3 -18 135 0
-3 -18 -135 0
-3 -23 136 0
-3 -23 -136 0
-3 -28 137 0
-3 -28 -137 0
-8 -13 138 0
-8 -13 -138 0
-8 -18 139 0
-8 -18 -139 0
-8 -23 140 0
-8 -23 -140 0
-8 -28 141 0
-8 -28 -141 0
-13 -18 142 0
-13 -18 -142 0
-13 -23 143 0
-13 -23 -143 0
-13 -28 144 0
-13 -28 -144 0
-18 -23 145 0
-18 -23 -145 0
-18 -28 146 0
-18 -28 -146 0
-23 -28 147 0
-23 -28 -147 0
-4 -9 148 0
-4 -9 -148 0
-4 -14 149 0
-4 -14 -149 0
-4 -19 150 0
-4 -19 -150 0
-4 -24 151 0
-4 -24 -151 0
-4 -29 152 0
-4 -29 -152 0
-9 -14 153 0
-9 -14 -153 0
-9 -19 154 0
-9 -19 -154 0
-9 -24 155 0
-9 -24 -155 0
-9 -29 156 0
-9 -29 -156 0
-14 -19 157 0
-14 -19 -157 0
-14 -24 158 0
-14 -24 -158 0
-14 -29 159 0
-14 -29 -159 0
-19 -24 160 0
-19 -24 -160 0
-19 -29 161 0
-19 -29 -161 0
-24 -29 162 0
-24 -29 -162 0
-5 -10 163 0
-5 -10 -163 0
-5 -15 164 0
-5 -15 -164 0
-5 -20 165 0
-5 -20 -165 0
-5 -25 166 0
-5 -25 -166 0
-5 -30 167 0
-5 -30 -167 0
-10 -15 168 0
-10 -15 -168 0
-10 -20 169 0
-10 -20 -169 0
-10 -25 170 0
-10 -25 -170 0
-10 -30 171 0
-10 -30 -171 0
-15 -20 172 0
-15 -20 -172 0
-15 -25 173 0
-15 -25 -173 0
-15 -30 174 0
-15 -30 -174 0
-20 -25 175 0
-20 -25 -175 0
-20 -30 176 0
-20 -30 -176 0
-25 -30 177 0
-25 -30 -177 0
