c Phase 3 generated performance instance
c family=hidden_pigeonhole
c scale=10
c variant=default
c noise_percent=0
c expected=UNSATISFIABLE
p cnf 915 1600
-1 -2 91 0
-1 -2 -91 0
-1 -3 92 0
-1 -3 -92 0
-1 -4 93 0
-1 -4 -93 0
-1 -5 94 0
-1 -5 -94 0
-1 -6 95 0
-1 -6 -95 0
-1 -7 96 0
-1 -7 -96 0
-1 -8 97 0
-1 -8 -97 0
-1 -9 98 0
-1 -9 -98 0
-2 -3 99 0
-2 -3 -99 0
-2 -4 100 0
-2 -4 -100 0
-2 -5 101 0
-2 -5 -101 0
-2 -6 102 0
-2 -6 -102 0
-2 -7 103 0
-2 -7 -103 0
-2 -8 104 0
-2 -8 -104 0
-2 -9 105 0
-2 -9 -105 0
-3 -4 106 0
-3 -4 -106 0
-3 -5 107 0
-3 -5 -107 0
-3 -6 108 0
-3 -6 -108 0
-3 -7 109 0
-3 -7 -109 0
-3 -8 110 0
-3 -8 -110 0
-3 -9 111 0
-3 -9 -111 0
-4 -5 112 0
-4 -5 -112 0
-4 -6 113 0
-4 -6 -113 0
-4 -7 114 0
-4 -7 -114 0
-4 -8 115 0
-4 -8 -115 0
-4 -9 116 0
-4 -9 -116 0
-5 -6 117 0
-5 -6 -117 0
-5 -7 118 0
-5 -7 -118 0
-5 -8 119 0
-5 -8 -119 0
-5 -9 120 0
-5 -9 -120 0
-6 -7 121 0
-6 -7 -121 0
-6 -8 122 0
-6 -8 -122 0
-6 -9 123 0
-6 -9 -123 0
-7 -8 124 0
-7 -8 -124 0
-7 -9 125 0
-7 -9 -125 0
-8 -9 126 0
-8 -9 -126 0
1 2 127 0
3 -127 128 0
4 -128 129 0
5 -129 130 0
6 -130 131 0
7 -131 132 0
8 9 -132 0
-10 -11 133 0
-10 -11 -133 0
-10 -12 134 0
-10 -12 -134 0
-10 -13 135 0
-10 -13 -135 0
-10 -14 136 0
-10 -14 -136 0
-10 -15 137 0
-10 -15 -137 0
-10 -16 138 0
-10 -16 -138 0
-10 -17 139 0
-10 -17 -139 0
-10 -18 140 0
-10 -18 -140 0
-11 -12 141 0
-11 -12 -141 0
-11 -13 142 0
-11 -13 -142 0
-11 -14 143 0
-11 -14 -143 0
-11 -15 144 0
-11 -15 -144 0
-11 -16 145 0
-11 -16 -145 0
-11 -17 146 0
-11 -17 -146 0
-11 -18 147 0
-11 -18 -147 0
-12 -13 148 0
-12 -13 -148 0
-12 -14 149 0
-12 -14 -149 0
-12 -15 150 0
-12 -15 -150 0
-12 -16 151 0
-12 -16 -151 0
-12 -17 152 0
-12 -17 -152 0
-12 -18 153 0
-12 -18 -153 0
-13 -14 154 0
-13 -14 -154 0
-13 -15 155 0
-13 -15 -155 0
-13 -16 156 0
-13 -16 -156 0
-13 -17 157 0
-13 -17 -157 0
-13 -18 158 0
-13 -18 -158 0
-14 -15 159 0
-14 -15 -159 0
-14 -16 160 0
-14 -16 -160 0
-14 -17 161 0
-14 -17 -161 0
-14 -18 162 0
-14 -18 -162 0
-15 -16 163 0
-15 -16 -163 0
-15 -17 164 0
-15 -17 -164 0
-15 -18 165 0
-15 -18 -165 0
-16 -17 166 0
-16 -17 -166 0
-16 -18 167 0
-16 -18 -167 0
-17 -18 168 0
-17 -18 -168 0
10 11 169 0
12 -169 170 0
13 -170 171 0
14 -171 172 0
15 -172 173 0
16 -173 174 0
17 18 -174 0
-19 -20 175 0
-19 -20 -175 0
-19 -21 176 0
-19 -21 -176 0
-19 -22 177 0
-19 -22 -177 0
-19 -23 178 0
-19 -23 -178 0
-19 -24 179 0
-19 -24 -179 0
-19 -25 180 0
-19 -25 -180 0
-19 -26 181 0
-19 -26 -181 0
-19 -27 182 0
-19 -27 -182 0
-20 -21 183 0
-20 -21 -183 0
-20 -22 184 0
-20 -22 -184 0
-20 -23 185 0
-20 -23 -185 0
-20 -24 186 0
-20 -24 -186 0
-20 -25 187 0
-20 -25 -187 0
-20 -26 188 0
-20 -26 -188 0
-20 -27 189 0
-20 -27 -189 0
-21 -22 190 0
-21 -22 -190 0
-21 -23 191 0
-21 -23 -191 0
-21 -24 192 0
-21 -24 -192 0
-21 -25 193 0
-21 -25 -193 0
-21 -26 194 0
-21 -26 -194 0
-21 -27 195 0
-21 -27 -195 0
-22 -23 196 0
-22 -23 -196 0
-22 -24 197 0
-22 -24 -197 0
-22 -25 198 0
-22 -25 -198 0
-22 -26 199 0
-22 -26 -199 0
-22 -27 200 0
-22 -27 -200 0
-23 -24 201 0
-23 -24 -201 0
-23 -25 202 0
-23 -25 -202 0
-23 -26 203 0
-23 -26 -203 0
-23 -27 204 0
-23 -27 -204 0
-24 -25 205 0
-24 -25 -205 0
-24 -26 206 0
-24 -26 -206 0
-24 -27 207 0
-24 -27 -207 0
-25 -26 208 0
-25 -26 -208 0
-25 -27 209 0
-25 -27 -209 0
-26 -27 210 0
-26 -27 -210 0
19 20 211 0
21 -211 212 0
22 -212 213 0
23 -213 214 0
24 -214 215 0
25 -215 216 0
26 27 -216 0
-28 -29 217 0
-28 -29 -217 0
-28 -30 218 0
-28 -30 -218 0
-28 -31 219 0
-28 -31 -219 0
-28 -32 220 0
-28 -32 -220 0
-28 -33 221 0
-28 -33 -221 0
-28 -34 222 0
-28 -34 -222 0
-28 -35 223 0
-28 -35 -223 0
-28 -36 224 0
-28 -36 -224 0
-29 -30 225 0
-29 -30 -225 0
-29 -31 226 0
-29 -31 -226 0
-29 -32 227 0
-29 -32 -227 0
-29 -33 228 0
-29 -33 -228 0
-29 -34 229 0
-29 -34 -229 0
-29 -35 230 0
-29 -35 -230 0
-29 -36 231 0
-29 -36 -231 0
-30 -31 232 0
-30 -31 -232 0
-30 -32 233 0
-30 -32 -233 0
-30 -33 234 0
-30 -33 -234 0
-30 -34 235 0
-30 -34 -235 0
-30 -35 236 0
-30 -35 -236 0
-30 -36 237 0
-30 -36 -237 0
-31 -32 238 0
-31 -32 -238 0
-31 -33 239 0
-31 -33 -239 0
-31 -34 240 0
-31 -34 -240 0
-31 -35 241 0
-31 -35 -241 0
-31 -36 242 0
-31 -36 -242 0
-32 -33 243 0
-32 -33 -243 0
-32 -34 244 0
-32 -34 -244 0
-32 -35 245 0
-32 -35 -245 0
-32 -36 246 0
-32 -36 -246 0
-33 -34 247 0
-33 -34 -247 0
-33 -35 248 0
-33 -35 -248 0
-33 -36 249 0
-33 -36 -249 0
-34 -35 250 0
-34 -35 -250 0
-34 -36 251 0
-34 -36 -251 0
-35 -36 252 0
-35 -36 -252 0
28 29 253 0
30 -253 254 0
31 -254 255 0
32 -255 256 0
33 -256 257 0
34 -257 258 0
35 36 -258 0
-37 -38 259 0
-37 -38 -259 0
-37 -39 260 0
-37 -39 -260 0
-37 -40 261 0
-37 -40 -261 0
-37 -41 262 0
-37 -41 -262 0
-37 -42 263 0
-37 -42 -263 0
-37 -43 264 0
-37 -43 -264 0
-37 -44 265 0
-37 -44 -265 0
-37 -45 266 0
-37 -45 -266 0
-38 -39 267 0
-38 -39 -267 0
-38 -40 268 0
-38 -40 -268 0
-38 -41 269 0
-38 -41 -269 0
-38 -42 270 0
-38 -42 -270 0
-38 -43 271 0
-38 -43 -271 0
-38 -44 272 0
-38 -44 -272 0
-38 -45 273 0
-38 -45 -273 0
-39 -40 274 0
-39 -40 -274 0
-39 -41 275 0
-39 -41 -275 0
-39 -42 276 0
-39 -42 -276 0
-39 -43 277 0
-39 -43 -277 0
-39 -44 278 0
-39 -44 -278 0
-39 -45 279 0
-39 -45 -279 0
-40 -41 280 0
-40 -41 -280 0
-40 -42 281 0
-40 -42 -281 0
-40 -43 282 0
-40 -43 -282 0
-40 -44 283 0
-40 -44 -283 0
-40 -45 284 0
-40 -45 -284 0
-41 -42 285 0
-41 -42 -285 0
-41 -43 286 0
-41 -43 -286 0
-41 -44 287 0
-41 -44 -287 0
-41 -45 288 0
-41 -45 -288 0
-42 -43 289 0
-42 -43 -289 0
-42 -44 290 0
-42 -44 -290 0
-42 -45 291 0
-42 -45 -291 0
-43 -44 292 0
-43 -44 -292 0
-43 -45 293 0
-43 -45 -293 0
-44 -45 294 0
-44 -45 -294 0
37 38 295 0
39 -295 296 0
40 -296 297 0
41 -297 298 0
42 -298 299 0
43 -299 300 0
44 45 -300 0
-46 -47 301 0
-46 -47 -301 0
-46 -48 302 0
-46 -48 -302 0
-46 -49 303 0
-46 -49 -303 0
-46 -50 304 0
-46 -50 -304 0
-46 -51 305 0
-46 -51 -305 0
-46 -52 306 0
-46 -52 -306 0
-46 -53 307 0
-46 -53 -307 0
-46 -54 308 0
-46 -54 -308 0
-47 -48 309 0
-47 -48 -309 0
-47 -49 310 0
-47 -49 -310 0
-47 -50 311 0
-47 -50 -311 0
-47 -51 312 0
-47 -51 -312 0
-47 -52 313 0
-47 -52 -313 0
-47 -53 314 0
-47 -53 -314 0
-47 -54 315 0
-47 -54 -315 0
-48 -49 316 0
-48 -49 -316 0
-48 -50 317 0
-48 -50 -317 0
-48 -51 318 0
-48 -51 -318 0
-48 -52 319 0
-48 -52 -319 0
-48 -53 320 0
-48 -53 -320 0
-48 -54 321 0
-48 -54 -321 0
-49 -50 322 0
-49 -50 -322 0
-49 -51 323 0
-49 -51 -323 0
-49 -52 324 0
-49 -52 -324 0
-49 -53 325 0
-49 -53 -325 0
-49 -54 326 0
-49 -54 -326 0
-50 -51 327 0
-50 -51 -327 0
-50 -52 328 0
-50 -52 -328 0
-50 -53 329 0
-50 -53 -329 0
-50 -54 330 0
-50 -54 -330 0
-51 -52 331 0
-51 -52 -331 0
-51 -53 332 0
-51 -53 -332 0
-51 -54 333 0
-51 -54 -333 0
-52 -53 334 0
-52 -53 -334 0
-52 -54 335 0
-52 -54 -335 0
-53 -54 336 0
-53 -54 -336 0
46 47 337 0
48 -337 338 0
49 -338 339 0
50 -339 340 0
51 -340 341 0
52 -341 342 0
53 54 -342 0
-55 -56 343 0
-55 -56 -343 0
-55 -57 344 0
-55 -57 -344 0
-55 -58 345 0
-55 -58 -345 0
-55 -59 346 0
-55 -59 -346 0
-55 -60 347 0
-55 -60 -347 0
-55 -61 348 0
-55 -61 -348 0
-55 -62 349 0
-55 -62 -349 0
-55 -63 350 0
-55 -63 -350 0
-56 -57 351 0
-56 -57 -351 0
-56 -58 352 0
-56 -58 -352 0
-56 -59 353 0
-56 -59 -353 0
-56 -60 354 0
-56 -60 -354 0
-56 -61 355 0
-56 -61 -355 0
-56 -62 356 0
-56 -62 -356 0
-56 -63 357 0
-56 -63 -357 0
-57 -58 358 0
-57 -58 -358 0
-57 -59 359 0
-57 -59 -359 0
-57 -60 360 0
-57 -60 -360 0
-57 -61 361 0
-57 -61 -361 0
-57 -62 362 0
-57 -62 -362 0
-57 -63 363 0
-57 -63 -363 0
-58 -59 364 0
-58 -59 -364 0
-58 -60 365 0
-58 -60 -365 0
-58 -61 366 0
-58 -61 -366 0
-58 -62 367 0
-58 -62 -367 0
-58 -63 368 0
-58 -63 -368 0
-59 -60 369 0
-59 -60 -369 0
-59 -61 370 0
-59 -61 -370 0
-59 -62 371 0
-59 -62 -371 0
-59 -63 372 0
-59 -63 -372 0
-60 -61 373 0
-60 -61 -373 0
-60 -62 374 0
-60 -62 -374 0
-60 -63 375 0
-60 -63 -375 0
-61 -62 376 0
-61 -62 -376 0
-61 -63 377 0
-61 -63 -377 0
-62 -63 378 0
-62 -63 -378 0
55 56 379 0
57 -379 380 0
58 -380 381 0
59 -381 382 0
60 -382 383 0
61 -383 384 0
62 63 -384 0
-64 -65 385 0
-64 -65 -385 0
-64 -66 386 0
-64 -66 -386 0
-64 -67 387 0
-64 -67 -387 0
-64 -68 388 0
-64 -68 -388 0
-64 -69 389 0
-64 -69 -389 0
-64 -70 390 0
-64 -70 -390 0
-64 -71 391 0
-64 -71 -391 0
-64 -72 392 0
-64 -72 -392 0
-65 -66 393 0
-65 -66 -393 0
-65 -67 394 0
-65 -67 -394 0
-65 -68 395 0
-65 -68 -395 0
-65 -69 396 0
-65 -69 -396 0
-65 -70 397 0
-65 -70 -397 0
-65 -71 398 0
-65 -71 -398 0
-65 -72 399 0
-65 -72 -399 0
-66 -67 400 0
-66 -67 -400 0
-66 -68 401 0
-66 -68 -401 0
-66 -69 402 0
-66 -69 -402 0
-66 -70 403 0
-66 -70 -403 0
-66 -71 404 0
-66 -71 -404 0
-66 -72 405 0
-66 -72 -405 0
-67 -68 406 0
-67 -68 -406 0
-67 -69 407 0
-67 -69 -407 0
-67 -70 408 0
-67 -70 -408 0
-67 -71 409 0
-67 -71 -409 0
-67 -72 410 0
-67 -72 -410 0
-68 -69 411 0
-68 -69 -411 0
-68 -70 412 0
-68 -70 -412 0
-68 -71 413 0
-68 -71 -413 0
-68 -72 414 0
-68 -72 -414 0
-69 -70 415 0
-69 -70 -415 0
-69 -71 416 0
-69 -71 -416 0
-69 -72 417 0
-69 -72 -417 0
-70 -71 418 0
-70 -71 -418 0
-70 -72 419 0
-70 -72 -419 0
-71 -72 420 0
-71 -72 -420 0
64 65 421 0
66 -421 422 0
67 -422 423 0
68 -423 424 0
69 -424 425 0
70 -425 426 0
71 72 -426 0
-73 -74 427 0
-73 -74 -427 0
-73 -75 428 0
-73 -75 -428 0
-73 -76 429 0
-73 -76 -429 0
-73 -77 430 0
-73 -77 -430 0
-73 -78 431 0
-73 -78 -431 0
-73 -79 432 0
-73 -79 -432 0
-73 -80 433 0
-73 -80 -433 0
-73 -81 434 0
-73 -81 -434 0
-74 -75 435 0
-74 -75 -435 0
-74 -76 436 0
-74 -76 -436 0
-74 -77 437 0
-74 -77 -437 0
-74 -78 438 0
-74 -78 -438 0
-74 -79 439 0
-74 -79 -439 0
-74 -80 440 0
-74 -80 -440 0
-74 -81 441 0
-74 -81 -441 0
-75 -76 442 0
-75 -76 -442 0
-75 -77 443 0
-75 -77 -443 0
-75 -78 444 0
-75 -78 -444 0
-75 -79 445 0
-75 -79 -445 0
-75 -80 446 0
-75 -80 -446 0
-75 -81 447 0
-75 -81 -447 0
-76 -77 448 0
-76 -77 -448 0
-76 -78 449 0
-76 -78 -449 0
-76 -79 450 0
-76 -79 -450 0
-76 -80 451 0
-76 -80 -451 0
-76 -81 452 0
-76 -81 -452 0
-77 -78 453 0
-77 -78 -453 0
-77 -79 454 0
-77 -79 -454 0
-77 -80 455 0
-77 -80 -455 0
-77 -81 456 0
-77 -81 -456 0
-78 -79 457 0
-78 -79 -457 0
-78 -80 458 0
-78 -80 -458 0
-78 -81 459 0
-78 -81 -459 0
-79 -80 460 0
-79 -80 -460 0
-79 -81 461 0
-79 -81 -461 0
-80 -81 462 0
-80 -81 -462 0
73 74 463 0
75 -463 464 0
76 -464 465 0
77 -465 466 0
78 -466 467 0
79 -467 468 0
80 81 -468 0
-82 -83 469 0
-82 -83 -469 0
-82 -84 470 0
-82 -84 -470 0
-82 -85 471 0
-82 -85 -471 0
-82 -86 472 0
-82 -86 -472 0
-82 -87 473 0
-82 -87 -473 0
-82 -88 474 0
-82 -88 -474 0
-82 -89 475 0
-82 -89 -475 0
-82 -90 476 0
-82 -90 -476 0
-83 -84 477 0
-83 -84 -477 0
-83 -85 478 0
-83 -85 -478 0
-83 -86 479 0
-83 -86 -479 0
-83 -87 480 0
-83 -87 -480 0
-83 -88 481 0
-83 -88 -481 0
-83 -89 482 0
-83 -89 -482 0
-83 -90 483 0
-83 -90 -483 0
-84 -85 484 0
-84 -85 -484 0
-84 -86 485 0
-84 -86 -485 0
-84 -87 486 0
-84 -87 -486 0
-84 -88 487 0
-84 -88 -487 0
-84 -89 488 0
-84 -89 -488 0
-84 -90 489 0
-84 -90 -489 0
-85 -86 490 0
-85 -86 -490 0
-85 -87 491 0
-85 -87 -491 0
-85 -88 492 0
-85 -88 -492 0
-85 -89 493 0
-85 -89 -493 0
-85 -90 494 0
-85 -90 -494 0
-86 -87 495 0
-86 -87 -495 0
-86 -88 496 0
-86 -88 -496 0
-86 -89 497 0
-86 -89 -497 0
-86 -90 498 0
-86 -90 -498 0
-87 -88 499 0
-87 -88 -499 0
-87 -89 500 0
-87 -89 -500 0
-87 -90 501 0
-87 -90 -501 0
-88 -89 502 0
-88 -89 -502 0
-88 -90 503 0
-88 -90 -503 0
-89 -90 504 0
-89 -90 -504 0
82 83 505 0
84 -505 506 0
85 -506 507 0
86 -507 508 0
87 -508 509 0
88 -509 510 0
89 90 -510 0
-1 -10 511 0
-1 -10 -511 0
-1 -19 512 0
-1 -19 -512 0
-1 -28 513 0
-1 -28 -513 0
-1 -37 514 0
-1 -37 -514 0
-1 -46 515 0
-1 -46 -515 0
-1 -55 516 0
-1 -55 -516 0
-1 -64 517 0
-1 -64 -517 0
-1 -73 518 0
-1 -73 -518 0
-1 -82 519 0
-1 -82 -519 0
-10 -19 520 0
-10 -19 -520 0
-10 -28 521 0
-10 -28 -521 0
-10 -37 522 0
-10 -37 -522 0
-10 -46 523 0
-10 -46 -523 0
-10 -55 524 0
-10 -55 -524 0
-10 -64 525 0
-10 -64 -525 0
-10 -73 526 0
-10 -73 -526 0
-10 -82 527 0
-10 -82 -527 0
-19 -28 528 0
-19 -28 -528 0
-19 -37 529 0
-19 -37 -529 0
-19 -46 530 0
-19 -46 -530 0
-19 -55 531 0
-19 -55 -531 0
-19 -64 532 0
-19 -64 -532 0
-19 -73 533 0
-19 -73 -533 0
-19 -82 534 0
-19 -82 -534 0
-28 -37 535 0
-28 -37 -535 0
-28 -46 536 0
-28 -46 -536 0
-28 -55 537 0
-28 -55 -537 0
-28 -64 538 0
-28 -64 -538 0
-28 -73 539 0
-28 -73 -539 0
-28 -82 540 0
-28 -82 -540 0
-37 -46 541 0
-37 -46 -541 0
-37 -55 542 0
-37 -55 -542 0
-37 -64 543 0
-37 -64 -543 0
-37 -73 544 0
-37 -73 -544 0
-37 -82 545 0
-37 -82 -545 0
-46 -55 546 0
-46 -55 -546 0
-46 -64 547 0
-46 -64 -547 0
-46 -73 548 0
-46 -73 -548 0
-46 -82 549 0
-46 -82 -549 0
-55 -64 550 0
-55 -64 -550 0
-55 -73 551 0
-55 -73 -551 0
-55 -82 552 0
-55 -82 -552 0
-64 -73 553 0
-64 -73 -553 0
-64 -82 554 0
-64 -82 -554 0
-73 -82 555 0
-73 -82 -555 0
-2 -11 556 0
-2 -11 -556 0
-2 -20 557 0
-2 -20 -557 0
-2 -29 558 0
-2 -29 -558 0
-2 -38 559 0
-2 -38 -559 0
-2 -47 560 0
-2 -47 -560 0
-2 -56 561 0
-2 -56 -561 0
-2 -65 562 0
-2 -65 -562 0
-2 -74 563 0
-2 -74 -563 0
-2 -83 564 0
-2 -83 -564 0
-11 -20 565 0
-11 -20 -565 0
-11 -29 566 0
-11 -29 -566 0
-11 -38 567 0
-11 -38 -567 0
-11 -47 568 0
-11 -47 -568 0
-11 -56 569 0
-11 -56 -569 0
-11 -65 570 0
-11 -65 -570 0
-11 -74 571 0
-11 -74 -571 0
-11 -83 572 0
-11 -83 -572 0
-20 -29 573 0
-20 -29 -573 0
-20 -38 574 0
-20 -38 -574 0
-20 -47 575 0
-20 -47 -575 0
-20 -56 576 0
-20 -56 -576 0
-20 -65 577 0
-20 -65 -577 0
-20 -74 578 0
-20 -74 -578 0
-20 -83 579 0
-20 -83 -579 0
-29 -38 580 0
-29 -38 -580 0
-29 -47 581 0
-29 -47 -581 0
-29 -56 582 0
-29 -56 -582 0
-29 -65 583 0
-29 -65 -583 0
-29 -74 584 0
-29 -74 -584 0
-29 -83 585 0
-29 -83 -585 0
-38 -47 586 0
-38 -47 -586 0
-38 -56 587 0
-38 -56 -587 0
-38 -65 588 0
-38 -65 -588 0
-38 -74 589 0
-38 -74 -589 0
-38 -83 590 0
-38 -83 -590 0
-47 -56 591 0
-47 -56 -591 0
-47 -65 592 0
-47 -65 -592 0
-47 -74 593 0
-47 -74 -593 0
-47 -83 594 0
-47 -83 -594 0
-56 -65 595 0
-56 -65 -595 0
-56 -74 596 0
-56 -74 -596 0
-56 -83 597 0
-56 -83 -597 0
-65 -74 598 0
-65 -74 -598 0
-65 -83 599 0
-65 -83 -599 0
-74 -83 600 0
-74 -83 -600 0
-3 -12 601 0
-3 -12 -601 0
-3 -21 602 0
-3 -21 -602 0
-3 -30 603 0
-3 -30 -603 0
-3 -39 604 0
-3 -39 -604 0
-3 -48 605 0
-3 -48 -605 0
-3 -57 606 0
-3 -57 -606 0
-3 -66 607 0
-3 -66 -607 0
-3 -75 608 0
-3 -75 -608 0
-3 -84 609 0
-3 -84 -609 0
-12 -21 610 0
-12 -21 -610 0
-12 -30 611 0
-12 -30 -611 0
-12 -39 612 0
-12 -39 -612 0
-12 -48 613 0
-12 -48 -613 0
-12 -57 614 0
-12 -57 -614 0
-12 -66 615 0
-12 -66 -615 0
-12 -75 616 0
-12 -75 -616 0
-12 -84 617 0
-12 -84 -617 0
-21 -30 618 0
-21 -30 -618 0
-21 -39 619 0
-21 -39 -619 0
-21 -48 620 0
-21 -48 -620 0
-21 -57 621 0
-21 -57 -621 0
-21 -66 622 0
-21 -66 -622 0
-21 -75 623 0
-21 -75 -623 0
-21 -84 624 0
-21 -84 -624 0
-30 -39 625 0
-30 -39 -625 0
-30 -48 626 0
-30 -48 -626 0
-30 -57 627 0
-30 -57 -627 0
-30 -66 628 0
-30 -66 -628 0
-30 -75 629 0
-30 -75 -629 0
-30 -84 630 0
-30 -84 -630 0
-39 -48 631 0
-39 -48 -631 0
-39 -57 632 0
-39 -57 -632 0
-39 -66 633 0
-39 -66 -633 0
-39 -75 634 0
-39 -75 -634 0
-39 -84 635 0
-39 -84 -635 0
-48 -57 636 0
-48 -57 -636 0
-48 -66 637 0
-48 -66 -637 0
-48 -75 638 0
-48 -75 -638 0
-48 -84 639 0
-48 -84 -639 0
-57 -66 640 0
-57 -66 -640 0
-57 -75 641 0
-57 -75 -641 0
-57 -84 642 0
-57 -84 -642 0
-66 -75 643 0
-66 -75 -643 0
-66 -84 644 0
-66 -84 -644 0
-75 -84 645 0
-75 -84 -645 0
-4 -13 646 0
-4 -13 -646 0
-4 -22 647 0
-4 -22 -647 0
-4 -31 648 0
-4 -31 -648 0
-4 -40 649 0
-4 -40 -649 0
-4 -49 650 0
-4 -49 -650 0
-4 -58 651 0
-4 -58 -651 0
-4 -67 652 0
-4 -67 -652 0
-4 -76 653 0
-4 -76 -653 0
-4 -85 654 0
-4 -85 -654 0
-13 -22 655 0
-13 -22 -655 0
-13 -31 656 0
-13 -31 -656 0
-13 -40 657 0
-13 -40 -657 0
-13 -49 658 0
-13 -49 -658 0
-13 -58 659 0
-13 -58 -659 0
-13 -67 660 0
-13 -67 -660 0
-13 -76 661 0
-13 -76 -661 0
-13 -85 662 0
-13 -85 -662 0
-22 -31 663 0
-22 -31 -663 0
-22 -40 664 0
-22 -40 -664 0
-22 -49 665 0
-22 -49 -665 0
-22 -58 666 0
-22 -58 -666 0
-22 -67 667 0
-22 -67 -667 0
-22 -76 668 0
-22 -76 -668 0
-22 -85 669 0
-22 -85 -669 0
-31 -40 670 0
-31 -40 -670 0
-31 -49 671 0
-31 -49 -671 0
-31 -58 672 0
-31 -58 -672 0
-31 -67 673 0
-31 -67 -673 0
-31 -76 674 0
-31 -76 -674 0
-31 -85 675 0
-31 -85 -675 0
-40 -49 676 0
-40 -49 -676 0
-40 -58 677 0
-40 -58 -677 0
-40 -67 678 0
-40 -67 -678 0
-40 -76 679 0
-40 -76 -679 0
-40 -85 680 0
-40 -85 -680 0
-49 -58 681 0
-49 -58 -681 0
-49 -67 682 0
-49 -67 -682 0
-49 -76 683 0
-49 -76 -683 0
-49 -85 684 0
-49 -85 -684 0
-58 -67 685 0
-58 -67 -685 0
-58 -76 686 0
-58 -76 -686 0
-58 -85 687 0
-58 -85 -687 0
-67 -76 688 0
-67 -76 -688 0
-67 -85 689 0
-67 -85 -689 0
-76 -85 690 0
-76 -85 -690 0
-5 -14 691 0
-5 -14 -691 0
-5 -23 692 0
-5 -23 -692 0
-5 -32 693 0
-5 -32 -693 0
-5 -41 694 0
-5 -41 -694 0
-5 -50 695 0
-5 -50 -695 0
-5 -59 696 0
-5 -59 -696 0
-5 -68 697 0
-5 -68 -697 0
-5 -77 698 0
-5 -77 -698 0
-5 -86 699 0
-5 -86 -699 0
-14 -23 700 0
-14 -23 -700 0
-14 -32 701 0
-14 -32 -701 0
-14 -41 702 0
-14 -41 -702 0
-14 -50 703 0
-14 -50 -703 0
-14 -59 704 0
-14 -59 -704 0
-14 -68 705 0
-14 -68 -705 0
-14 -77 706 0
-14 -77 -706 0
-14 -86 707 0
-14 -86 -707 0
-23 -32 708 0
-23 -32 -708 0
-23 -41 709 0
-23 -41 -709 0
-23 -50 710 0
-23 -50 -710 0
-23 -59 711 0
-23 -59 -711 0
-23 -68 712 0
-23 -68 -712 0
-23 -77 713 0
-23 -77 -713 0
-23 -86 714 0
-23 -86 -714 0
-32 -41 715 0
-32 -41 -715 0
-32 -50 716 0
-32 -50 -716 0
-32 -59 717 0
-32 -59 -717 0
-32 -68 718 0
-32 -68 -718 0
-32 -77 719 0
-32 -77 -719 0
-32 -86 720 0
-32 -86 -720 0
-41 -50 721 0
-41 -50 -721 0
-41 -59 722 0
-41 -59 -722 0
-41 -68 723 0
-41 -68 -723 0
-41 -77 724 0
-41 -77 -724 0
-41 -86 725 0
-41 -86 -725 0
-50 -59 726 0
-50 -59 -726 0
-50 -68 727 0
-50 -68 -727 0
-50 -77 728 0
-50 -77 -728 0
-50 -86 729 0
-50 -86 -729 0
-59 -68 730 0
-59 -68 -730 0
-59 -77 731 0
-59 -77 -731 0
-59 -86 732 0
-59 -86 -732 0
-68 -77 733 0
-68 -77 -733 0
-68 -86 734 0
-68 -86 -734 0
-77 -86 735 0
-77 -86 -735 0
-6 -15 736 0
-6 -15 -736 0
-6 -24 737 0
-6 -24 -737 0
-6 -33 738 0
-6 -33 -738 0
-6 -42 739 0
-6 -42 -739 0
-6 -51 740 0
-6 -51 -740 0
-6 -60 741 0
-6 -60 -741 0
-6 -69 742 0
-6 -69 -742 0
-6 -78 743 0
-6 -78 -743 0
-6 -87 744 0
-6 -87 -744 0
-15 -24 745 0
-15 -24 -745 0
-15 -33 746 0
-15 -33 -746 0
-15 -42 747 0
-15 -42 -747 0
-15 -51 748 0
-15 -51 -748 0
-15 -60 749 0
-15 -60 -749 0
-15 -69 750 0
-15 -69 -750 0
-15 -78 751 0
-15 -78 -751 0
-15 -87 752 0
-15 -87 -752 0
-24 -33 753 0
-24 -33 -753 0
-24 -42 754 0
-24 -42 -754 0
-24 -51 755 0
-24 -51 -755 0
-24 -60 756 0
-24 -60 -756 0
-24 -69 757 0
-24 -69 -757 0
-24 -78 758 0
-24 -78 -758 0
-24 -87 759 0
-24 -87 -759 0
-33 -42 760 0
-33 -42 -760 0
-33 -51 761 0
-33 -51 -761 0
-33 -60 762 0
-33 -60 -762 0
-33 -69 763 0
-33 -69 -763 0
-33 -78 764 0
-33 -78 -764 0
-33 -87 765 0
-33 -87 -765 0
-42 -51 766 0
-42 -51 -766 0
-42 -60 767 0
-42 -60 -767 0
-42 -69 768 0
-42 -69 -768 0
-42 -78 769 0
-42 -78 -769 0
-42 -87 770 0
-42 -87 -770 0
-51 -60 771 0
-51 -60 -771 0
-51 -69 772 0
-51 -69 -772 0
-51 -78 773 0
-51 -78 -773 0
-51 -87 774 0
-51 -87 -774 0
-60 -69 775 0
-60 -69 -775 0
-60 -78 776 0
-60 -78 -776 0
-60 -87 777 0
-60 -87 -777 0
-69 -78 778 0
-69 -78 -778 0
-69 -87 779 0
-69 -87 -779 0
-78 -87 780 0
-78 -87 -780 0
-7 -16 781 0
-7 -16 -781 0
-7 -25 782 0
-7 -25 -782 0
-7 -34 783 0
-7 -34 -783 0
-7 -43 784 0
-7 -43 -784 0
-7 -52 785 0
-7 -52 -785 0
-7 -61 786 0
-7 -61 -786 0
-7 -70 787 0
-7 -70 -787 0
-7 -79 788 0
-7 -79 -788 0
-7 -88 789 0
-7 -88 -789 0
-16 -25 790 0
-16 -25 -790 0
-16 -34 791 0
-16 -34 -791 0
-16 -43 792 0
-16 -43 -792 0
-16 -52 793 0
-16 -52 -793 0
-16 -61 794 0
-16 -61 -794 0
-16 -70 795 0
-16 -70 -795 0
-16 -79 796 0
-16 -79 -796 0
-16 -88 797 0
-16 -88 -797 0
-25 -34 798 0
-25 -34 -798 0
-25 -43 799 0
-25 -43 -799 0
-25 -52 800 0
-25 -52 -800 0
-25 -61 801 0
-25 -61 -801 0
-25 -70 802 0
-25 -70 -802 0
-25 -79 803 0
-25 -79 -803 0
-25 -88 804 0
-25 -88 -804 0
-34 -43 805 0
-34 -43 -805 0
-34 -52 806 0
-34 -52 -806 0
-34 -61 807 0
-34 -61 -807 0
-34 -70 808 0
-34 -70 -808 0
-34 -79 809 0
-34 -79 -809 0
-34 -88 810 0
-34 -88 -810 0
-43 -52 811 0
-43 -52 -811 0
-43 -61 812 0
-43 -61 -812 0
-43 -70 813 0
-43 -70 -813 0
-43 -79 814 0
-43 -79 -814 0
-43 -88 815 0
-43 -88 -815 0
-52 -61 816 0
-52 -61 -816 0
-52 -70 817 0
-52 -70 -817 0
-52 -79 818 0
-52 -79 -818 0
-52 -88 819 0
-52 -88 -819 0
-61 -70 820 0
-61 -70 -820 0
-61 -79 821 0
-61 -79 -821 0
-61 -88 822 0
-61 -88 -822 0
-70 -79 823 0
-70 -79 -823 0
-70 -88 824 0
-70 -88 -824 0
-79 -88 825 0
-79 -88 -825 0
-8 -17 826 0
-8 -17 -826 0
-8 -26 827 0
-8 -26 -827 0
-8 -35 828 0
-8 -35 -828 0
-8 -44 829 0
-8 -44 -829 0
-8 -53 830 0
-8 -53 -830 0
-8 -62 831 0
-8 -62 -831 0
-8 -71 832 0
-8 -71 -832 0
-8 -80 833 0
-8 -80 -833 0
-8 -89 834 0
-8 -89 -834 0
-17 -26 835 0
-17 -26 -835 0
-17 -35 836 0
-17 -35 -836 0
-17 -44 837 0
-17 -44 -837 0
-17 -53 838 0
-17 -53 -838 0
-17 -62 839 0
-17 -62 -839 0
-17 -71 840 0
-17 -71 -840 0
-17 -80 841 0
-17 -80 -841 0
-17 -89 842 0
-17 -89 -842 0
-26 -35 843 0
-26 -35 -843 0
-26 -44 844 0
-26 -44 -844 0
-26 -53 845 0
-26 -53 -845 0
-26 -62 846 0
-26 -62 -846 0
-26 -71 847 0
-26 -71 -847 0
-26 -80 848 0
-26 -80 -848 0
-26 -89 849 0
-26 -89 -849 0
-35 -44 850 0
-35 -44 -850 0
-35 -53 851 0
-35 -53 -851 0
-35 -62 852 0
-35 -62 -852 0
-35 -71 853 0
-35 -71 -853 0
-35 -80 854 0
-35 -80 -854 0
-35 -89 855 0
-35 -89 -855 0
-44 -53 856 0
-44 -53 -856 0
-44 -62 857 0
-44 -62 -857 0
-44 -71 858 0
-44 -71 -858 0
-44 -80 859 0
-44 -80 -859 0
-44 -89 860 0
-44 -89 -860 0
-53 -62 861 0
-53 -62 -861 0
-53 -71 862 0
-53 -71 -862 0
-53 -80 863 0
-53 -80 -863 0
-53 -89 864 0
-53 -89 -864 0
-62 -71 865 0
-62 -71 -865 0
-62 -80 866 0
-62 -80 -866 0
-62 -89 867 0
-62 -89 -867 0
-71 -80 868 0
-71 -80 -868 0
-71 -89 869 0
-71 -89 -869 0
-80 -89 870 0
-80 -89 -870 0
-9 -18 871 0
-9 -18 -871 0
-9 -27 872 0
-9 -27 -872 0
-9 -36 873 0
-9 -36 -873 0
-9 -45 874 0
-9 -45 -874 0
-9 -54 875 0
-9 -54 -875 0
-9 -63 876 0
-9 -63 -876 0
-9 -72 877 0
-9 -72 -877 0
-9 -81 878 0
-9 -81 -878 0
-9 -90 879 0
-9 -90 -879 0
-18 -27 880 0
-18 -27 -880 0
-18 -36 881 0
-18 -36 -881 0
-18 -45 882 0
-18 -45 -882 0
-18 -54 883 0
-18 -54 -883 0
-18 -63 884 0
-18 -63 -884 0
-18 -72 885 0
-18 -72 -885 0
-18 -81 886 0
-18 -81 -886 0
-18 -90 887 0
-18 -90 -887 0
-27 -36 888 0
-27 -36 -888 0
-27 -45 889 0
-27 -45 -889 0
-27 -54 890 0
-27 -54 -890 0
-27 -63 891 0
-27 -63 -891 0
-27 -72 892 0
-27 -72 -892 0
-27 -81 893 0
-27 -81 -893 0
-27 -90 894 0
-27 -90 -894 0
-36 -45 895 0
-36 -45 -895 0
-36 -54 896 0
-36 -54 -896 0
-36 -63 897 0
-36 -63 -897 0
-36 -72 898 0
-36 -72 -898 0
-36 -81 899 0
-36 -81 -899 0
-36 -90 900 0
-36 -90 -900 0
-45 -54 901 0
-45 -54 -901 0
-45 -63 902 0
-45 -63 -902 0
-45 -72 903 0
-45 -72 -903 0
-45 -81 904 0
-45 -81 -904 0
-45 -90 905 0
-45 -90 -905 0
-54 -63 906 0
-54 -63 -906 0
-54 -72 907 0
-54 -72 -907 0
-54 -81 908 0
-54 -81 -908 0
-54 -90 909 0
-54 -90 -909 0
-63 -72 910 0
-63 -72 -910 0
-63 -81 911 0
-63 -81 -911 0
-63 -90 912 0
-63 -90 -912 0
-72 -81 913 0
-72 -81 -913 0
-72 -90 914 0
-72 -90 -914 0
-81 -90 915 0
-81 -90 -915 0
