c Phase 3 random 3-SAT negative control
c seed=31035
c ratio=4.26
c variant=uniform
c expected=TO_VALIDATE
p cnf 150 639
36 94 140 0
27 81 146 0
-21 -34 -97 0
-30 -96 -105 0
104 113 -131 0
7 -100 -131 0
28 -31 -39 0
-4 53 -123 0
115 -118 146 0
-48 61 62 0
-42 90 -148 0
-57 88 -123 0
-23 33 99 0
-104 117 -133 0
-4 121 145 0
62 -85 111 0
76 -78 133 0
57 -80 94 0
-1 63 93 0
-18 -92 147 0
12 -29 110 0
7 -86 -139 0
-23 -98 -120 0
29 -37 -74 0
-44 -91 139 0
-32 94 -106 0
-31 53 59 0
16 48 89 0
91 -94 133 0
10 -65 116 0
1 105 107 0
75 -82 113 0
33 -35 94 0
17 133 -147 0
1 12 -23 0
-9 -113 131 0
-58 107 133 0
-5 -15 -26 0
-16 25 -71 0
-13 26 104 0
16 129 -148 0
14 76 150 0
-3 -80 -86 0
-110 -116 -145 0
14 -87 132 0
26 56 104 0
59 66 -82 0
-12 77 101 0
9 26 98 0
-84 -100 129 0
-19 -60 -109 0
-79 103 130 0
11 -90 117 0
-36 78 -149 0
-7 -45 100 0
21 -65 84 0
12 21 83 0
5 31 -105 0
-42 74 -94 0
-1 -17 85 0
13 -44 -150 0
53 -113 -146 0
67 -107 -129 0
-5 32 115 0
27 36 40 0
-28 -72 112 0
33 -37 70 0
-27 -71 -108 0
-6 95 150 0
-87 94 -148 0
-44 112 -146 0
-81 -85 134 0
16 24 -143 0
78 -80 131 0
33 -38 110 0
-15 -55 133 0
18 -39 -106 0
64 -70 86 0
57 59 103 0
78 -79 83 0
20 -44 -116 0
41 50 -113 0
-36 -101 146 0
-29 78 -143 0
22 -88 -126 0
59 -87 -116 0
8 10 111 0
-20 -78 -150 0
52 -88 103 0
-33 -40 -46 0
-36 65 80 0
-90 147 148 0
23 126 -127 0
-60 -73 134 0
-4 -62 67 0
-35 -75 -140 0
6 134 -150 0
19 -79 -105 0
-29 51 -105 0
-10 -113 -115 0
-7 -90 -140 0
-90 120 -130 0
14 -34 -94 0
20 -69 -148 0
39 111 -144 0
11 -111 117 0
97 122 129 0
38 -90 -120 0
-33 51 87 0
-46 95 -139 0
-4 -21 118 0
-27 -76 -132 0
24 -75 -102 0
-5 -65 -130 0
-79 94 125 0
-2 -28 61 0
2 88 -136 0
21 119 -135 0
14 -138 149 0
12 -27 98 0
-9 -30 -34 0
53 69 -143 0
89 93 141 0
-19 49 109 0
3 31 98 0
-103 106 -125 0
-3 -56 74 0
54 -116 -125 0
44 70 -150 0
29 112 -116 0
-46 48 -94 0
-28 50 63 0
-37 77 147 0
24 122 135 0
26 -38 66 0
74 -83 -100 0
-22 79 100 0
72 -78 -144 0
36 120 145 0
-2 -58 -145 0
47 88 108 0
-6 -53 -71 0
-19 -36 -55 0
98 115 -122 0
-11 -52 74 0
-64 67 88 0
-122 -125 -137 0
-19 -35 -73 0
-34 89 111 0
28 -85 -146 0
-7 30 113 0
39 -122 -148 0
111 -117 140 0
-24 -125 147 0
55 56 143 0
-17 -123 132 0
-4 -19 111 0
-36 -66 -89 0
-53 63 -106 0
6 -118 -145 0
47 48 103 0
-46 106 -144 0
48 130 132 0
23 84 -104 0
14 -57 112 0
9 -22 132 0
43 102 146 0
-20 -62 108 0
8 46 -53 0
-87 -92 110 0
5 25 -112 0
62 111 116 0
5 63 -94 0
21 107 -149 0
6 83 96 0
67 -129 143 0
14 -22 -31 0
-54 -60 -112 0
130 -133 -135 0
-34 -63 -118 0
31 -105 125 0
115 121 -124 0
-54 66 135 0
7 27 -147 0
-2 -100 122 0
40 -94 116 0
-51 -62 132 0
-20 122 -137 0
-25 62 115 0
-63 111 -129 0
-104 -109 114 0
-20 25 59 0
-26 78 -150 0
44 51 -114 0
-14 71 -143 0
-13 20 65 0
41 -113 -143 0
-17 -31 120 0
136 -138 -146 0
-64 134 139 0
-35 63 -102 0
-59 -112 -117 0
-98 -118 -119 0
-3 -42 143 0
-5 71 88 0
30 111 -141 0
-8 -15 53 0
39 62 -85 0
11 78 110 0
-18 106 -127 0
30 63 -141 0
-78 81 107 0
-75 103 125 0
18 -39 -60 0
69 -77 -139 0
54 -64 141 0
-42 -57 66 0
65 -106 -123 0
-59 -87 -118 0
-44 67 -122 0
-38 -66 -72 0
-38 -43 -44 0
14 88 -130 0
-37 -43 130 0
-16 27 -57 0
-55 -66 -101 0
5 -122 128 0
-61 -66 78 0
-9 -22 -55 0
31 45 -144 0
-112 -120 147 0
-60 -98 122 0
-54 93 -101 0
-1 17 39 0
-14 24 79 0
-70 85 124 0
9 62 137 0
34 -52 -99 0
-47 -71 -150 0
92 110 -123 0
93 94 148 0
-15 95 -119 0
33 -118 -120 0
17 -57 -125 0
-26 -129 144 0
10 55 -93 0
3 29 -143 0
-24 -69 136 0
-15 -63 130 0
-2 -34 39 0
4 20 -114 0
72 -99 126 0
-31 102 -113 0
-36 -47 91 0
28 93 -104 0
58 71 -100 0
48 74 84 0
5 -57 87 0
17 108 -150 0
-40 -112 145 0
-35 -71 -79 0
29 86 125 0
-40 -50 123 0
-50 108 111 0
4 -92 -149 0
91 -99 146 0
-48 -65 72 0
-105 127 140 0
-81 -115 132 0
69 99 124 0
30 -53 -55 0
32 -108 147 0
-13 -46 91 0
-22 -43 127 0
-17 -31 -147 0
114 -126 -133 0
-14 -50 -130 0
15 61 -140 0
-43 -76 92 0
-12 28 97 0
-85 -105 129 0
-8 13 -48 0
-41 60 -129 0
-18 -70 110 0
48 -133 -146 0
60 -90 109 0
78 -80 -124 0
-23 -49 115 0
5 32 -104 0
28 35 36 0
-40 -70 142 0
-55 -81 -134 0
10 -95 -143 0
-2 115 135 0
125 140 143 0
11 -70 130 0
-4 -53 61 0
55 -116 -130 0
-27 -72 78 0
7 -39 48 0
-96 128 140 0
16 80 137 0
8 38 -131 0
-24 51 -88 0
16 27 102 0
-17 31 78 0
10 -42 58 0
31 134 148 0
-13 54 141 0
-100 111 134 0
-25 -45 97 0
-2 -82 -118 0
-20 32 -141 0
66 -67 -107 0
-63 -84 -108 0
13 -31 133 0
-27 -83 112 0
20 27 -121 0
-37 42 145 0
-41 -43 -120 0
-74 -90 104 0
-45 47 -88 0
-74 -79 140 0
26 91 -145 0
62 -94 149 0
-8 -11 -144 0
61 113 116 0
-106 116 141 0
39 70 -145 0
32 -133 -145 0
2 43 140 0
80 -134 -140 0
-8 30 93 0
-111 -131 142 0
80 -85 -128 0
-40 41 -142 0
13 107 116 0
-37 83 -139 0
-5 9 34 0
29 90 107 0
16 -69 125 0
2 19 -49 0
11 58 -120 0
-8 62 144 0
11 111 -135 0
-55 111 145 0
-56 127 136 0
23 64 119 0
-71 100 106 0
65 -122 132 0
86 -121 -150 0
-27 57 91 0
-39 -57 -83 0
-68 80 -146 0
-28 -95 -101 0
81 113 -127 0
-2 -96 -122 0
-29 76 80 0
-20 123 -145 0
-14 109 -120 0
23 -45 -96 0
40 130 -146 0
-82 -103 -136 0
16 -81 109 0
-77 -80 88 0
63 -66 101 0
41 57 84 0
-10 -140 145 0
2 -47 92 0
7 -31 64 0
-123 -131 133 0
-28 -49 59 0
66 -69 -101 0
80 128 -150 0
-52 75 -111 0
8 -34 99 0
-15 -42 -105 0
2 21 37 0
58 102 -127 0
27 33 145 0
28 110 -150 0
-31 107 137 0
-2 -65 140 0
8 13 65 0
-77 79 -124 0
48 -85 145 0
68 96 -98 0
-36 43 -133 0
4 -36 142 0
52 -113 -134 0
-42 -103 -105 0
29 89 116 0
35 -49 -54 0
10 26 -75 0
-23 71 80 0
32 -37 -47 0
-26 -82 -91 0
23 28 -147 0
-6 30 45 0
-29 -67 -105 0
-5 -49 -90 0
20 40 73 0
8 -55 108 0
55 -101 -107 0
-93 102 -109 0
-29 -79 122 0
-7 74 -76 0
-85 103 147 0
24 30 53 0
13 118 148 0
-11 -13 93 0
-52 112 -148 0
5 -7 -49 0
34 -74 -86 0
36 95 149 0
-24 29 72 0
111 115 -125 0
-1 8 136 0
60 122 144 0
91 93 118 0
-78 98 -106 0
-30 57 -141 0
77 111 -114 0
-80 102 -141 0
12 107 -149 0
70 -99 -102 0
-87 -106 135 0
43 66 126 0
-33 -102 -140 0
-29 -74 112 0
-30 -44 113 0
40 -48 -126 0
69 86 -144 0
-36 -77 -117 0
59 112 132 0
50 -88 103 0
-65 -72 -93 0
-27 -79 114 0
3 -118 123 0
2 42 91 0
59 -94 -129 0
30 63 -95 0
2 3 96 0
-3 -78 123 0
65 121 138 0
-51 -101 -120 0
-61 -101 -126 0
12 -51 -146 0
-9 139 -146 0
116 -117 144 0
21 -24 -106 0
-48 -106 -138 0
-43 55 -71 0
-61 -89 97 0
4 8 -126 0
22 -52 -138 0
63 64 102 0
34 -112 120 0
31 -105 130 0
57 128 -135 0
16 19 -143 0
-3 -100 -127 0
1 -54 -65 0
-58 96 -150 0
13 -27 -33 0
6 -13 64 0
26 28 -145 0
-21 51 133 0
50 -116 147 0
-26 105 -149 0
-46 98 145 0
-4 -45 86 0
-37 -42 85 0
71 -120 145 0
32 -44 -52 0
61 83 -93 0
10 107 135 0
59 -61 -74 0
-64 70 -83 0
-71 124 137 0
-31 -61 -123 0
63 75 -92 0
-22 -78 139 0
-55 -79 -112 0
13 -43 -105 0
-8 30 87 0
50 -62 75 0
10 -104 -128 0
18 -28 -31 0
19 -28 71 0
-51 69 130 0
-16 -27 33 0
21 -93 115 0
89 -94 106 0
-21 46 -144 0
22 53 -116 0
-26 50 58 0
69 111 141 0
-32 -40 -77 0
37 -42 86 0
7 68 114 0
19 -27 125 0
59 107 147 0
58 130 131 0
-15 98 -148 0
-29 45 89 0
-11 -114 146 0
103 -106 150 0
-37 -87 126 0
74 -106 136 0
-41 -47 98 0
56 -65 -80 0
-80 87 -131 0
17 -63 97 0
55 124 -147 0
2 -19 25 0
68 -88 -117 0
-24 -60 76 0
-12 -72 103 0
66 -91 -131 0
106 113 130 0
-31 68 -150 0
-8 81 -125 0
34 -35 88 0
-27 118 145 0
-27 61 -100 0
67 -89 -138 0
-76 105 112 0
-87 114 149 0
-64 95 114 0
-21 104 150 0
-3 56 -72 0
-28 -55 148 0
52 -113 139 0
-14 25 70 0
-55 -57 142 0
-44 63 94 0
6 58 89 0
8 -50 -72 0
-9 -42 -108 0
12 -48 -130 0
-29 -97 -129 0
24 -40 115 0
12 -41 -142 0
59 82 93 0
-12 -27 -117 0
11 69 150 0
-83 -91 -139 0
34 58 100 0
14 -100 -110 0
-90 106 108 0
55 -70 -94 0
-39 -51 -109 0
26 35 92 0
9 -11 109 0
14 -93 -107 0
-24 116 -140 0
34 82 -105 0
1 43 -58 0
-61 85 -110 0
-73 -80 108 0
6 21 -119 0
-65 -87 -97 0
4 -5 10 0
-9 99 122 0
37 68 -129 0
110 142 -144 0
6 35 -135 0
37 -61 -84 0
-1 -43 -61 0
-10 62 -115 0
11 54 83 0
30 -66 140 0
43 105 134 0
-10 28 -41 0
6 -7 -71 0
26 -49 -130 0
36 -46 117 0
1 -100 138 0
35 -58 -67 0
-58 64 -149 0
-2 -32 -136 0
31 -76 -83 0
-15 -34 142 0
27 -66 103 0
-77 -110 147 0
-3 24 -140 0
20 -94 138 0
-16 -38 46 0
-89 -108 122 0
-48 108 130 0
35 125 -127 0
-11 28 -32 0
20 71 -90 0
-82 -97 133 0
-9 -82 -91 0
6 56 142 0
52 -103 -111 0
10 -75 128 0
-54 -72 -89 0
-23 -51 -84 0
-32 -107 144 0
9 44 57 0
-25 45 -137 0
-22 72 84 0
2 104 127 0
-33 -121 -145 0
9 -12 -140 0
-108 -110 112 0
-22 -126 -139 0
-27 -33 90 0
-2 -38 -51 0
-6 -46 -67 0
20 61 96 0
-81 -116 -132 0
34 -122 130 0
2 57 77 0
-5 19 39 0
11 -28 35 0
47 69 107 0
-17 107 148 0
41 -72 114 0
-55 -86 -95 0
-100 106 -137 0
29 -125 144 0
79 84 -94 0
-17 -28 -100 0
12 -30 -113 0
-2 -20 124 0
18 28 148 0
41 142 147 0
21 94 124 0
-47 -104 143 0
21 69 -109 0
2 -34 -101 0
32 -54 144 0
-18 120 145 0
24 -82 84 0
46 132 144 0
