c Phase 3 random 3-SAT negative control
c seed=31036
c ratio=4.26
c variant=planted_sat
c expected=SATISFIABLE
p cnf 150 639
-41 59 71 0
-53 57 -102 0
-9 -71 144 0
17 -59 -70 0
8 -102 -120 0
-3 13 31 0
-62 -70 -94 0
5 41 131 0
23 -35 46 0
-12 -80 -147 0
66 -97 -130 0
-74 138 140 0
-30 -63 -79 0
-23 -29 96 0
-45 60 82 0
27 -66 -78 0
36 -49 -77 0
94 -98 -118 0
68 93 97 0
3 -74 -103 0
-108 113 -131 0
-70 -88 -134 0
-22 -53 -123 0
-49 -93 -115 0
26 -83 115 0
-23 -35 38 0
54 -69 -123 0
-39 71 129 0
22 -79 -91 0
-17 46 -117 0
11 55 -81 0
-15 20 -31 0
21 45 46 0
-25 -93 -149 0
-43 84 -94 0
38 43 -106 0
46 118 -131 0
69 95 131 0
-48 112 -136 0
-5 130 146 0
-27 -89 -125 0
18 132 -138 0
-59 -122 -146 0
1 -31 -53 0
39 -66 -108 0
37 -49 -92 0
-12 -73 122 0
30 47 -49 0
27 -90 146 0
-34 82 93 0
-24 -103 -106 0
-75 -84 92 0
-56 112 146 0
-20 56 75 0
-54 86 133 0
92 116 -117 0
6 -31 -148 0
86 -144 -148 0
55 -132 -145 0
-5 82 106 0
-37 -68 122 0
7 27 55 0
81 -116 -125 0
11 -25 95 0
6 -33 -80 0
55 86 137 0
-59 -108 134 0
112 128 -139 0
-15 -49 143 0
-10 -70 109 0
44 94 133 0
98 115 121 0
-45 -67 116 0
10 -14 135 0
-19 105 133 0
-56 -107 -148 0
-8 -15 -116 0
68 -97 -136 0
-18 63 -74 0
10 68 124 0
-100 137 -143 0
-4 -86 -121 0
-49 62 94 0
49 -52 104 0
-81 -87 140 0
-68 -127 -134 0
32 45 106 0
53 -72 -80 0
13 84 -99 0
21 -56 117 0
96 -97 -139 0
22 34 89 0
1 -117 121 0
-86 97 -120 0
59 83 100 0
30 -40 52 0
-25 101 -121 0
11 -34 -41 0
40 -61 -142 0
-91 118 -141 0
-14 62 79 0
-27 -65 -103 0
20 -145 -146 0
-9 -55 -74 0
35 57 -144 0
-22 -61 -67 0
6 -14 -71 0
-79 -107 -132 0
24 -72 105 0
-3 99 -123 0
49 53 65 0
-59 110 -147 0
23 -31 -116 0
-68 93 -95 0
-54 -103 -140 0
16 -106 -127 0
58 85 -107 0
38 -52 65 0
15 -40 -101 0
-84 -129 144 0
85 126 -136 0
-12 -15 -121 0
40 71 78 0
10 -58 140 0
-47 -95 149 0
120 123 138 0
-20 -78 131 0
54 -103 -149 0
-18 125 133 0
-20 -100 -112 0
121 -136 139 0
-39 -59 142 0
-14 -104 113 0
63 74 143 0
10 106 142 0
-6 -56 -73 0
1 94 -133 0
-2 102 126 0
-39 -97 103 0
-59 100 -146 0
33 -37 -95 0
36 107 -108 0
-10 -74 -115 0
-11 40 -135 0
-60 66 -126 0
4 -83 -149 0
74 131 145 0
29 -98 103 0
-7 8 72 0
1 99 110 0
-125 -130 -135 0
42 -110 115 0
35 -130 139 0
3 33 130 0
-4 -16 -115 0
-42 -65 -94 0
12 83 -141 0
-92 -120 -121 0
-32 -44 71 0
22 -27 -122 0
12 -73 83 0
-1 30 112 0
14 -94 141 0
-9 -49 121 0
67 -128 -145 0
-62 116 -125 0
96 111 124 0
-19 23 67 0
-29 107 -109 0
-50 112 -125 0
38 65 110 0
-37 76 -90 0
26 -110 -135 0
-42 57 -113 0
29 31 -129 0
31 -43 105 0
37 -64 -141 0
-29 135 -147 0
51 77 136 0
36 59 -92 0
-56 63 -77 0
33 -44 104 0
-65 72 149 0
68 -139 -148 0
-103 -117 133 0
-63 83 123 0
63 94 -106 0
-66 111 -144 0
-24 62 -148 0
-31 68 103 0
95 108 123 0
-16 -27 -58 0
-43 96 120 0
-25 37 -114 0
-26 77 113 0
-91 -111 -113 0
-30 -112 114 0
-8 -19 -30 0
35 76 118 0
34 86 -127 0
-30 -46 -72 0
-95 -100 133 0
-8 17 83 0
-36 53 96 0
47 -72 149 0
-4 -17 136 0
51 -88 -107 0
-14 -29 -108 0
-2 -45 -103 0
88 -106 -124 0
12 36 104 0
17 -96 -113 0
16 26 -28 0
83 -85 140 0
-98 123 128 0
54 -141 -142 0
35 -75 -126 0
-25 84 -108 0
18 44 -78 0
76 98 -102 0
82 -100 105 0
-4 26 148 0
62 -115 -135 0
-1 -38 -67 0
4 84 -138 0
29 48 58 0
-38 -99 149 0
35 -40 122 0
40 50 -58 0
49 -78 -119 0
-6 92 104 0
-8 -49 -73 0
-108 -110 138 0
-77 82 139 0
-6 -52 -129 0
-75 86 -118 0
-11 65 -76 0
57 -95 112 0
-74 -108 -110 0
74 97 -146 0
-42 -72 115 0
-62 -96 141 0
-13 -15 -77 0
-17 -35 94 0
-58 82 150 0
-42 72 -118 0
-22 -95 143 0
-76 -128 140 0
100 143 -148 0
85 92 -144 0
-75 -140 146 0
-86 -90 145 0
-47 -105 -120 0
-11 -92 132 0
-24 -86 110 0
-92 -102 105 0
103 -104 -128 0
-58 61 -100 0
47 -126 134 0
7 92 99 0
56 -76 124 0
69 -100 126 0
-17 -102 -127 0
-8 41 113 0
-20 -114 -147 0
-40 89 121 0
57 -66 79 0
17 -115 132 0
-54 -55 92 0
20 32 -85 0
93 -110 137 0
5 -138 -146 0
-30 60 -134 0
37 96 110 0
-53 60 -116 0
-50 100 -114 0
31 -88 -111 0
-72 85 118 0
36 -48 148 0
18 -39 -143 0
-44 74 -125 0
84 -88 100 0
51 -53 144 0
36 55 -61 0
-9 11 111 0
16 22 39 0
-9 -13 46 0
-9 -107 -131 0
25 79 -81 0
-25 124 137 0
99 136 -148 0
74 98 -124 0
3 8 16 0
36 62 76 0
-50 -54 -86 0
55 84 -106 0
69 -101 149 0
-2 -31 106 0
-22 -127 -137 0
122 -145 -149 0
32 99 133 0
25 51 -57 0
-22 -109 140 0
21 -87 115 0
-17 69 -132 0
46 -52 104 0
18 104 -146 0
13 34 -91 0
49 75 140 0
-34 65 -72 0
17 56 -98 0
-25 42 134 0
-39 -52 -141 0
-47 83 -123 0
-52 107 -130 0
29 59 70 0
-11 -31 70 0
23 30 81 0
-26 51 145 0
-25 -139 150 0
37 -122 -145 0
85 100 136 0
-12 32 87 0
-41 -114 -134 0
5 -31 -88 0
27 -82 -142 0
15 79 -97 0
113 -121 140 0
-39 132 134 0
-102 -130 148 0
10 88 -149 0
-4 59 -117 0
-16 17 82 0
-35 106 -141 0
-12 46 -115 0
47 52 -105 0
32 -71 -96 0
55 -72 74 0
66 -110 144 0
-51 77 102 0
-38 64 -90 0
-33 -97 -115 0
8 42 -124 0
65 -114 125 0
-101 107 -118 0
-56 90 -107 0
76 86 89 0
-28 70 -116 0
30 85 119 0
-10 -28 -80 0
65 105 -130 0
12 25 -102 0
14 77 -98 0
-6 16 -136 0
63 122 147 0
68 -82 -125 0
21 65 119 0
-4 62 66 0
16 28 -40 0
-61 -110 -128 0
20 59 -90 0
-24 -33 -135 0
-70 71 -72 0
-2 47 -147 0
-19 31 48 0
-12 -81 148 0
65 139 143 0
4 -25 -118 0
-36 88 -145 0
34 -40 -59 0
-4 121 129 0
66 121 -134 0
-2 -4 -10 0
-33 -75 150 0
6 -47 -129 0
4 -23 -88 0
-92 -103 127 0
1 45 -84 0
-30 -53 -143 0
52 67 103 0
-43 -80 -144 0
-49 118 -146 0
56 -71 93 0
32 113 -127 0
2 -23 44 0
31 98 102 0
-25 128 138 0
-54 100 -134 0
-21 -50 -140 0
-77 -121 133 0
5 -59 -91 0
-12 -44 142 0
66 105 119 0
-12 -87 -132 0
49 81 110 0
-9 -70 -76 0
90 106 -114 0
-5 112 141 0
-121 145 -150 0
5 52 -67 0
47 -83 -130 0
1 -39 136 0
-54 73 -118 0
-57 58 -73 0
-72 -121 144 0
16 -111 -147 0
-28 -61 128 0
49 65 -84 0
28 72 102 0
-20 91 -114 0
24 -63 90 0
21 -94 -122 0
69 88 -119 0
-6 32 -138 0
-5 26 133 0
26 -31 57 0
41 90 91 0
-19 77 -99 0
-22 -49 51 0
-9 -84 95 0
-12 66 103 0
3 88 -120 0
48 -81 89 0
-56 -57 -73 0
13 -51 137 0
-40 -107 109 0
29 116 -117 0
-43 46 -86 0
-103 119 -137 0
48 53 -75 0
-34 87 112 0
61 74 87 0
-10 55 140 0
34 -38 -59 0
2 64 74 0
-103 -107 140 0
-91 -113 -137 0
-17 -36 -55 0
44 47 144 0
23 48 77 0
-39 105 112 0
31 82 -93 0
42 -45 -120 0
-32 -66 150 0
11 26 -61 0
-5 -53 79 0
73 78 146 0
26 -45 84 0
114 -120 -143 0
-8 53 128 0
24 65 -76 0
-37 -89 108 0
17 47 90 0
-48 78 -143 0
25 116 -137 0
87 -91 143 0
-27 -61 -105 0
-67 -81 133 0
-25 62 -103 0
44 61 62 0
14 -27 -60 0
87 -93 -101 0
-31 56 -78 0
-62 120 -125 0
-35 117 -143 0
-38 -75 148 0
84 -103 124 0
22 58 118 0
-13 -129 136 0
-39 -85 138 0
-44 -71 98 0
78 100 -150 0
48 116 -135 0
-9 15 140 0
14 -99 118 0
-6 93 96 0
-59 87 143 0
91 -129 143 0
29 105 -107 0
-82 -120 -144 0
-18 64 -75 0
83 -96 -99 0
-80 123 131 0
-32 52 140 0
57 62 -111 0
-76 -90 -136 0
95 112 -142 0
49 64 -85 0
-19 61 -87 0
-44 130 -139 0
-8 56 -61 0
-50 -54 90 0
-9 -39 102 0
10 -53 -90 0
-25 77 -81 0
93 109 -111 0
-36 -81 -124 0
7 -16 41 0
4 -56 -123 0
83 135 142 0
54 -123 -136 0
-1 -70 -113 0
-89 -140 144 0
-14 -78 88 0
16 99 138 0
-100 101 -149 0
-21 -71 83 0
-104 -112 128 0
6 17 63 0
-81 -100 -134 0
-10 131 142 0
34 -58 71 0
27 29 -88 0
35 -61 -66 0
-59 -89 -104 0
57 -99 138 0
-15 34 -92 0
83 123 133 0
50 -78 -142 0
-10 18 -112 0
43 -54 100 0
-6 115 142 0
-6 -10 75 0
35 -125 -129 0
-28 49 -74 0
21 -69 -86 0
-32 118 -148 0
-62 64 137 0
-15 101 -112 0
4 -46 66 0
29 -40 -142 0
56 -82 124 0
-33 -79 -107 0
72 95 -99 0
79 -97 113 0
-4 79 83 0
52 -61 113 0
18 -78 -137 0
-24 54 114 0
-53 -54 -77 0
4 -58 119 0
46 -97 131 0
1 -58 71 0
21 -58 102 0
90 -116 143 0
51 105 118 0
-73 -80 95 0
63 -94 -147 0
7 23 -58 0
-52 62 140 0
43 -87 -107 0
30 79 85 0
55 -58 -62 0
78 97 -136 0
-68 -69 -104 0
12 -70 95 0
-57 112 -143 0
11 31 108 0
34 -38 110 0
22 -74 99 0
21 -87 148 0
-4 79 -136 0
-25 39 107 0
-38 -58 -111 0
31 105 -118 0
-11 -126 150 0
-15 -62 96 0
8 65 109 0
51 81 -131 0
44 76 117 0
3 -23 -75 0
2 58 123 0
-62 -77 -127 0
66 -69 -104 0
62 96 124 0
-54 113 141 0
85 -102 146 0
113 -130 -136 0
7 43 140 0
-3 57 87 0
23 -26 -53 0
40 -104 -120 0
8 127 -139 0
-62 111 128 0
11 13 -65 0
2 52 -69 0
-6 -76 139 0
15 -37 -65 0
7 -122 -146 0
2 25 90 0
51 96 114 0
1 -88 -122 0
2 -132 -138 0
78 -118 -137 0
45 83 -91 0
-6 -15 -76 0
30 92 -108 0
21 -62 -75 0
-57 -71 78 0
-17 -34 -112 0
8 -9 -59 0
-69 -94 139 0
-6 -32 -131 0
10 83 -108 0
85 -103 122 0
32 55 148 0
13 -51 57 0
-24 62 121 0
-23 111 -143 0
27 86 -134 0
-119 -125 143 0
-59 -71 -128 0
123 131 -136 0
63 -77 -110 0
10 53 -91 0
39 -53 -78 0
32 59 120 0
-38 104 140 0
34 -137 140 0
34 -55 -125 0
-18 51 89 0
49 -77 -137 0
11 -36 140 0
25 66 87 0
97 -103 -108 0
-11 55 -77 0
70 101 123 0
-7 -75 -112 0
-45 -73 79 0
10 109 -133 0
5 -74 135 0
-56 72 114 0
-101 -143 149 0
-66 97 139 0
-50 -71 -139 0
-122 134 137 0
-4 115 -146 0
43 -69 -76 0
76 89 114 0
