c Phase 3 random 3-SAT negative control
c seed=31037
c ratio=4.26
c variant=uniform
c expected=TO_VALIDATE
p cnf 250 1065
-165 -166 -170 0
-40 -131 249 0
20 -135 208 0
116 -138 -239 0
-143 207 234 0
7 197 -215 0
-8 167 199 0
90 155 164 0
-44 -188 198 0
-33 -72 -127 0
-55 75 -107 0
-73 -106 -227 0
-69 97 -164 0
-42 87 -110 0
-66 -142 202 0
1 -192 195 0
22 -77 139 0
14 -56 -162 0
-16 -78 113 0
28 -189 248 0
-149 -180 -213 0
117 221 -250 0
63 159 239 0
102 114 146 0
-17 -135 149 0
-48 -50 182 0
-143 160 220 0
35 116 -184 0
-68 165 169 0
-112 -161 -217 0
-31 -134 -161 0
76 -92 -101 0
-16 79 -146 0
-3 186 223 0
-46 -68 -128 0
106 -202 209 0
35 -226 -241 0
2 172 187 0
-2 128 -214 0
3 -20 154 0
-40 -73 90 0
-54 150 -176 0
-45 127 -217 0
-38 118 -164 0
-53 -132 238 0
-33 188 240 0
1 127 192 0
89 -191 -235 0
128 141 -212 0
-67 -111 -119 0
-76 119 -243 0
176 -204 -234 0
-7 95 -143 0
73 115 -144 0
-70 -97 238 0
-41 -83 -137 0
38 79 206 0
-42 -77 243 0
-154 -191 229 0
27 -46 75 0
92 -178 -195 0
1 174 -215 0
-81 131 190 0
-56 103 -225 0
-29 149 -237 0
-31 48 -219 0
24 -137 -211 0
87 92 -155 0
7 188 230 0
-127 -206 238 0
59 90 -143 0
14 -125 -149 0
13 41 -52 0
51 77 119 0
-17 -35 -204 0
104 -108 -156 0
-37 143 -225 0
-119 214 229 0
63 -156 -227 0
20 120 -125 0
-118 -144 -229 0
121 189 -216 0
7 59 213 0
-31 190 202 0
-17 -118 148 0
107 147 243 0
-33 -80 -136 0
-2 70 131 0
29 -41 -187 0
-96 -205 245 0
-55 101 -224 0
-28 -67 -172 0
-5 110 -199 0
-39 155 164 0
116 133 199 0
84 128 139 0
139 146 205 0
29 53 191 0
71 76 128 0
36 -127 -165 0
37 -56 -154 0
-77 -180 208 0
48 -101 -112 0
4 -66 143 0
154 -211 221 0
-65 -75 229 0
-67 100 127 0
47 108 112 0
4 -127 -232 0
-92 94 198 0
128 172 244 0
-21 49 83 0
-15 29 -117 0
-20 35 94 0
-54 71 93 0
56 -59 158 0
-16 -45 164 0
33 -58 154 0
-7 14 -184 0
122 209 211 0
81 152 219 0
-3 85 86 0
-6 16 239 0
118 -143 -178 0
193 -217 250 0
-98 -146 -165 0
52 -55 -221 0
-65 -108 -163 0
-119 -174 -175 0
121 179 203 0
-105 193 -214 0
-182 199 -203 0
-54 98 225 0
123 196 -214 0
98 -160 217 0
94 142 187 0
-15 21 -142 0
53 183 248 0
-54 -77 -191 0
-58 -118 208 0
-35 -169 -215 0
-25 -160 215 0
53 120 196 0
-6 80 -222 0
-139 -182 -216 0
-128 -129 198 0
11 37 120 0
3 -25 -239 0
38 -52 -192 0
12 -87 243 0
83 133 134 0
59 -236 -249 0
-14 63 -176 0
-48 -112 249 0
-47 -95 207 0
121 144 147 0
20 206 217 0
-69 162 216 0
-126 -129 -231 0
-90 -173 185 0
11 40 -143 0
-5 17 -244 0
-75 -85 181 0
-83 192 -224 0
-68 -131 194 0
1 -32 -220 0
-70 161 -241 0
55 -119 -166 0
44 73 160 0
-115 133 -218 0
-55 -144 196 0
-128 171 -206 0
26 122 165 0
-86 116 -215 0
40 82 -226 0
-144 168 -244 0
-68 -102 -210 0
110 -156 -242 0
8 96 225 0
-145 147 -219 0
39 115 227 0
-22 -216 -226 0
-122 -165 -190 0
66 106 160 0
-106 155 -215 0
-11 155 190 0
-62 111 -147 0
105 148 -244 0
-41 62 -138 0
-83 96 127 0
-73 -97 -193 0
-73 -76 211 0
113 163 -184 0
114 -148 225 0
206 -214 -225 0
-13 -171 -231 0
-67 -142 -220 0
-128 213 -244 0
-145 -158 178 0
128 167 216 0
-1 -146 196 0
63 -162 203 0
27 68 -225 0
-42 160 -241 0
-27 -111 199 0
14 171 -196 0
-118 -198 -228 0
-68 91 107 0
80 116 201 0
22 64 250 0
-56 -74 -203 0
-136 -241 244 0
117 -129 -184 0
63 -131 -155 0
83 -126 -163 0
-21 68 203 0
102 -216 234 0
20 -180 -223 0
-129 -224 -226 0
34 -47 -131 0
132 -150 -229 0
58 80 205 0
11 -34 -131 0
-4 -132 -198 0
144 -165 -209 0
-83 194 -204 0
98 160 -239 0
-149 240 -245 0
100 -183 -209 0
36 -212 214 0
-145 -208 211 0
-39 118 -176 0
219 -227 249 0
-35 91 234 0
21 -109 -221 0
-53 128 169 0
135 170 -171 0
51 -171 231 0
120 126 204 0
-49 -74 -246 0
-37 -156 -242 0
6 -111 180 0
-30 -147 232 0
-60 111 180 0
35 80 226 0
-45 -148 247 0
27 98 -149 0
-18 -97 -108 0
114 115 152 0
-136 -143 215 0
-21 -28 171 0
195 204 -244 0
-95 127 171 0
71 101 -107 0
123 129 171 0
-4 40 163 0
10 -137 154 0
-164 191 241 0
147 -202 -222 0
-47 -170 -175 0
-54 -85 164 0
-113 -174 -230 0
-23 140 -187 0
-9 38 -69 0
-55 -89 -247 0
127 194 247 0
-63 -98 -126 0
27 -36 -171 0
-114 177 203 0
-170 -200 230 0
15 48 -91 0
-132 156 -233 0
-37 -167 -186 0
-119 167 -177 0
-76 110 214 0
191 227 229 0
-1 -198 -246 0
6 15 -32 0
-147 -189 -241 0
119 -178 187 0
39 -151 -172 0
143 150 -203 0
-46 108 241 0
-104 -145 -193 0
-101 131 229 0
-67 97 -221 0
33 54 232 0
30 131 -152 0
-15 -79 -151 0
37 -42 -108 0
3 -122 -149 0
27 49 92 0
100 -155 210 0
-22 58 -183 0
-96 98 207 0
134 193 -228 0
120 136 -184 0
104 -144 -212 0
-66 73 -104 0
-12 -136 222 0
6 -47 201 0
28 37 82 0
19 -167 185 0
-5 -143 212 0
2 98 -168 0
29 72 155 0
32 71 106 0
-71 -131 190 0
-56 77 186 0
-104 -230 -245 0
12 -48 -117 0
60 -97 -107 0
213 -226 -245 0
-45 100 -236 0
2 -103 177 0
168 202 245 0
-17 99 249 0
142 151 240 0
193 196 -219 0
31 87 223 0
-100 103 231 0
25 87 88 0
23 -48 -243 0
68 -87 175 0
8 171 181 0
130 198 -222 0
-118 120 200 0
83 232 -237 0
146 -218 -228 0
21 30 -150 0
-27 -94 -236 0
-71 122 167 0
-47 -147 -213 0
17 -164 -234 0
-90 167 247 0
89 90 -173 0
2 170 -176 0
-42 102 140 0
-91 -183 211 0
53 -84 -191 0
112 158 -223 0
33 53 -227 0
-141 -156 182 0
-39 -144 -237 0
-112 180 223 0
-128 192 -215 0
-126 182 230 0
-26 -133 -223 0
115 -116 145 0
-29 -40 -195 0
2 -78 141 0
-128 133 143 0
48 110 -148 0
-65 103 -181 0
-47 -127 -215 0
-59 189 203 0
-69 70 178 0
92 162 -171 0
44 -94 122 0
-6 40 -239 0
33 35 194 0
54 70 159 0
38 72 -247 0
60 -94 170 0
58 70 120 0
29 56 -183 0
-207 -231 -238 0
125 -156 -229 0
57 -183 197 0
-6 -37 183 0
-27 61 195 0
13 29 -172 0
-129 -161 -163 0
10 74 -241 0
-64 -79 -184 0
-20 43 61 0
-143 167 247 0
-82 -221 -242 0
38 -49 151 0
17 -72 -201 0
-42 -43 245 0
-70 -166 228 0
95 209 241 0
-76 199 -247 0
47 113 188 0
82 -101 198 0
42 -72 -242 0
-15 219 236 0
105 133 230 0
118 130 -183 0
-6 -64 -182 0
-14 141 226 0
35 -79 -168 0
59 192 219 0
-83 139 -213 0
7 -23 -189 0
39 -125 -158 0
14 24 -222 0
-45 -105 212 0
-4 109 -119 0
6 97 -111 0
-27 -110 200 0
69 -109 -184 0
-38 117 147 0
-54 65 -89 0
-92 151 -205 0
63 -147 -226 0
130 156 172 0
-15 23 67 0
-105 143 245 0
6 74 -89 0
88 -164 -233 0
-32 110 -111 0
78 110 -172 0
-24 42 210 0
129 -183 190 0
-42 -121 -145 0
70 -190 232 0
23 112 -213 0
46 53 58 0
178 -203 -229 0
28 -112 -224 0
-58 -140 -247 0
-30 -142 186 0
-91 141 156 0
89 115 170 0
62 71 242 0
14 -75 219 0
-84 -170 202 0
60 61 -154 0
99 113 -200 0
6 144 -162 0
-29 32 -235 0
52 131 230 0
3 16 108 0
-12 -77 162 0
107 209 -243 0
-53 108 115 0
-43 -138 245 0
-17 36 -216 0
-88 175 240 0
144 182 213 0
-10 -163 -198 0
-20 -39 174 0
97 153 165 0
86 -104 130 0
-129 -218 -235 0
55 -232 -249 0
-47 136 -230 0
81 138 174 0
53 73 -229 0
53 -150 -205 0
-141 -162 -240 0
-33 158 190 0
1 74 -223 0
-53 168 -249 0
-30 -60 119 0
141 -156 184 0
142 156 214 0
-127 -158 -179 0
-129 220 -225 0
-73 152 -184 0
7 -10 73 0
10 -86 -250 0
-79 83 122 0
94 -170 -202 0
44 -104 -247 0
83 -164 189 0
-83 141 -205 0
25 -55 74 0
136 207 240 0
-36 220 247 0
-12 -127 200 0
-11 -244 -247 0
214 243 -249 0
69 190 232 0
71 127 -183 0
47 75 -93 0
-34 40 169 0
-29 -148 -182 0
-21 32 -248 0
-109 -150 -194 0
108 116 -124 0
-67 117 -155 0
9 -45 80 0
-60 130 181 0
-91 137 -200 0
-35 49 152 0
-96 147 202 0
133 -143 231 0
24 -151 -246 0
-48 -60 -127 0
-15 109 173 0
-42 155 -159 0
-201 207 -223 0
96 -158 224 0
-59 -153 -191 0
9 105 -210 0
3 -49 -205 0
-107 -120 -160 0
-20 -219 -234 0
-40 -214 231 0
51 104 200 0
139 175 -190 0
-48 -148 225 0
7 -28 126 0
-194 213 221 0
-115 -174 212 0
141 -156 -186 0
-44 46 -153 0
103 187 -204 0
75 -192 198 0
-7 40 163 0
34 117 118 0
35 -73 169 0
48 52 -121 0
-20 136 -147 0
74 -234 247 0
-42 51 118 0
-63 65 -92 0
67 144 -150 0
-144 -145 174 0
21 136 153 0
-23 -81 104 0
46 56 -65 0
-58 -66 94 0
-39 -88 200 0
117 -119 -231 0
-90 91 114 0
167 -179 242 0
-66 80 201 0
49 129 -191 0
-3 -62 156 0
71 -91 103 0
-154 173 -217 0
-65 -144 145 0
34 -106 -164 0
25 -203 247 0
-128 -196 209 0
32 -52 -205 0
97 -132 -230 0
-42 75 -198 0
-33 141 238 0
-10 -54 71 0
-48 81 166 0
-77 122 196 0
-187 -195 224 0
77 -117 -202 0
41 -102 210 0
-34 -174 -235 0
-2 67 -99 0
-58 100 -127 0
47 131 246 0
73 -78 -218 0
166 -168 241 0
151 171 -205 0
70 -181 239 0
-24 -123 242 0
-55 -190 249 0
-107 216 -232 0
-60 -190 241 0
-145 -157 -183 0
-61 103 -206 0
-162 166 -172 0
-60 -143 148 0
5 -96 248 0
13 -73 230 0
-43 53 -240 0
-1 -6 69 0
44 70 149 0
-29 -35 -210 0
-48 149 205 0
-46 -234 247 0
-13 -212 220 0
-68 117 132 0
-11 -98 109 0
-24 52 -118 0
-31 130 204 0
-86 91 169 0
-48 57 -63 0
45 119 211 0
42 -104 -169 0
6 25 -63 0
-22 -81 139 0
-16 -46 147 0
-62 -128 -161 0
-78 -103 247 0
-6 105 -137 0
-128 156 -184 0
5 -103 241 0
7 46 213 0
128 181 -216 0
21 24 -141 0
10 110 248 0
85 124 -143 0
-136 144 -187 0
-15 47 176 0
64 -103 126 0
-40 151 -238 0
5 -82 -143 0
76 -188 -250 0
-169 -193 -243 0
234 245 -248 0
129 146 -197 0
12 -13 -76 0
-39 -175 229 0
23 -73 -130 0
127 -150 -177 0
-21 -120 -129 0
16 64 -141 0
13 -113 -244 0
29 107 -232 0
-46 129 189 0
-189 -212 -241 0
-65 -105 -243 0
3 -6 165 0
53 161 -248 0
-121 -149 193 0
27 -160 -183 0
-18 -52 -234 0
-6 64 141 0
-39 -45 -73 0
60 -180 237 0
79 -175 -241 0
185 189 -208 0
28 -53 140 0
-132 -149 153 0
81 -114 153 0
-74 121 199 0
39 -140 -200 0
9 -15 83 0
43 169 -179 0
177 -185 -243 0
103 150 153 0
59 -76 -148 0
-62 -154 -219 0
36 -75 -237 0
-10 -97 -239 0
-18 66 229 0
60 151 154 0
-11 94 -97 0
-10 154 -233 0
-39 -193 -239 0
168 -205 -219 0
133 212 -235 0
-144 -218 247 0
51 166 241 0
148 153 175 0
68 125 164 0
-14 -17 36 0
18 -99 -157 0
21 -23 -90 0
-82 129 -191 0
78 112 231 0
-101 145 185 0
-84 -106 149 0
163 -181 -183 0
141 155 -175 0
-85 103 115 0
70 174 -181 0
-4 117 -224 0
11 139 -221 0
56 67 214 0
78 101 129 0
-8 -26 196 0
85 127 -236 0
24 56 -105 0
139 -145 187 0
6 168 -175 0
39 164 209 0
46 -71 -80 0
-82 103 150 0
-3 64 237 0
40 191 -210 0
53 76 -212 0
57 197 -216 0
47 69 -74 0
-84 175 216 0
93 -192 -227 0
147 -157 -184 0
-65 72 246 0
96 199 -208 0
29 77 -163 0
104 109 182 0
-92 -115 -124 0
23 63 124 0
-4 -39 176 0
159 -194 225 0
18 100 106 0
-136 210 233 0
-112 -117 229 0
-1 52 80 0
-63 -64 66 0
50 56 98 0
-2 57 -232 0
-139 -178 -203 0
-92 118 -127 0
-38 -165 169 0
36 71 -240 0
-43 -77 -216 0
-112 212 -248 0
121 125 -168 0
113 216 223 0
12 147 -242 0
-36 -146 147 0
-2 107 216 0
196 -227 230 0
85 156 -218 0
-5 21 -114 0
-20 166 -249 0
-1 50 -244 0
-40 -189 207 0
31 -154 -224 0
-35 -102 222 0
-25 155 222 0
-34 -86 -128 0
79 115 146 0
-48 188 -203 0
111 -212 220 0
-10 150 -228 0
6 167 199 0
-52 -90 -176 0
70 234 241 0
-27 -206 232 0
76 -94 -153 0
-92 184 -244 0
11 -140 -178 0
-133 216 -233 0
95 139 246 0
92 -136 223 0
-19 -42 213 0
-34 185 -229 0
176 -186 243 0
-31 -203 208 0
-10 -205 -218 0
20 -96 -174 0
139 177 183 0
-13 -200 239 0
-81 90 -150 0
-63 -150 195 0
156 205 -236 0
-3 -88 -162 0
-37 205 224 0
56 137 -154 0
99 107 146 0
-10 37 -75 0
20 102 142 0
16 119 -246 0
14 -96 -138 0
-35 74 159 0
-75 -138 206 0
8 89 -141 0
-181 -183 -226 0
12 18 171 0
-140 -184 -244 0
34 -73 -100 0
-16 117 247 0
21 106 246 0
-104 -192 -213 0
136 160 197 0
-122 -224 -244 0
-9 69 -128 0
-1 -175 242 0
47 -65 204 0
-109 140 228 0
-80 -118 249 0
206 212 246 0
-109 -140 -245 0
-81 -171 -217 0
-70 109 189 0
-72 206 232 0
-45 87 -99 0
-73 126 226 0
-32 62 -172 0
-33 -176 -198 0
-96 -126 -226 0
90 106 -211 0
26 -73 -198 0
-71 92 -117 0
1 -66 220 0
82 135 233 0
-94 -128 247 0
-99 121 -196 0
107 -126 174 0
-65 170 -197 0
18 -83 201 0
-3 15 236 0
88 235 240 0
-30 -43 67 0
41 174 -232 0
34 204 -239 0
14 -53 -67 0
-111 -194 -214 0
-35 -170 -222 0
-30 55 202 0
56 97 208 0
92 185 -212 0
14 -67 115 0
-1 -156 179 0
45 -46 181 0
-75 -190 -235 0
86 171 -235 0
8 -138 -226 0
13 -39 -203 0
-77 -94 133 0
-119 145 -150 0
137 200 -235 0
59 -130 227 0
-81 -106 248 0
-45 123 128 0
243 -244 -247 0
78 -87 -239 0
-115 189 245 0
14 -52 140 0
-20 24 202 0
-46 -55 142 0
89 163 224 0
-170 229 247 0
-13 89 -127 0
-109 -151 192 0
51 186 198 0
86 184 -190 0
-6 62 180 0
136 -174 234 0
-11 -81 235 0
-9 35 -109 0
21 -91 159 0
-120 -195 -204 0
-59 -208 224 0
49 -139 -179 0
-1 -122 -214 0
48 216 248 0
65 -185 -240 0
71 -92 -166 0
-165 -218 245 0
-25 84 -170 0
-185 -194 -209 0
135 -192 -217 0
-3 -35 -175 0
-75 -101 244 0
70 193 -249 0
-62 -218 -240 0
-1 124 199 0
-144 153 -186 0
-132 -208 226 0
-46 -78 224 0
43 -100 244 0
-93 164 202 0
143 -185 -232 0
30 -155 -196 0
-1 -153 227 0
54 -97 -169 0
104 -137 -191 0
15 158 -176 0
-18 63 236 0
-199 -218 -244 0
145 -223 -231 0
25 -146 -223 0
5 -86 -104 0
93 -120 231 0
-106 -116 -230 0
69 -145 -208 0
68 -124 130 0
-1 -185 -244 0
-61 128 250 0
-162 -190 217 0
91 -107 -250 0
51 -176 -245 0
33 92 223 0
70 -207 -208 0
2 13 -138 0
19 -154 -246 0
20 -44 -120 0
63 117 133 0
-5 140 -151 0
36 78 -157 0
-37 -69 169 0
140 221 222 0
-157 -200 238 0
35 73 244 0
105 106 -123 0
35 68 101 0
130 162 235 0
-62 -115 167 0
-12 136 217 0
21 87 173 0
-51 74 -190 0
55 -128 -175 0
10 130 -240 0
-58 -89 242 0
-50 71 89 0
10 140 158 0
-160 176 -230 0
28 134 -241 0
-117 -136 242 0
89 143 -193 0
124 144 -197 0
154 178 223 0
-79 213 234 0
-127 -187 -190 0
-67 75 -134 0
-2 -38 45 0
-95 -120 151 0
7 48 -115 0
89 163 240 0
67 193 207 0
-31 -54 -69 0
-28 -196 222 0
-97 130 -167 0
-6 -95 -248 0
-122 203 215 0
33 86 -227 0
-13 -89 217 0
13 91 -245 0
-98 -206 215 0
-28 215 -250 0
122 166 203 0
-99 -213 247 0
-12 20 -216 0
-27 -115 -145 0
-44 -103 -206 0
-42 -62 170 0
39 -90 176 0
108 209 214 0
27 -56 -236 0
23 75 -226 0
-186 208 237 0
-33 63 202 0
132 139 -150 0
70 -195 -221 0
40 65 154 0
-64 70 193 0
87 88 226 0
150 179 196 0
-5 33 -71 0
168 -174 214 0
-13 -135 210 0
-144 -219 238 0
32 -171 242 0
-155 -215 236 0
89 -162 218 0
105 153 -177 0
-7 -88 247 0
-64 117 -168 0
44 62 157 0
87 190 219 0
44 -83 -177 0
-110 118 153 0
33 -122 196 0
45 166 -188 0
-35 65 154 0
-144 -158 -215 0
-65 93 125 0
41 -45 -73 0
-53 100 246 0
41 -86 -201 0
-27 -167 -195 0
-118 135 -147 0
-126 -176 239 0
10 -44 247 0
78 91 192 0
-28 -55 143 0
44 68 -239 0
75 -187 209 0
84 207 220 0
-75 -197 -209 0
-99 207 217 0
-35 -133 165 0
-2 -27 222 0
-65 -169 -173 0
-137 198 -204 0
54 191 249 0
-51 54 86 0
-59 -121 -233 0
16 -40 120 0
-119 -153 -172 0
-116 197 -226 0
-45 -132 233 0
-8 18 195 0
-18 143 -144 0
-141 -177 -212 0
-11 122 -196 0
66 -117 -228 0
12 -25 -120 0
-28 -56 -219 0
30 112 -117 0
36 -173 -216 0
-2 182 -184 0
-46 48 106 0
37 -159 178 0
-13 111 194 0
-3 63 223 0
-64 144 -190 0
-159 -163 210 0
-46 -101 152 0
82 96 233 0
62 238 240 0
-39 -139 239 0
-62 70 -194 0
-17 -96 138 0
15 -104 -242 0
34 76 -116 0
-8 57 -221 0
49 -179 -200 0
31 89 -189 0
-68 -85 -121 0
41 160 233 0
18 -27 -139 0
-11 29 -111 0
48 -61 -189 0
17 68 -186 0
-20 -155 163 0
-19 48 -179 0
13 -36 173 0
-49 -72 -142 0
-44 88 148 0
50 114 -213 0
-1 5 183 0
-31 -57 -213 0
70 182 -225 0
33 148 -170 0
-59 182 212 0
-59 -195 247 0
-81 112 159 0
79 -153 -220 0
-83 -123 -209 0
-25 70 81 0
-76 161 -188 0
-65 -129 -227 0
-5 87 207 0
7 -221 242 0
-48 -211 -249 0
-54 -92 -206 0
-4 -179 199 0
151 -216 -236 0
98 106 -183 0
-107 170 -219 0
9 -93 -223 0
-17 83 -240 0
6 -14 -161 0
-5 21 151 0
-86 -129 210 0
-154 163 -179 0
-79 218 220 0
29 206 -242 0
61 108 -208 0
-75 -111 -223 0
-32 165 191 0
-6 -87 -99 0
124 -195 211 0
42 77 -149 0
-38 -124 187 0
-57 -61 -107 0
59 80 182 0
-15 -82 -203 0
-47 -78 -189 0
74 82 123 0
-4 6 72 0
-52 61 -167 0
73 198 -216 0
-15 199 -216 0
36 -134 -182 0
-127 -153 -234 0
-15 -55 -175 0
-24 -46 241 0
