c Phase 3 random 3-SAT negative control
c seed=31038
c ratio=4.26
c variant=planted_sat
c expected=SATISFIABLE
p cnf 250 1065
-122 -203 -233 0
137 -143 168 0
42 -60 -111 0
34 131 -244 0
-44 45 -205 0
11 -221 -239 0
-48 -66 -249 0
64 86 -221 0
15 107 229 0
-52 -121 137 0
-136 -138 -245 0
-34 -139 -183 0
-28 45 80 0
-46 77 150 0
1 96 187 0
-190 213 218 0
55 88 142 0
-107 -114 193 0
-24 -137 -209 0
-63 -133 197 0
-16 83 -236 0
-10 -64 230 0
-14 49 -93 0
-44 -84 -116 0
-7 -48 -167 0
-80 164 -226 0
52 167 241 0
104 163 -244 0
34 119 -125 0
49 56 -190 0
90 162 175 0
-55 147 -236 0
4 -40 -176 0
14 228 236 0
-10 108 209 0
33 38 158 0
-11 151 -217 0
-24 -66 151 0
-144 -151 237 0
-84 142 -222 0
-8 -37 -210 0
158 -226 -246 0
117 -141 223 0
100 -173 -189 0
-115 -161 220 0
31 68 89 0
15 124 162 0
-96 -102 -121 0
-64 159 -176 0
9 -90 165 0
-133 153 155 0
-49 -82 -148 0
-67 78 -239 0
-116 121 -216 0
-93 -105 126 0
-127 -192 -242 0
67 -79 -178 0
-65 -116 139 0
36 90 -204 0
-132 209 -212 0
43 -112 166 0
-100 101 120 0
-57 -129 208 0
-147 -197 -223 0
-60 -80 -146 0
162 -213 238 0
13 52 -173 0
34 128 200 0
-22 90 96 0
-6 -93 208 0
65 -189 -229 0
49 -177 -198 0
15 -26 -66 0
18 30 -210 0
-105 -142 171 0
-235 -238 -250 0
57 -59 91 0
85 -107 190 0
-56 -62 234 0
-22 -72 116 0
-108 -110 -228 0
61 -120 122 0
55 71 -218 0
-74 -150 194 0
-15 203 218 0
148 221 -233 0
107 158 -236 0
-59 -135 -245 0
7 -135 226 0
-76 84 228 0
15 -59 206 0
33 -88 174 0
-138 147 -156 0
-5 -38 -88 0
-76 170 217 0
-12 -36 212 0
149 -189 227 0
92 -204 -215 0
108 -149 220 0
-104 165 -247 0
1 184 -212 0
56 -65 -115 0
71 -193 204 0
17 -46 48 0
-118 -140 180 0
-53 97 -153 0
10 178 189 0
-16 -74 -119 0
20 36 -153 0
7 -22 -189 0
75 220 225 0
-10 98 148 0
28 99 232 0
-50 -92 -157 0
-20 -63 173 0
-84 -95 137 0
106 -134 -235 0
51 146 160 0
115 182 216 0
-185 -188 249 0
53 146 -167 0
70 199 -203 0
-17 131 145 0
-144 206 222 0
-57 86 208 0
9 30 -131 0
6 80 -195 0
-71 132 135 0
34 109 122 0
10 193 -212 0
-137 183 206 0
99 -140 -249 0
-58 95 210 0
-49 -64 -91 0
-70 -145 211 0
2 74 -122 0
131 -153 -192 0
-176 181 -188 0
18 141 220 0
-77 -175 195 0
76 -188 -244 0
77 -90 178 0
-8 -200 -241 0
-91 -94 241 0
1 102 186 0
16 -63 -232 0
14 -165 224 0
-37 66 138 0
-183 201 224 0
5 -120 -213 0
-117 128 143 0
-88 154 -179 0
5 -19 178 0
14 46 -53 0
-60 187 250 0
-60 155 221 0
-49 -60 -147 0
56 -89 223 0
102 -193 -248 0
90 96 220 0
150 -161 240 0
25 -143 -227 0
-36 -130 -203 0
75 -80 -190 0
53 69 182 0
-55 100 163 0
90 -102 234 0
-55 140 -247 0
32 -36 -136 0
13 32 110 0
-88 99 166 0
27 -135 -222 0
35 -192 -209 0
51 -64 124 0
21 -120 231 0
182 186 -196 0
-49 154 227 0
-33 145 -183 0
41 153 -223 0
-180 203 249 0
28 107 150 0
121 246 -248 0
-33 -92 239 0
27 47 228 0
-60 -84 -158 0
-9 10 24 0
-71 126 -237 0
-30 -117 -234 0
59 63 -71 0
-54 148 -167 0
55 -87 152 0
-37 -110 -176 0
-8 -49 222 0
26 166 -208 0
23 224 -234 0
-161 -219 232 0
-2 244 245 0
58 -92 169 0
195 -242 249 0
-7 -34 -240 0
-13 119 -178 0
-159 -185 -192 0
-5 -135 -161 0
30 -115 141 0
-69 -142 -248 0
182 -211 -234 0
67 85 -97 0
10 -99 116 0
-127 160 -238 0
83 -94 227 0
47 88 -93 0
-59 172 188 0
-152 -186 191 0
-105 -184 232 0
-59 144 -247 0
31 -74 77 0
-68 154 189 0
49 -132 215 0
178 212 -236 0
55 115 217 0
-7 49 -208 0
-21 -58 -99 0
33 53 185 0
40 -171 -221 0
-27 186 -199 0
-40 52 -90 0
102 175 196 0
138 -189 -211 0
48 145 -232 0
10 19 -240 0
145 178 -199 0
-92 94 -240 0
-162 233 249 0
-9 -28 123 0
-36 129 195 0
-79 92 101 0
79 161 195 0
112 -190 228 0
56 -67 -68 0
-71 -118 -158 0
-77 218 -242 0
137 194 -229 0
215 220 241 0
98 -114 -152 0
55 -154 -179 0
-159 176 -232 0
129 151 -173 0
21 -35 -118 0
-170 -177 184 0
-97 185 -224 0
169 186 236 0
-16 -89 -248 0
12 -130 138 0
152 188 215 0
-85 -167 -219 0
125 154 -213 0
-46 162 193 0
37 -47 85 0
79 -113 -167 0
-49 -100 -230 0
-70 -114 -194 0
143 -193 239 0
-77 -152 -226 0
-40 -78 103 0
-120 -121 -197 0
72 107 -239 0
13 166 -240 0
-79 181 184 0
95 -107 226 0
57 133 -214 0
-114 136 -191 0
-108 -112 -212 0
-30 -141 -147 0
60 -97 -153 0
-117 -151 -154 0
24 -145 167 0
-25 -143 -245 0
-52 -127 -160 0
-197 218 225 0
18 -93 116 0
-34 -137 147 0
-77 -100 214 0
-22 139 173 0
40 174 195 0
143 157 -217 0
-77 -111 217 0
-23 -44 -187 0
-79 152 220 0
-61 -112 -203 0
-115 -162 -214 0
-91 109 -203 0
97 201 233 0
158 -168 241 0
-75 -119 162 0
-12 -178 -203 0
-14 -76 -136 0
117 175 -192 0
20 -164 195 0
45 -132 240 0
21 149 -242 0
-27 94 -119 0
60 -202 -208 0
51 -70 163 0
-153 156 230 0
12 -86 -240 0
140 181 -240 0
-35 -170 -203 0
82 -201 -207 0
-81 100 225 0
14 -55 57 0
3 -103 -126 0
-110 -125 -192 0
-33 191 228 0
-28 111 124 0
-172 242 -250 0
20 58 227 0
-39 -133 -143 0
-136 -175 -198 0
-192 -198 245 0
-40 84 -110 0
213 -226 -230 0
-4 32 -77 0
-68 -91 -186 0
78 157 205 0
-36 106 126 0
66 -189 -230 0
2 -17 22 0
31 110 187 0
-13 54 244 0
49 137 174 0
46 50 54 0
122 -151 -176 0
-40 -170 -180 0
-4 147 206 0
-4 -88 233 0
-90 132 236 0
-38 50 104 0
-35 -180 -229 0
-22 153 161 0
41 -139 -171 0
-64 78 157 0
-150 -152 181 0
-116 -243 248 0
79 -175 201 0
51 76 -99 0
38 -102 -242 0
-12 -204 232 0
77 79 -237 0
-117 -123 -139 0
45 -200 229 0
-100 213 231 0
-178 -182 -191 0
-72 -166 213 0
41 136 -231 0
6 13 45 0
-76 116 142 0
-121 200 247 0
-115 -142 233 0
-3 16 -23 0
64 99 -205 0
144 180 246 0
-76 -212 -223 0
-43 -63 -156 0
53 -158 -182 0
-151 -165 238 0
29 48 -146 0
124 175 -210 0
-9 -48 -175 0
126 154 165 0
-91 -141 172 0
-92 -110 227 0
133 -151 197 0
-31 128 -143 0
35 -102 -155 0
42 -92 181 0
48 137 -140 0
68 -93 229 0
-25 96 -125 0
-140 163 250 0
68 106 221 0
-16 -67 -182 0
88 91 181 0
65 87 -178 0
-2 -11 -58 0
79 86 -198 0
-16 -151 -201 0
-9 63 107 0
47 132 -236 0
-75 -78 -235 0
-2 67 86 0
34 80 -245 0
19 106 188 0
-3 59 -104 0
-2 127 -169 0
-96 102 226 0
30 -169 180 0
1 38 -210 0
-61 -120 210 0
65 -196 208 0
-16 78 148 0
25 -117 -237 0
-58 80 -114 0
-152 -182 236 0
48 195 -246 0
-10 -99 -161 0
-18 -52 -205 0
-49 -56 -81 0
-9 139 151 0
-55 -63 248 0
58 -73 -144 0
146 173 -235 0
-183 203 241 0
-10 63 -120 0
61 -203 215 0
-33 57 118 0
80 133 -135 0
12 -99 -145 0
-146 -150 -154 0
-42 -207 -215 0
126 192 -220 0
55 -116 -221 0
63 147 -178 0
-80 -180 189 0
-84 89 -208 0
41 -125 -229 0
1 141 248 0
157 -165 226 0
31 72 81 0
-30 126 169 0
-196 -229 -239 0
-58 -156 -205 0
-40 -49 -169 0
-31 -66 115 0
21 139 141 0
47 70 -200 0
16 88 -91 0
-58 -89 161 0
-98 128 238 0
-30 -47 190 0
135 -152 -198 0
-44 -116 -207 0
82 125 162 0
-57 191 -224 0
-21 123 -185 0
32 45 206 0
-10 38 50 0
-6 -184 -234 0
-24 64 148 0
-18 -168 -177 0
-13 -83 -192 0
8 59 60 0
112 198 228 0
-25 40 -114 0
15 165 -171 0
-161 -179 -241 0
41 140 -225 0
-24 -28 76 0
-59 -82 117 0
150 -201 -246 0
115 181 -227 0
97 201 -236 0
167 -169 -202 0
-204 -235 237 0
12 20 118 0
-3 -84 233 0
-20 155 -235 0
-53 96 174 0
190 197 222 0
156 238 -248 0
30 -38 125 0
122 234 248 0
-18 20 23 0
47 48 -121 0
-18 30 221 0
-76 -152 206 0
43 196 -217 0
-22 -37 90 0
-16 45 -113 0
-98 123 -223 0
-79 91 -205 0
-4 -181 224 0
-68 77 103 0
-78 83 -207 0
23 -32 120 0
-85 87 143 0
137 -141 183 0
-12 59 -241 0
53 188 -219 0
-129 161 -237 0
142 193 -221 0
78 -90 122 0
90 -91 97 0
-8 115 140 0
54 101 -103 0
10 129 -207 0
-26 64 -70 0
-89 -188 236 0
-15 -43 -201 0
14 96 -222 0
-1 5 98 0
-197 224 249 0
-23 79 -248 0
29 -80 108 0
25 143 162 0
16 125 137 0
-146 -212 218 0
-159 191 198 0
35 55 246 0
-2 9 58 0
-131 139 229 0
29 -136 -199 0
65 155 -230 0
131 152 -165 0
-19 65 -151 0
2 -45 -217 0
-5 -143 159 0
92 116 216 0
32 110 -132 0
-181 218 -230 0
105 122 -170 0
-59 -96 -201 0
-129 -132 -153 0
154 -173 238 0
-15 -57 209 0
142 223 246 0
54 104 129 0
-76 -131 139 0
-174 -223 231 0
-36 -76 -145 0
-57 -58 212 0
-57 -148 220 0
-169 -193 -221 0
-6 32 -46 0
-95 139 215 0
-122 149 -209 0
51 -78 -165 0
-52 -101 -249 0
-127 158 -221 0
-113 -194 212 0
25 -223 -236 0
-48 -110 -112 0
-3 77 -222 0
150 159 196 0
-57 -89 205 0
13 -168 -206 0
76 196 224 0
-36 -108 141 0
88 127 -247 0
-105 -200 237 0
79 -131 -154 0
27 32 97 0
115 -150 236 0
-125 -139 230 0
8 -10 94 0
102 144 -164 0
-64 78 -230 0
-75 -182 229 0
16 -163 196 0
75 128 187 0
35 -37 -247 0
-91 -101 131 0
-25 -118 -211 0
-68 -96 -125 0
1 -51 -199 0
-3 54 184 0
-125 -152 238 0
-90 -194 -224 0
15 129 241 0
18 -56 -208 0
32 -105 179 0
-77 -92 191 0
34 63 244 0
41 -67 -183 0
-33 -138 -185 0
-10 44 199 0
14 173 185 0
-54 -134 237 0
-97 132 177 0
-24 -126 177 0
157 190 194 0
-29 -81 -208 0
81 -113 144 0
-3 -143 215 0
90 94 235 0
50 -73 -91 0
142 -169 -241 0
-57 78 -153 0
-74 90 -124 0
115 186 187 0
206 -218 227 0
-6 -137 224 0
48 78 188 0
-28 59 89 0
-126 -150 215 0
-8 -42 -124 0
-104 -164 -236 0
1 33 203 0
-9 20 108 0
40 -54 -229 0
112 113 -134 0
28 178 -192 0
58 130 -155 0
-131 -166 236 0
56 82 157 0
68 -116 -117 0
-66 -100 -245 0
14 -109 188 0
31 -144 -221 0
-139 203 214 0
73 91 243 0
26 -61 109 0
-9 236 248 0
70 -101 -167 0
-32 -49 139 0
-68 101 -193 0
104 -108 -197 0
44 182 194 0
-172 -187 205 0
-14 -103 120 0
79 -108 -150 0
47 -74 162 0
152 171 211 0
111 -194 217 0
-5 -9 143 0
-18 132 173 0
47 -109 176 0
-107 154 -213 0
32 51 -165 0
165 197 240 0
-147 163 -227 0
-18 -85 200 0
3 -65 -220 0
85 197 -210 0
72 -77 -87 0
-6 65 211 0
51 105 159 0
-48 -92 151 0
28 221 -238 0
-75 -198 218 0
3 -89 234 0
28 -113 160 0
6 -93 -152 0
-3 185 -197 0
-75 -91 -110 0
46 60 101 0
12 -168 -222 0
-78 83 -236 0
27 -153 229 0
86 105 106 0
-70 -75 194 0
-21 -66 97 0
105 -180 -240 0
6 123 -158 0
30 -212 214 0
19 33 105 0
68 99 140 0
1 -15 50 0
-1 8 -187 0
28 -151 166 0
-24 96 202 0
-5 -156 -184 0
-26 41 161 0
123 -128 243 0
-6 -75 235 0
164 211 243 0
112 -210 221 0
162 200 239 0
4 111 237 0
-52 -84 220 0
-3 -74 -95 0
50 -75 -143 0
-127 164 -184 0
-9 -59 186 0
-80 206 -223 0
-68 178 228 0
69 72 -235 0
69 91 147 0
-59 122 191 0
-60 -153 -193 0
16 -104 -239 0
131 -219 -225 0
-15 41 -196 0
102 -154 -172 0
-110 -138 -240 0
-65 -99 128 0
52 171 199 0
70 -151 171 0
-85 -121 -180 0
19 32 123 0
-40 -66 -185 0
-1 141 -178 0
34 43 -172 0
-101 108 -203 0
-1 -85 206 0
-38 94 123 0
-78 122 221 0
32 102 191 0
25 -29 -167 0
-98 -118 169 0
-72 125 158 0
-95 139 -249 0
43 -76 194 0
-53 -87 -188 0
-174 -196 -231 0
72 125 241 0
-98 -143 159 0
-3 97 170 0
56 88 122 0
-53 105 -127 0
-103 112 -249 0
-45 -225 237 0
-28 -50 202 0
-172 179 206 0
-135 -150 -183 0
115 128 -151 0
48 -218 -241 0
-49 -62 -155 0
-40 -104 -164 0
-217 -235 -244 0
-120 -198 248 0
-12 -31 155 0
38 43 55 0
-35 74 194 0
-79 101 -107 0
32 -95 190 0
-126 -146 -224 0
-109 153 -154 0
-15 -76 -143 0
18 -178 212 0
74 177 219 0
132 191 -231 0
35 63 160 0
-80 82 -179 0
144 -151 180 0
-39 60 -146 0
70 132 218 0
-113 -146 195 0
43 -137 -240 0
19 -115 143 0
-52 105 165 0
65 -130 167 0
174 200 235 0
24 -97 103 0
-7 36 -130 0
-86 196 -238 0
-21 76 178 0
-5 48 168 0
-42 -125 126 0
46 143 163 0
31 -56 -60 0
21 -118 -191 0
21 176 240 0
31 -171 178 0
87 131 178 0
-169 -212 -235 0
104 -113 195 0
3 -14 240 0
-76 -195 200 0
-52 141 -243 0
-102 130 -223 0
17 30 128 0
-49 106 -129 0
-39 147 -208 0
68 185 195 0
31 206 245 0
129 207 224 0
-158 190 239 0
-112 -118 -129 0
-175 -192 -201 0
174 -176 -214 0
-27 67 -120 0
-94 95 -118 0
-2 -62 142 0
20 -77 -218 0
60 68 218 0
-124 141 -145 0
-21 -66 114 0
29 61 -201 0
27 137 -225 0
30 -82 -125 0
-121 -126 -190 0
9 -113 171 0
16 -34 225 0
-18 -39 -65 0
117 -163 -208 0
-46 175 -199 0
4 -160 -188 0
71 144 -193 0
49 -63 147 0
-98 -156 179 0
19 -139 -160 0
-141 194 242 0
40 -43 232 0
-18 -45 198 0
-22 142 155 0
-39 87 -224 0
-13 -25 -230 0
120 181 213 0
2 -191 244 0
11 -59 -176 0
78 159 -172 0
156 201 -216 0
-13 -23 -26 0
-133 -176 -217 0
-33 61 211 0
-6 -84 230 0
-94 -95 -146 0
55 -86 -190 0
-118 157 215 0
-43 57 221 0
-20 -36 181 0
46 124 149 0
107 110 -247 0
137 165 -183 0
-8 -233 235 0
22 -94 243 0
70 -165 -237 0
-39 -146 -174 0
-146 -190 -192 0
77 98 -209 0
151 -195 -230 0
-41 -88 147 0
7 -34 231 0
-9 44 -104 0
-87 -105 188 0
-5 -110 -160 0
93 147 151 0
63 -129 191 0
74 -130 235 0
71 -73 -242 0
86 -91 -217 0
28 -147 -150 0
110 -151 212 0
-157 -213 216 0
-3 -25 -217 0
-32 -93 175 0
58 -161 -184 0
22 -113 161 0
42 139 165 0
-100 168 227 0
-171 220 -242 0
44 65 228 0
84 138 156 0
-43 55 154 0
141 163 176 0
16 144 244 0
-49 109 111 0
58 90 144 0
-118 136 -226 0
-43 80 -120 0
48 137 -144 0
153 -192 202 0
31 159 181 0
-43 197 -245 0
101 132 185 0
223 -232 -246 0
-10 -29 212 0
18 140 218 0
43 -224 -243 0
-65 96 200 0
-41 55 222 0
-41 85 -187 0
-46 -56 -110 0
16 43 -229 0
136 232 -238 0
11 38 -44 0
65 197 -224 0
100 -146 -234 0
-53 141 -223 0
124 216 228 0
138 168 250 0
-211 -225 -228 0
26 208 228 0
71 -113 246 0
77 91 -121 0
-57 170 -199 0
40 -92 -207 0
3 -25 -35 0
-192 -204 240 0
104 -109 -181 0
-40 154 -230 0
4 59 -239 0
51 -171 176 0
-81 173 196 0
-67 134 -175 0
-119 176 250 0
-13 77 116 0
45 -55 -154 0
31 83 -150 0
44 90 224 0
30 -116 -118 0
-192 -212 243 0
-9 -146 -156 0
31 -43 148 0
-42 -92 -208 0
-2 -12 -136 0
-28 176 245 0
176 -203 215 0
43 -93 208 0
37 87 211 0
-16 24 249 0
44 -81 185 0
-96 -184 229 0
-2 -98 -167 0
-99 -137 -216 0
144 -165 211 0
2 75 177 0
-35 161 -217 0
37 -40 210 0
-99 113 -138 0
52 209 -233 0
-37 -88 136 0
-78 -137 -231 0
52 -112 -154 0
1 94 230 0
-31 196 246 0
8 167 -183 0
19 86 237 0
135 145 -167 0
63 -72 -242 0
39 69 -81 0
90 -173 233 0
60 77 242 0
22 35 -49 0
-42 -71 -207 0
52 -167 -188 0
74 175 -195 0
50 -157 -180 0
116 155 -223 0
12 107 -219 0
22 32 153 0
-56 150 -156 0
-13 -40 -74 0
-140 141 145 0
-9 120 -140 0
9 -81 98 0
-30 -222 232 0
26 -63 -237 0
-87 147 -241 0
12 -34 -112 0
-111 -126 176 0
42 -69 -182 0
-51 87 166 0
69 112 -153 0
-55 61 120 0
-32 -70 233 0
34 -99 -112 0
-20 174 188 0
-101 151 -190 0
-105 224 244 0
82 -98 235 0
-30 -84 134 0
34 195 246 0
-187 -191 -222 0
-8 -43 -158 0
77 147 176 0
96 103 108 0
81 -91 189 0
-112 133 229 0
54 -82 235 0
-23 -95 142 0
-91 -148 208 0
17 87 177 0
18 -120 -208 0
-38 -53 -247 0
-194 -197 -241 0
98 -197 224 0
72 -108 -117 0
55 77 86 0
31 -56 102 0
-1 -82 -245 0
-99 -137 164 0
-2 -171 -185 0
142 145 187 0
57 -160 -224 0
-95 143 206 0
14 -30 234 0
15 37 214 0
-13 -99 -190 0
59 148 -164 0
206 -246 249 0
156 -187 -201 0
-74 102 -209 0
-25 121 -200 0
-7 101 240 0
159 208 -231 0
57 -64 105 0
8 -61 136 0
-117 -223 -238 0
-15 -157 -243 0
-3 79 96 0
10 -109 186 0
202 231 245 0
156 160 244 0
120 207 -225 0
-47 195 213 0
-3 181 -245 0
41 82 167 0
-81 220 -232 0
77 -171 207 0
-5 -173 200 0
-9 -92 -99 0
-14 -108 224 0
153 217 241 0
31 -158 180 0
153 157 -174 0
-3 172 -187 0
-39 105 -134 0
-7 -37 -204 0
-151 191 250 0
-97 145 -223 0
-17 194 200 0
82 159 199 0
35 178 -243 0
19 21 58 0
19 24 187 0
100 126 161 0
27 -52 214 0
-117 130 213 0
120 -159 193 0
-31 -162 -250 0
-10 -85 122 0
68 144 -229 0
-43 -54 104 0
-88 -169 -217 0
-22 145 -228 0
-3 -7 48 0
-1 52 -74 0
-73 197 -235 0
22 -28 160 0
-121 170 -204 0
106 148 -187 0
-24 163 -229 0
-136 145 221 0
234 -237 239 0
-90 -125 135 0
-150 162 -179 0
-78 -124 -224 0
-68 116 -119 0
43 -100 174 0
-196 -214 -228 0
-43 54 -175 0
-84 88 -249 0
42 118 205 0
-32 140 -214 0
-173 -218 224 0
6 -106 249 0
14 -135 -179 0
80 -93 98 0
42 -85 202 0
-118 -175 -202 0
81 221 228 0
-70 145 -157 0
108 -186 222 0
22 -84 -145 0
19 79 91 0
-28 64 -189 0
-63 -82 -160 0
35 81 163 0
140 -146 -210 0
-63 -140 156 0
35 93 234 0
35 244 -249 0
111 -129 222 0
-64 -123 -215 0
