c Phase 3 random 3-SAT negative control
c seed=31039
c ratio=4.26
c variant=uniform
c expected=TO_VALIDATE
p cnf 400 1704
-85 222 322 0
26 -170 -335 0
-32 -49 250 0
86 -237 -337 0
98 138 -369 0
32 -214 -389 0
-136 239 -245 0
21 -71 -142 0
-78 -126 -167 0
231 -248 336 0
20 59 -211 0
-354 364 -387 0
-208 318 357 0
-211 -310 391 0
281 -292 -302 0
-9 -22 184 0
270 309 -342 0
243 -283 302 0
-24 -222 304 0
154 274 -321 0
-77 -174 -367 0
107 226 277 0
63 223 288 0
-32 171 -307 0
-179 281 397 0
-1 81 162 0
-31 -41 -286 0
128 -145 366 0
65 -101 -167 0
-119 -177 -389 0
-114 -229 318 0
259 306 -338 0
-32 150 203 0
109 -259 -349 0
-220 -340 -351 0
81 -256 -377 0
93 -153 320 0
-158 -191 -196 0
-50 -70 345 0
-146 218 255 0
-178 207 -288 0
-16 56 -340 0
-101 271 373 0
132 164 205 0
88 121 -232 0
246 -384 -392 0
29 -225 297 0
250 271 345 0
110 279 -312 0
24 -98 208 0
-65 153 -260 0
-50 78 -86 0
-231 266 -305 0
-160 338 -360 0
-238 318 348 0
-189 258 -330 0
270 -313 363 0
-24 163 -322 0
94 -322 -350 0
-64 -329 -392 0
-59 272 -348 0
-127 -165 -233 0
-98 148 -164 0
-27 -68 89 0
-60 389 393 0
70 104 250 0
-90 191 357 0
-6 47 -285 0
-105 116 -138 0
99 337 365 0
54 -74 318 0
135 227 395 0
126 160 368 0
-62 -312 349 0
-66 -107 -308 0
-31 86 -111 0
74 -108 -202 0
-46 106 -308 0
-153 -245 -276 0
264 265 -319 0
-1 139 -272 0
-361 366 -395 0
110 -174 324 0
-54 320 354 0
-130 -163 -188 0
126 -237 339 0
112 -229 -231 0
-159 -231 245 0
78 -193 -387 0
-48 -188 -394 0
37 -75 -332 0
-29 -34 -54 0
83 160 -386 0
76 -280 291 0
-84 213 -395 0
40 -143 -353 0
-45 222 -274 0
-142 262 -326 0
37 221 -308 0
18 -100 -228 0
-21 119 363 0
-59 -196 -214 0
-85 168 -385 0
-210 299 356 0
-52 -53 347 0
26 341 -368 0
-25 -245 338 0
210 322 390 0
65 -177 -187 0
-83 102 -320 0
258 259 -368 0
4 204 363 0
-38 -291 396 0
-325 -334 384 0
156 264 357 0
-186 233 -370 0
-16 121 238 0
14 -238 -276 0
55 -329 388 0
-50 -209 -359 0
-35 42 -262 0
-6 9 -99 0
-13 -304 340 0
-129 -194 -209 0
-77 -252 387 0
18 162 -203 0
-148 -198 374 0
-86 -257 -274 0
2 -115 130 0
243 262 286 0
82 238 -342 0
-171 235 387 0
-6 238 290 0
312 -362 -390 0
-35 -247 331 0
194 227 238 0
119 148 394 0
-41 179 378 0
94 242 -268 0
128 199 291 0
30 -248 -256 0
265 301 -352 0
230 -297 298 0
-106 -236 -356 0
-80 212 -230 0
55 -117 -259 0
-71 251 328 0
-231 240 346 0
-293 298 381 0
45 144 -351 0
-101 158 -375 0
-70 119 -211 0
-129 -134 -169 0
62 -143 -192 0
-66 86 -242 0
-118 -142 240 0
-10 -108 275 0
-12 119 236 0
-64 -112 -304 0
157 172 -335 0
-33 228 385 0
18 -22 176 0
22 213 -323 0
31 -97 -364 0
-98 237 -336 0
99 103 299 0
154 -173 335 0
221 231 -313 0
-92 -130 -296 0
171 -303 -346 0
-12 13 119 0
-178 -216 261 0
77 -162 -222 0
90 -132 -185 0
84 -114 333 0
94 128 320 0
-83 187 321 0
-161 -202 -253 0
-114 136 -284 0
-25 174 397 0
68 -112 -213 0
93 -273 -308 0
5 -306 -351 0
-42 55 320 0
-177 345 381 0
305 -308 -327 0
-104 106 -394 0
75 222 268 0
-94 -302 374 0
-114 210 -383 0
176 -233 -243 0
-75 -91 -392 0
-57 -71 398 0
287 289 385 0
73 -148 316 0
-81 -304 370 0
102 254 -379 0
29 -107 -393 0
-346 347 -389 0
-197 -201 -211 0
-63 -181 286 0
-343 391 -393 0
-69 309 -382 0
-73 -74 -108 0
49 97 -328 0
-88 296 314 0
-12 75 -78 0
177 -330 -360 0
116 -151 206 0
-92 160 259 0
-283 321 336 0
48 -116 -255 0
32 249 397 0
13 14 154 0
-203 380 -393 0
28 31 83 0
-96 344 -375 0
-70 -128 -336 0
-132 184 -290 0
85 -185 315 0
143 -210 -316 0
200 -323 -371 0
79 167 -228 0
7 -134 -315 0
-80 377 -396 0
206 239 -336 0
24 -247 -282 0
-52 70 105 0
145 -221 327 0
103 244 -286 0
218 -339 -389 0
228 -255 -371 0
248 -271 365 0
-210 222 -296 0
250 -267 -393 0
-228 -298 378 0
64 118 -241 0
-48 -103 -135 0
-229 -230 -389 0
271 -384 394 0
61 -122 -253 0
116 150 330 0
-89 -116 -243 0
-78 -274 390 0
2 214 379 0
-52 -149 312 0
40 132 -319 0
-183 192 -383 0
-63 -137 -251 0
122 134 -249 0
-81 -150 -355 0
-2 -29 276 0
-189 232 -397 0
40 278 360 0
11 -128 -305 0
251 -273 -379 0
-74 -301 -370 0
-8 31 -275 0
-7 137 209 0
116 181 355 0
-163 -203 221 0
-193 225 274 0
46 -236 326 0
-281 294 345 0
-49 81 -216 0
-31 278 312 0
161 227 328 0
-313 -344 -376 0
50 202 -282 0
-25 -134 -184 0
48 -114 -286 0
-242 295 356 0
29 112 206 0
-112 142 155 0
283 -296 -395 0
221 236 -258 0
3 -179 -398 0
-207 261 -383 0
-200 236 -380 0
56 139 268 0
226 292 366 0
109 130 -394 0
54 -139 366 0
28 -113 177 0
-40 -146 318 0
-265 337 -382 0
-81 -119 -257 0
-11 -13 -162 0
54 -110 -281 0
55 -353 389 0
-106 112 -267 0
-137 -146 322 0
-28 272 341 0
-2 133 210 0
40 -134 -281 0
81 258 338 0
-21 183 -299 0
-6 130 -260 0
37 -149 -323 0
-108 -298 351 0
41 165 216 0
104 -136 -238 0
204 310 317 0
64 -128 -354 0
197 309 -350 0
-67 260 400 0
106 -246 -248 0
162 -236 -251 0
151 -195 -204 0
52 234 350 0
18 96 330 0
40 -248 -360 0
10 -85 212 0
14 -145 398 0
-67 304 -348 0
-196 -315 -341 0
34 167 -171 0
-10 -93 146 0
32 -96 117 0
-10 63 307 0
93 169 -211 0
1 57 295 0
-95 310 -343 0
3 130 -145 0
119 -271 327 0
-186 -310 -395 0
-78 -127 301 0
1 379 397 0
-195 360 394 0
194 -278 -294 0
62 104 133 0
150 -321 353 0
-77 -125 376 0
-48 90 356 0
-182 -287 -380 0
-19 -335 354 0
86 189 -234 0
-148 -149 -217 0
114 -247 256 0
-121 -212 -233 0
-17 -139 393 0
-29 -114 -207 0
21 74 -162 0
363 380 392 0
-2 233 374 0
26 143 224 0
29 337 -340 0
238 353 366 0
-127 270 -348 0
-129 -148 -192 0
17 35 325 0
-81 117 -179 0
9 282 -382 0
192 -278 -313 0
-143 -338 341 0
-179 321 378 0
23 83 252 0
202 -315 384 0
188 242 330 0
-57 -240 302 0
267 -328 331 0
79 297 385 0
5 -132 -136 0
-17 -50 -210 0
59 -263 276 0
198 -231 285 0
28 286 -393 0
118 -336 344 0
-116 253 384 0
-185 -351 -364 0
-50 -289 354 0
-31 -262 -277 0
157 295 -322 0
8 -184 318 0
59 98 351 0
-89 -176 -215 0
18 -108 183 0
-83 -100 295 0
-27 -55 -68 0
-104 -192 -249 0
11 56 -94 0
46 91 -357 0
177 347 353 0
141 210 263 0
83 -126 210 0
-157 -196 -294 0
6 42 54 0
51 220 308 0
-99 201 -284 0
43 175 398 0
200 332 387 0
-12 185 -362 0
20 280 304 0
56 -57 -109 0
80 -131 -295 0
-86 -126 -139 0
-182 196 -261 0
34 58 93 0
85 93 -166 0
28 -79 325 0
-27 172 -282 0
14 -255 321 0
117 -147 181 0
48 -128 362 0
-158 -258 -385 0
-76 359 -382 0
-141 282 -317 0
3 -92 166 0
-129 239 -262 0
-76 -125 -195 0
76 -189 -254 0
27 128 332 0
-119 -125 196 0
101 -122 260 0
-42 112 -187 0
191 -245 -334 0
-216 -244 326 0
-13 -189 323 0
-19 203 -263 0
-41 -202 -291 0
-17 181 271 0
-22 -126 306 0
-230 -302 -311 0
-125 -239 249 0
7 -8 -333 0
44 244 -331 0
-86 -314 -384 0
90 205 346 0
-49 195 -298 0
193 208 255 0
-158 -229 -257 0
-258 -337 373 0
54 107 -374 0
47 -55 193 0
-24 217 324 0
-3 -35 -294 0
47 76 313 0
-192 254 -359 0
184 -203 -325 0
92 141 160 0
140 231 -245 0
40 213 -393 0
129 175 196 0
-43 -372 390 0
104 -186 367 0
-14 72 81 0
-26 324 -395 0
-57 -75 365 0
166 -181 197 0
-49 111 205 0
41 159 297 0
49 -326 393 0
-32 -105 -116 0
-244 -270 279 0
-192 296 -310 0
-23 31 -265 0
43 240 -388 0
-178 246 -303 0
-108 -202 -296 0
53 -112 -282 0
-119 192 318 0
200 -221 -241 0
71 -217 316 0
51 164 382 0
149 -309 381 0
89 240 -374 0
58 -176 389 0
-2 -174 262 0
-63 73 305 0
-135 216 -367 0
17 28 377 0
-47 69 211 0
-55 -73 185 0
-126 -216 -392 0
142 -214 -286 0
47 -303 -378 0
-113 129 173 0
-157 -384 -396 0
-59 257 398 0
-147 230 238 0
-134 280 -305 0
-96 143 345 0
-11 356 400 0
-207 -238 321 0
200 222 293 0
-13 289 388 0
-61 90 144 0
-3 -202 -204 0
49 -174 -187 0
2 -160 339 0
293 -298 -390 0
-144 311 370 0
213 -232 328 0
-137 217 -289 0
-30 -180 355 0
3 -128 267 0
-113 134 -343 0
-106 -288 -312 0
146 191 209 0
309 317 -342 0
159 -334 354 0
19 49 309 0
-60 70 157 0
42 261 -370 0
-176 327 383 0
-14 107 -375 0
-123 -157 -376 0
-59 -96 -236 0
160 -184 229 0
73 -318 398 0
-117 -212 377 0
-111 -203 -240 0
120 240 263 0
107 195 -315 0
-135 228 341 0
-166 348 -378 0
131 345 -355 0
9 -202 304 0
52 -150 -356 0
149 -308 353 0
-30 312 346 0
-118 -265 380 0
-26 280 -347 0
-54 -189 -259 0
-43 -232 361 0
-172 280 309 0
-156 -203 271 0
-211 251 -332 0
-226 -256 397 0
157 -382 385 0
13 118 309 0
181 -269 273 0
85 -199 339 0
13 -46 -320 0
201 -203 222 0
-25 -68 -272 0
163 314 -360 0
116 -313 -353 0
-215 310 395 0
-7 -163 245 0
-249 -290 360 0
-22 -78 327 0
-154 -219 -397 0
135 -201 274 0
216 -228 241 0
-69 -298 375 0
-32 33 -252 0
-86 -87 201 0
14 -196 343 0
-5 43 -250 0
-99 116 -134 0
135 -214 -245 0
156 192 -233 0
47 -195 305 0
-73 -103 382 0
-44 -226 277 0
125 196 -315 0
39 -158 272 0
87 -89 -91 0
34 -107 -260 0
-64 121 286 0
-51 112 313 0
122 178 400 0
69 268 316 0
-88 192 208 0
15 223 -370 0
-260 272 340 0
-2 175 335 0
3 -299 -343 0
128 -147 -306 0
-58 80 -277 0
21 -93 -219 0
139 213 399 0
-40 -267 -332 0
2 -224 263 0
-65 157 -267 0
155 330 366 0
208 344 370 0
-27 -170 -192 0
52 -128 372 0
309 -340 387 0
45 270 314 0
175 277 -396 0
212 -301 397 0
-14 164 357 0
-192 283 382 0
-4 67 207 0
-150 217 -263 0
321 -354 380 0
34 -96 245 0
43 163 -368 0
-75 177 200 0
37 198 -218 0
76 -88 376 0
-146 168 327 0
-201 -297 -399 0
291 335 367 0
77 189 267 0
-98 171 -255 0
-31 139 308 0
230 326 352 0
134 216 380 0
5 78 -150 0
-100 -119 120 0
107 216 -298 0
-19 240 379 0
212 283 324 0
185 -192 399 0
-90 -136 169 0
-76 136 289 0
-75 300 -371 0
22 -73 -120 0
21 -189 379 0
129 143 -306 0
-34 -133 -312 0
53 -64 -185 0
-49 163 -316 0
80 247 -348 0
241 -314 348 0
-48 -386 394 0
-33 -357 375 0
11 270 -380 0
-289 -368 -398 0
117 -222 -338 0
83 -229 -376 0
-13 16 -32 0
71 -282 -381 0
214 -299 -392 0
-33 148 -230 0
-93 -225 -351 0
-211 -250 384 0
20 109 152 0
-114 194 -313 0
-128 -171 -351 0
-9 -110 145 0
-130 275 -341 0
47 -190 -231 0
9 16 82 0
121 191 -215 0
-166 -229 245 0
32 64 79 0
191 -206 -253 0
138 252 376 0
81 -216 244 0
140 -163 -388 0
-6 32 -252 0
-124 308 -313 0
18 309 338 0
-297 -349 -391 0
-120 -321 325 0
-101 -166 -351 0
12 -212 -278 0
117 225 -253 0
-34 160 -198 0
43 207 -370 0
150 232 -325 0
-229 -265 -351 0
-224 244 -319 0
-27 171 348 0
34 185 -285 0
-55 259 273 0
143 231 385 0
342 -371 383 0
140 -262 297 0
93 -363 366 0
52 141 -381 0
-86 259 347 0
-89 -283 313 0
-146 -159 -391 0
-126 -252 325 0
178 -238 -330 0
-115 134 284 0
-89 -228 326 0
-37 84 125 0
-44 -84 -271 0
-28 67 -231 0
-296 -326 -395 0
141 263 383 0
-44 -79 107 0
-276 -290 357 0
122 -137 279 0
-60 320 378 0
104 150 252 0
-154 -312 -323 0
-202 237 -282 0
67 -84 108 0
-22 237 364 0
177 219 328 0
-50 153 254 0
-76 -148 -359 0
-289 -359 -375 0
298 -309 380 0
-143 -220 -265 0
-14 225 327 0
163 316 -380 0
80 -119 316 0
12 172 -313 0
107 -290 -316 0
113 -156 -306 0
4 180 -199 0
18 85 267 0
-180 263 -267 0
154 315 349 0
43 302 326 0
36 243 389 0
26 148 200 0
31 -330 372 0
133 -261 -334 0
-37 92 131 0
-267 -309 -313 0
65 265 -364 0
16 -353 -392 0
-232 301 -396 0
-30 51 96 0
211 289 -389 0
-155 -242 -317 0
-46 131 -384 0
45 -152 -252 0
-79 -240 -275 0
-121 -151 273 0
-237 311 -398 0
-164 -309 -394 0
-5 198 -304 0
-148 172 -198 0
83 -116 286 0
115 185 390 0
-22 -64 -89 0
150 -356 -393 0
-136 -224 307 0
186 326 -348 0
-214 329 360 0
-155 -284 339 0
64 317 366 0
41 92 381 0
-166 -231 -362 0
54 -187 -231 0
-117 206 -361 0
-47 -208 -237 0
-12 84 131 0
-71 88 224 0
-51 77 249 0
43 83 219 0
-53 87 -315 0
33 147 313 0
-193 235 252 0
124 -273 -358 0
-169 -316 -368 0
-60 -250 333 0
-115 163 -254 0
59 -127 -358 0
135 200 231 0
82 -99 -196 0
2 -8 -48 0
31 117 179 0
85 -108 343 0
-128 272 307 0
57 125 354 0
-225 269 335 0
-119 240 289 0
29 -206 252 0
282 289 292 0
62 64 -72 0
-41 -108 -373 0
-33 -114 -365 0
84 -217 -226 0
48 -51 76 0
85 315 -385 0
45 -91 -345 0
-33 168 239 0
137 -320 386 0
-221 -337 -389 0
-211 239 -290 0
53 -98 157 0
40 -300 306 0
15 -267 -362 0
285 342 -364 0
-18 -195 312 0
2 -108 151 0
80 -204 -299 0
-103 -270 -386 0
8 -271 337 0
-100 -344 348 0
167 324 -382 0
-213 354 -364 0
-23 -64 -125 0
369 386 -387 0
89 144 -240 0
-50 -129 -203 0
200 211 271 0
-50 -74 360 0
-168 203 -398 0
125 -178 304 0
179 -307 323 0
-79 165 340 0
47 -92 -169 0
-332 339 356 0
-116 -334 370 0
178 -212 -344 0
10 -227 -291 0
-348 -351 -384 0
-176 230 -286 0
-97 -301 -306 0
-117 166 370 0
-20 -165 -253 0
55 -162 -279 0
-169 -253 395 0
159 244 -337 0
24 -56 277 0
248 -278 -280 0
-23 41 -234 0
-66 -77 -367 0
-61 83 313 0
211 220 -268 0
-119 -142 -379 0
-109 -238 316 0
10 47 295 0
96 -151 -392 0
28 -58 -152 0
23 109 263 0
72 203 288 0
80 107 -288 0
40 171 -368 0
49 117 238 0
181 -369 371 0
-25 132 276 0
248 297 -397 0
47 117 255 0
-77 212 225 0
-200 -204 312 0
-2 -236 -245 0
61 -233 242 0
262 -264 292 0
74 -105 239 0
-272 -273 -321 0
-25 96 -248 0
-8 -158 -227 0
6 195 -246 0
-120 -131 259 0
120 -183 -231 0
87 240 261 0
24 -224 -312 0
54 -315 -391 0
78 186 -305 0
-80 149 218 0
-54 -145 256 0
-88 -184 258 0
-152 262 -272 0
12 -249 362 0
34 177 303 0
31 -103 -378 0
-22 76 309 0
-135 -207 -389 0
-147 -255 -262 0
-214 -255 330 0
72 160 342 0
78 -251 261 0
-142 227 247 0
-8 -60 -236 0
339 -347 -386 0
-159 287 -342 0
-11 14 -346 0
-178 194 -206 0
40 -147 -160 0
58 -77 -186 0
-84 -285 -320 0
-123 -150 364 0
4 231 318 0
15 25 -321 0
100 -207 -221 0
36 -195 -276 0
-115 237 -339 0
-207 215 -379 0
-80 -291 -297 0
-32 -39 277 0
46 92 -284 0
45 137 162 0
-225 342 -344 0
-146 -321 -332 0
204 288 290 0
-129 334 370 0
224 -302 -361 0
23 207 -210 0
71 230 381 0
150 222 365 0
69 315 -376 0
75 -221 -294 0
-34 219 262 0
53 -106 -172 0
109 242 -387 0
-44 67 -158 0
-13 -176 -275 0
-215 218 300 0
-60 255 356 0
-62 173 254 0
85 345 360 0
188 -349 363 0
151 -310 -334 0
-140 171 306 0
186 206 -317 0
21 55 175 0
102 229 338 0
-123 245 350 0
-126 -194 213 0
175 361 390 0
89 246 -263 0
-114 -286 378 0
-23 32 -218 0
176 -284 -385 0
-98 -187 -344 0
84 113 -128 0
44 259 -298 0
-315 -318 366 0
209 -242 -331 0
112 -226 375 0
-88 90 187 0
-39 -99 -226 0
48 -130 200 0
116 157 -386 0
-110 141 -345 0
11 -191 -339 0
-128 -144 312 0
79 201 295 0
132 321 -334 0
231 -265 -322 0
-107 -128 320 0
-41 -317 355 0
-157 299 -326 0
117 262 294 0
45 50 370 0
108 201 -233 0
103 185 -308 0
35 36 365 0
-108 -185 230 0
-26 28 -41 0
-87 193 -304 0
-3 23 -398 0
-190 222 365 0
164 343 353 0
-112 -324 -350 0
-21 -28 266 0
92 124 253 0
-141 -356 391 0
233 251 394 0
25 -131 -170 0
73 -144 148 0
61 -193 198 0
-14 -232 -260 0
-56 241 370 0
183 -212 -354 0
-126 139 -244 0
-87 -224 -270 0
23 -270 300 0
-45 -306 350 0
82 -297 366 0
75 272 337 0
10 -69 -250 0
-40 -89 395 0
214 -247 302 0
55 -190 -292 0
-179 -201 379 0
220 -348 -392 0
-236 306 310 0
-123 168 257 0
361 -371 -384 0
52 239 -270 0
47 148 310 0
-92 181 -270 0
143 154 -276 0
-18 253 -356 0
34 290 -341 0
51 -339 -388 0
138 -298 361 0
80 -148 395 0
53 99 -115 0
103 116 -307 0
-38 122 -165 0
-50 -306 -346 0
106 260 -344 0
108 -313 340 0
-52 -64 349 0
26 288 -307 0
53 -210 -380 0
-95 -215 -387 0
-63 -103 252 0
-62 -230 -322 0
-46 181 289 0
-59 90 309 0
23 -232 246 0
-5 -51 -135 0
10 29 -221 0
149 271 325 0
-177 -295 -374 0
-343 -386 390 0
26 -162 365 0
-50 278 -325 0
-165 195 284 0
-15 -102 -108 0
-85 215 372 0
15 -218 349 0
17 287 -353 0
-118 -261 -266 0
-15 126 196 0
116 218 -376 0
248 -279 -324 0
117 -137 -300 0
221 376 -384 0
-61 -196 -207 0
73 -214 319 0
-91 148 337 0
255 381 390 0
156 -273 -349 0
31 59 398 0
-29 -181 -371 0
97 267 332 0
273 -291 -370 0
-291 -328 335 0
5 -70 -106 0
-33 -44 266 0
164 200 381 0
70 -107 371 0
-182 309 -372 0
140 -162 306 0
135 -359 399 0
-49 -98 -258 0
-28 -104 -109 0
-4 -230 335 0
239 -267 -314 0
-112 -262 380 0
-1 117 136 0
92 -107 251 0
-47 60 -329 0
102 136 381 0
-36 158 329 0
55 93 283 0
-99 -116 -138 0
-97 -172 300 0
153 -214 358 0
148 -170 -252 0
11 -19 -118 0
308 377 399 0
-26 -237 324 0
220 320 -329 0
-113 -367 -380 0
-146 369 -376 0
177 -317 -361 0
-82 -285 -301 0
-53 -267 -321 0
167 171 -302 0
65 -210 378 0
140 150 -212 0
100 178 187 0
51 -89 -290 0
-19 32 -328 0
-14 -170 -307 0
-195 -263 -320 0
-136 -240 -266 0
-101 160 -341 0
-21 27 -73 0
-120 207 360 0
-71 190 -231 0
29 178 245 0
35 -70 -373 0
-128 -242 328 0
37 118 -262 0
-66 -275 -347 0
-96 282 367 0
-28 32 59 0
124 -185 281 0
191 -250 287 0
-117 194 -245 0
316 347 -362 0
-203 -234 -313 0
128 -170 -209 0
187 -220 396 0
-189 -200 308 0
-178 -207 -249 0
328 -356 -381 0
183 -321 -389 0
18 -95 -316 0
151 230 -385 0
-159 234 -336 0
173 -263 -269 0
-1 207 -292 0
-252 -331 374 0
40 -133 245 0
-1 -67 399 0
-50 -244 284 0
-24 -224 -279 0
-48 -241 -250 0
-263 -280 371 0
100 120 -225 0
-29 -185 -271 0
-48 -124 175 0
138 -142 -341 0
-59 -106 -386 0
-195 -225 -251 0
125 184 186 0
-102 162 -344 0
-17 117 253 0
-164 -250 -290 0
31 -171 -318 0
-151 285 366 0
-45 -258 -309 0
-175 -211 259 0
215 -242 243 0
55 -100 -247 0
8 -324 332 0
-8 95 213 0
161 -187 -345 0
-158 -310 317 0
-110 237 322 0
193 216 284 0
-39 -210 -284 0
-74 -79 -254 0
-12 214 373 0
-224 -304 377 0
-70 119 -303 0
-12 -260 348 0
72 -192 253 0
-93 -139 314 0
182 -224 342 0
-6 -245 320 0
156 -325 353 0
8 -171 200 0
52 84 94 0
-63 129 310 0
62 153 -293 0
-26 -55 -176 0
-99 163 -399 0
-31 157 205 0
25 33 336 0
24 329 -359 0
-155 -245 356 0
-242 -317 345 0
-75 -158 -382 0
69 120 174 0
241 261 -371 0
-164 285 337 0
-79 144 -363 0
94 120 -375 0
152 -230 351 0
14 232 296 0
-71 -123 185 0
-7 -225 -239 0
-57 -173 311 0
-56 90 176 0
-86 -203 336 0
309 318 -349 0
-180 229 -282 0
-96 -262 311 0
121 297 -332 0
80 227 -344 0
100 105 135 0
4 335 373 0
48 74 -314 0
186 -277 281 0
193 -208 276 0
191 319 -354 0
76 -173 -259 0
73 155 -160 0
-281 321 372 0
30 -48 -71 0
17 19 226 0
-63 -146 193 0
-114 -126 -237 0
-78 207 -216 0
77 -293 -353 0
-86 -126 -181 0
-30 -50 -397 0
72 109 263 0
135 172 323 0
-10 45 -57 0
164 -218 251 0
-10 118 -376 0
-61 151 170 0
-136 352 389 0
44 -242 -381 0
7 -29 307 0
86 211 372 0
-88 -170 287 0
-9 217 374 0
13 -94 175 0
53 66 80 0
-81 247 -264 0
-164 204 363 0
83 -157 207 0
220 -292 -374 0
-17 -70 -347 0
-17 -43 176 0
-300 -324 383 0
26 -38 160 0
17 182 -288 0
-42 -308 329 0
48 -309 -325 0
41 -107 -108 0
-11 209 -365 0
-142 272 -354 0
-99 132 331 0
281 283 -391 0
-9 -33 105 0
-33 159 279 0
38 -69 -195 0
279 298 303 0
134 154 385 0
82 336 -377 0
75 -244 326 0
199 202 316 0
53 226 -392 0
29 100 269 0
43 -120 121 0
-87 -314 384 0
273 301 303 0
-45 87 384 0
-38 243 298 0
142 -164 -195 0
135 -232 -244 0
-64 86 -316 0
91 -389 400 0
-28 153 -200 0
-208 -231 334 0
171 -193 235 0
4 -122 177 0
65 293 368 0
-62 78 -377 0
78 100 -286 0
-8 -299 -372 0
-61 128 -179 0
-213 -248 350 0
-9 33 379 0
217 232 -249 0
-30 43 96 0
-58 -59 82 0
-171 -368 400 0
23 -80 370 0
-6 108 -250 0
114 169 311 0
-67 -246 362 0
28 180 213 0
205 -344 -345 0
17 45 357 0
-121 148 -222 0
-63 -66 -118 0
-15 -162 383 0
-179 -222 -386 0
-56 -98 -349 0
37 -114 388 0
33 125 266 0
-27 156 -392 0
-62 145 -201 0
181 337 384 0
239 -306 -398 0
-156 281 -377 0
123 131 -257 0
-85 -247 -342 0
-93 -180 399 0
-318 -345 390 0
-96 104 -150 0
26 -89 108 0
-153 -233 379 0
192 311 -342 0
-139 269 -306 0
265 -357 -389 0
-131 -253 254 0
-46 -78 -361 0
-150 199 382 0
42 -187 -262 0
-110 -301 -341 0
-165 199 399 0
40 -159 230 0
-291 318 -397 0
144 -150 204 0
105 108 384 0
213 353 392 0
123 131 -379 0
55 -119 252 0
197 378 -394 0
-50 198 296 0
-57 67 149 0
-1 87 234 0
-100 122 -316 0
-191 304 365 0
42 -138 332 0
-286 293 305 0
-2 21 87 0
191 216 -379 0
-150 200 289 0
48 309 -314 0
66 307 323 0
279 -305 -340 0
102 -147 -174 0
54 -72 359 0
183 -220 -265 0
11 18 355 0
21 24 -317 0
-358 -375 386 0
65 349 -351 0
-167 -190 204 0
-11 -64 -248 0
-31 135 201 0
18 137 -161 0
55 249 307 0
38 -119 -161 0
-24 116 -203 0
13 -66 115 0
183 -246 -312 0
-180 -232 -327 0
51 -131 282 0
81 145 368 0
-283 342 381 0
56 362 -381 0
98 -132 257 0
-41 214 -390 0
-292 336 379 0
160 -384 387 0
-275 -347 -397 0
-17 261 -359 0
128 227 357 0
-116 -247 301 0
207 313 -340 0
-127 171 373 0
-129 244 -355 0
-4 336 -342 0
-23 -50 -165 0
170 -336 -350 0
42 -154 198 0
-232 -282 -295 0
7 -13 44 0
-63 97 333 0
48 -256 281 0
133 -234 -289 0
-63 -155 246 0
-173 375 -384 0
-151 -381 395 0
141 155 164 0
77 -161 313 0
167 -207 -327 0
-58 268 -279 0
-54 206 -354 0
-40 -292 338 0
-114 -209 264 0
-160 328 -347 0
230 -254 -384 0
115 151 -346 0
300 -303 -333 0
-140 -161 184 0
137 -250 390 0
55 168 347 0
-26 61 242 0
185 192 259 0
-91 -243 328 0
74 363 393 0
225 231 383 0
-67 -234 265 0
54 -94 334 0
-28 107 -376 0
57 -169 183 0
61 -86 -164 0
74 303 -347 0
-141 240 379 0
-148 -212 254 0
-158 241 286 0
108 -158 -294 0
12 -218 261 0
46 212 -297 0
104 -108 -221 0
-79 293 -381 0
195 338 379 0
-28 -84 -115 0
24 332 -393 0
64 119 -368 0
270 -285 321 0
-241 -274 -328 0
57 200 -217 0
117 225 292 0
-46 -77 -331 0
46 179 -267 0
-224 321 371 0
-2 279 323 0
11 168 178 0
-27 -205 359 0
-133 -177 -274 0
205 -225 241 0
240 296 312 0
159 -358 -359 0
-132 174 360 0
67 -120 369 0
39 96 -349 0
64 346 -355 0
152 -306 -346 0
-127 -206 385 0
29 -126 279 0
-39 71 -260 0
-216 291 -398 0
-110 -140 -343 0
-20 135 292 0
144 150 355 0
170 328 333 0
35 57 164 0
-17 -61 -206 0
147 162 -319 0
-129 134 141 0
32 135 -243 0
148 235 393 0
-129 -238 -371 0
24 32 172 0
-72 111 -196 0
195 313 -341 0
143 -171 291 0
93 -138 -171 0
-86 -214 369 0
59 -143 211 0
-78 -87 154 0
57 230 248 0
-153 237 248 0
-147 -164 337 0
90 -105 271 0
103 -241 -356 0
-104 105 -311 0
-31 -104 175 0
62 80 -326 0
-138 313 -330 0
-31 -331 -345 0
-33 -54 -306 0
-120 130 318 0
-182 -225 -308 0
-76 240 -295 0
12 337 -353 0
-108 -178 -252 0
-104 203 -275 0
191 -194 263 0
82 -157 -172 0
43 52 -250 0
-100 295 -370 0
-187 217 283 0
-151 -189 194 0
277 379 390 0
185 -281 354 0
-149 -282 326 0
-13 -212 335 0
61 -306 -351 0
21 -156 -337 0
75 210 330 0
-95 264 -342 0
61 116 172 0
-44 310 374 0
194 310 349 0
-3 -119 -165 0
-13 -133 -318 0
150 -195 -250 0
219 243 283 0
-26 -146 195 0
-99 252 257 0
253 274 -288 0
-13 147 383 0
-46 -308 -355 0
59 -245 373 0
-3 50 -316 0
-54 -134 -303 0
-276 -343 398 0
72 309 350 0
136 -301 -338 0
68 105 -190 0
-223 -265 -392 0
-127 -146 240 0
86 -290 343 0
-90 -107 -233 0
82 96 -159 0
-67 92 349 0
-105 -279 -319 0
-30 -268 -336 0
-43 227 -338 0
-120 121 381 0
59 -70 397 0
-164 -243 280 0
-170 259 -355 0
-54 285 -377 0
-204 266 323 0
163 202 365 0
-39 -225 -340 0
-117 168 354 0
-176 253 364 0
-146 -208 -390 0
51 209 -278 0
-5 268 359 0
91 120 -399 0
1 -123 141 0
-4 -31 75 0
-32 -352 -374 0
-28 83 359 0
-17 -53 -384 0
205 286 354 0
-1 -177 355 0
-81 -183 -278 0
-153 -312 347 0
160 230 396 0
146 183 339 0
184 193 321 0
-77 90 -222 0
157 -200 -262 0
-14 76 278 0
-154 -357 381 0
-27 98 365 0
190 -349 -399 0
-76 126 -154 0
-133 -142 144 0
16 101 260 0
146 223 -382 0
137 189 294 0
163 -188 372 0
-67 -193 -306 0
288 -312 349 0
-51 193 -364 0
30 -243 -289 0
-207 -230 -336 0
83 -236 -250 0
-84 104 390 0
-18 318 348 0
-31 -158 -355 0
32 107 314 0
-75 313 -336 0
-60 -71 340 0
96 -233 -351 0
239 -262 -385 0
-69 -101 -269 0
-178 239 317 0
172 -313 334 0
-7 -20 -280 0
13 -115 262 0
25 267 375 0
-158 217 -296 0
28 -302 -325 0
227 336 375 0
-90 -249 -339 0
242 251 -364 0
-46 128 -333 0
-8 -128 -386 0
-40 160 -366 0
96 129 156 0
88 -202 207 0
-178 -199 286 0
-96 -173 -270 0
54 259 -342 0
56 127 -146 0
192 -305 -319 0
-124 -169 -335 0
66 75 292 0
148 -150 286 0
102 -191 274 0
-96 -206 329 0
212 221 266 0
247 312 -342 0
79 149 297 0
67 152 -246 0
279 325 390 0
-113 181 -272 0
-13 162 -281 0
-14 32 -33 0
-56 163 -176 0
31 144 -243 0
-311 319 -342 0
241 -299 326 0
-69 -190 198 0
72 126 -396 0
-51 315 -322 0
25 -123 279 0
161 -281 -327 0
102 -133 -187 0
-1 253 324 0
10 47 157 0
-53 -273 -387 0
9 -126 -232 0
50 90 222 0
146 -263 -347 0
207 253 397 0
-129 154 379 0
-14 111 184 0
-195 216 281 0
-8 -221 397 0
-123 276 -317 0
-203 290 388 0
-73 -74 217 0
256 -326 348 0
37 -162 277 0
99 167 -234 0
171 227 -382 0
-5 180 280 0
186 200 -320 0
-18 -62 -354 0
17 154 267 0
247 282 -398 0
-159 199 374 0
-207 -232 -318 0
-1 -199 373 0
-108 137 285 0
38 -104 373 0
-47 212 229 0
81 -144 329 0
58 204 344 0
89 132 242 0
159 -162 215 0
-72 -193 204 0
10 -177 -372 0
-52 187 375 0
-248 -337 -395 0
74 291 -398 0
-46 -169 237 0
101 226 315 0
102 -158 314 0
-109 -186 -246 0
-128 195 -229 0
-150 216 227 0
240 -253 -372 0
24 -248 -273 0
60 174 -256 0
-115 -185 -370 0
54 -74 343 0
-68 174 -245 0
30 -98 -377 0
-81 238 -368 0
99 157 -352 0
-4 191 -243 0
13 247 294 0
98 193 305 0
-175 -348 -398 0
-261 299 310 0
-57 332 -371 0
-162 -271 -280 0
-66 277 313 0
-146 -183 -342 0
99 207 393 0
-141 204 -287 0
-92 224 302 0
-17 -76 361 0
-310 350 360 0
108 -126 -193 0
93 -280 -337 0
126 -331 358 0
70 -100 -146 0
-159 184 -210 0
-7 62 -184 0
146 -163 175 0
-27 265 -313 0
18 171 334 0
-52 -98 152 0
-186 195 329 0
28 56 150 0
-51 -178 212 0
-116 -217 -323 0
45 284 378 0
-236 -271 277 0
76 -163 387 0
122 130 133 0
27 95 351 0
-113 133 -163 0
15 134 315 0
124 -207 348 0
110 155 -305 0
-58 -107 348 0
19 154 -228 0
-40 97 -314 0
-55 -291 -384 0
41 146 274 0
-112 143 -193 0
93 -277 -287 0
-161 -196 -364 0
161 -189 307 0
66 380 384 0
-47 -158 390 0
254 333 -382 0
67 129 -208 0
89 -182 -277 0
-187 234 -318 0
-49 -204 270 0
149 201 -339 0
135 -387 -391 0
20 -79 -86 0
-126 -187 -289 0
210 -345 -399 0
-210 -252 -367 0
110 -294 -349 0
207 265 359 0
-60 124 164 0
261 358 398 0
-263 -264 342 0
-27 199 215 0
125 294 389 0
-102 166 -327 0
169 280 -293 0
244 270 -314 0
197 -223 -339 0
18 99 158 0
80 -318 -388 0
156 -245 248 0
89 133 -275 0
15 -312 -392 0
26 186 270 0
97 -158 -251 0
-72 -150 343 0
27 -118 134 0
79 -100 -209 0
-28 -77 -238 0
137 -196 -343 0
163 -192 -358 0
78 162 320 0
