c Phase 3 random 3-SAT negative control
c seed=31040
c ratio=4.26
c variant=planted_sat
c expected=SATISFIABLE
p cnf 400 1704
54 -79 179 0
50 341 -349 0
-84 191 195 0
39 -86 192 0
190 -274 362 0
-74 -333 -351 0
67 82 85 0
-28 -114 -239 0
-67 -110 317 0
-12 81 313 0
111 166 -338 0
148 -158 298 0
-69 -96 -255 0
-9 -240 311 0
-19 -166 399 0
-132 -153 -395 0
-101 243 -399 0
13 -41 155 0
-164 304 356 0
72 -107 373 0
-72 -293 305 0
160 320 -398 0
48 -196 -323 0
145 -146 213 0
-105 -107 -333 0
-35 293 316 0
-2 -157 205 0
34 -108 238 0
-51 -124 389 0
-5 -310 400 0
-64 238 368 0
-48 -102 179 0
187 -239 352 0
-170 -302 -310 0
118 -160 -184 0
-41 -181 331 0
-81 -235 353 0
-17 309 359 0
-68 -185 -387 0
151 -357 386 0
278 -353 359 0
61 -105 205 0
-26 293 -369 0
-138 -163 397 0
-16 17 -62 0
-197 -198 363 0
-47 54 239 0
-196 289 -357 0
-33 -375 381 0
-11 -42 316 0
-3 -119 -162 0
-127 -175 -198 0
-143 167 263 0
-167 -277 -349 0
72 -99 -311 0
-255 282 312 0
18 -225 -289 0
2 -193 -364 0
265 378 395 0
102 366 -379 0
146 284 -332 0
56 -227 -376 0
27 -188 -316 0
-24 -41 145 0
-38 -86 -266 0
-84 -192 -371 0
218 253 -284 0
17 -44 330 0
-80 209 -318 0
179 -270 334 0
-3 15 391 0
12 47 -362 0
73 101 182 0
-43 178 -395 0
4 249 397 0
91 97 292 0
50 165 -387 0
-226 291 342 0
-164 -187 -358 0
314 -319 370 0
4 -58 317 0
-188 194 -276 0
-31 -52 -173 0
-238 -265 -383 0
9 85 -203 0
65 -108 -182 0
-142 263 281 0
252 345 363 0
-31 -248 302 0
17 -37 156 0
26 -217 329 0
-14 44 -219 0
-16 286 396 0
44 -130 267 0
164 -213 393 0
86 -195 -357 0
132 -185 354 0
159 -221 -329 0
-51 281 326 0
-121 365 -382 0
3 -248 330 0
15 -84 277 0
-96 -341 362 0
128 -184 337 0
74 -142 -357 0
-164 295 -378 0
31 -113 -311 0
-188 -390 397 0
87 -212 228 0
-5 75 167 0
98 119 191 0
-120 -200 -252 0
204 -369 -384 0
-97 -227 -376 0
165 187 -234 0
68 104 -194 0
211 339 -399 0
-70 -112 -179 0
277 -302 -399 0
184 211 321 0
-100 -188 277 0
28 152 189 0
79 -234 351 0
-229 -245 366 0
-21 84 -257 0
-176 -185 208 0
-225 228 -365 0
172 -213 -249 0
-175 221 -298 0
148 170 -338 0
158 280 -365 0
-88 133 -347 0
234 -381 -396 0
90 123 399 0
124 203 294 0
125 205 300 0
182 -220 272 0
-151 -242 -398 0
-157 -276 345 0
-35 184 203 0
-20 72 -245 0
199 242 -259 0
-43 -230 -280 0
-20 64 -168 0
-97 226 298 0
250 -326 397 0
-13 -171 -326 0
18 185 -204 0
17 -242 -245 0
57 -188 260 0
-230 238 261 0
-266 -287 317 0
-84 200 -349 0
-122 -192 -235 0
-105 354 -358 0
-192 327 375 0
112 -154 -340 0
-230 361 374 0
84 195 331 0
3 16 56 0
-19 82 -170 0
15 -24 -142 0
195 231 283 0
-46 207 -286 0
-26 36 350 0
-260 -308 394 0
-55 -61 271 0
284 -336 341 0
110 188 -385 0
-17 34 312 0
2 148 242 0
58 222 -287 0
-21 199 -310 0
7 33 81 0
39 187 317 0
216 250 375 0
-131 183 -333 0
-47 -55 -188 0
24 77 -156 0
335 -340 353 0
57 224 365 0
12 76 78 0
-149 -235 293 0
-90 164 -187 0
77 -238 -344 0
-49 -121 148 0
-123 200 -212 0
-129 264 333 0
-195 279 -297 0
-62 149 -164 0
-32 -58 197 0
122 164 -302 0
-33 144 398 0
91 96 -375 0
195 -242 328 0
-148 172 281 0
-32 -224 -398 0
54 234 362 0
-14 125 372 0
176 -185 293 0
56 80 248 0
58 -67 74 0
55 -203 -246 0
-264 -316 333 0
59 -159 191 0
-43 113 -373 0
-67 107 338 0
297 350 -384 0
-19 -100 -258 0
21 -337 -384 0
-82 134 -393 0
-114 -220 -273 0
161 214 340 0
65 -194 -369 0
115 -210 300 0
-37 -195 259 0
87 124 206 0
-213 269 381 0
-46 -153 275 0
158 -233 291 0
7 187 299 0
52 -275 329 0
113 -213 -331 0
56 286 356 0
-73 182 -379 0
24 304 314 0
56 -228 -351 0
-73 146 -186 0
31 118 -398 0
-22 326 -337 0
-26 59 -116 0
248 281 -363 0
-4 -203 365 0
15 241 320 0
81 260 -362 0
-20 -119 160 0
47 -76 256 0
-87 -173 -218 0
-71 -185 241 0
221 -324 348 0
31 -226 -262 0
50 168 -275 0
-107 126 -284 0
47 -87 335 0
69 -242 -318 0
176 180 388 0
154 155 -337 0
20 189 304 0
-136 349 364 0
49 -83 278 0
-88 94 -399 0
-59 -88 159 0
36 260 398 0
-84 -310 325 0
3 59 185 0
126 -252 -308 0
-98 104 106 0
8 303 -345 0
-43 302 353 0
-29 -188 -216 0
-137 324 -389 0
107 -180 393 0
-178 343 359 0
-49 206 251 0
-155 -210 -376 0
-85 -312 -339 0
169 225 301 0
-93 223 -297 0
129 -187 -223 0
123 -360 399 0
-17 -370 377 0
-54 -332 373 0
-96 230 283 0
190 341 -384 0
-8 -66 300 0
60 226 275 0
-84 263 392 0
-39 -209 -294 0
80 249 391 0
-128 222 245 0
94 106 -250 0
-19 -133 328 0
-16 192 267 0
10 36 304 0
68 86 95 0
342 350 -375 0
48 -299 358 0
-123 -242 -363 0
-4 -51 295 0
63 -132 340 0
201 -261 -396 0
81 -192 -284 0
-38 252 345 0
328 -362 -365 0
-50 -84 -345 0
-53 247 -269 0
-118 -135 -212 0
-146 261 384 0
-36 54 311 0
-124 127 358 0
-193 -241 397 0
-127 249 327 0
-163 299 -350 0
301 -345 377 0
-62 -70 -254 0
67 -323 366 0
295 -367 -387 0
-132 -241 264 0
78 -161 -193 0
35 65 -312 0
-130 -134 -342 0
102 -125 224 0
-78 190 370 0
14 -143 251 0
271 -316 399 0
-194 373 400 0
-29 114 247 0
41 277 -325 0
23 -194 278 0
196 -207 -246 0
-210 219 -282 0
-49 -93 319 0
-154 -158 -193 0
149 -255 -328 0
48 185 297 0
-4 -348 386 0
80 -215 -369 0
112 -126 -164 0
-115 -151 -185 0
93 123 -158 0
-84 -103 245 0
-50 -99 251 0
184 263 -270 0
63 175 277 0
-98 -212 241 0
24 79 226 0
-101 -213 -360 0
130 -177 -392 0
-101 -224 362 0
-53 -294 -363 0
-73 -359 362 0
195 -253 -362 0
194 350 365 0
-92 225 235 0
16 75 -121 0
-199 -236 324 0
-16 -341 389 0
116 274 -364 0
-96 -236 -363 0
53 229 357 0
127 -153 -206 0
-190 193 -336 0
-130 -145 173 0
-322 341 366 0
-69 217 335 0
-120 165 -399 0
-71 87 -206 0
82 -323 379 0
161 195 257 0
112 242 370 0
-51 71 -310 0
30 142 -272 0
-116 153 -346 0
63 -235 -309 0
-79 274 -380 0
-177 -339 -349 0
-146 -233 340 0
-183 261 -278 0
208 319 -372 0
-4 -90 -369 0
351 354 -362 0
-90 151 -293 0
4 323 -351 0
52 -281 356 0
-127 -322 335 0
68 201 269 0
-125 137 -218 0
64 292 350 0
-37 -74 261 0
6 -52 328 0
122 -138 147 0
-136 -204 223 0
115 164 -298 0
238 -337 -380 0
-125 282 -351 0
-86 282 -341 0
-242 303 -331 0
142 -258 -348 0
-40 152 -290 0
-161 -246 398 0
18 -159 350 0
-7 -193 -331 0
-147 -177 384 0
-71 -119 208 0
102 -128 -216 0
-223 -238 -390 0
173 -258 -292 0
-3 25 -186 0
-113 -171 399 0
62 -118 -158 0
304 -345 367 0
-19 -200 -316 0
-141 -390 -395 0
46 -275 352 0
82 83 -95 0
10 -254 -285 0
89 -185 -374 0
40 -144 -314 0
114 -120 -243 0
-231 308 392 0
-137 336 342 0
42 -51 186 0
156 281 -309 0
-76 306 -374 0
-80 -99 -217 0
183 -260 -271 0
-100 -108 208 0
-30 -41 -278 0
-33 143 177 0
-100 187 281 0
-121 -211 380 0
149 -273 345 0
64 -192 245 0
150 -225 371 0
48 136 -151 0
-308 -334 -398 0
15 56 86 0
107 -132 255 0
108 -204 -363 0
186 -195 -215 0
-103 -214 334 0
-9 -37 -277 0
-43 -80 305 0
-256 -278 -393 0
75 -105 321 0
-56 -127 -251 0
-246 254 -369 0
-58 -180 -303 0
112 222 -235 0
57 347 386 0
-139 147 359 0
62 150 -325 0
161 171 334 0
139 -239 -316 0
44 -234 -318 0
125 -295 337 0
-43 -95 -152 0
80 227 282 0
220 230 -277 0
-23 -165 268 0
5 -286 394 0
125 182 -370 0
9 -141 -391 0
196 -286 353 0
88 -274 388 0
58 -76 -371 0
108 -178 -396 0
47 -259 -353 0
-174 394 -398 0
-4 -262 301 0
-12 312 319 0
-215 -337 370 0
-158 182 271 0
-232 -300 -349 0
16 173 262 0
-19 27 269 0
-42 -51 294 0
-47 -155 186 0
45 266 271 0
231 254 -396 0
268 280 -392 0
20 -92 -223 0
-278 -325 326 0
118 -250 -347 0
138 143 -257 0
221 -248 380 0
-237 275 -313 0
130 -326 349 0
-216 290 365 0
58 156 -170 0
49 -185 220 0
69 -194 -387 0
-44 -64 -103 0
-61 -167 -374 0
36 -183 400 0
-117 143 -324 0
-11 -219 -337 0
-173 196 378 0
70 365 -375 0
-61 217 329 0
-63 98 127 0
-131 277 381 0
-28 -358 378 0
113 224 -275 0
85 -236 268 0
-55 -65 -370 0
-302 -355 -389 0
-96 -253 -301 0
108 143 349 0
139 335 344 0
76 -113 -150 0
42 -121 199 0
-147 -339 370 0
-106 -264 -369 0
92 182 -223 0
-67 343 -370 0
27 85 270 0
75 -99 -345 0
79 330 399 0
-27 78 -344 0
75 321 335 0
139 -189 -317 0
36 75 165 0
-232 -336 -357 0
2 -179 -296 0
-220 248 -269 0
-50 -211 350 0
41 -181 -241 0
40 125 299 0
97 -122 313 0
124 -320 -321 0
110 372 -398 0
-63 -384 394 0
57 -149 -377 0
9 -179 -243 0
-92 -295 -318 0
160 299 342 0
-23 144 -286 0
94 -272 -323 0
-61 -242 -300 0
78 -89 178 0
-103 196 -344 0
76 251 282 0
116 -221 344 0
83 306 -398 0
74 -87 146 0
20 -141 -301 0
-121 174 368 0
253 -341 -361 0
-54 267 -390 0
56 -90 334 0
13 -119 246 0
22 -259 379 0
-153 195 -369 0
-30 316 -333 0
23 133 -298 0
-67 -174 186 0
-83 -91 288 0
133 -246 -348 0
265 311 369 0
-78 105 189 0
-70 76 112 0
68 175 257 0
-166 188 272 0
-29 115 -316 0
-77 -105 342 0
-188 257 -367 0
-102 -345 -372 0
-44 -144 266 0
-37 179 -280 0
-115 -255 384 0
228 -336 -364 0
-24 -31 84 0
-102 137 304 0
-132 -267 -329 0
-193 354 389 0
-51 -96 -308 0
121 122 400 0
-102 -236 319 0
1 174 -280 0
-100 146 -327 0
115 167 -182 0
69 190 269 0
-141 -156 313 0
237 -295 359 0
135 -144 -399 0
-23 -91 -286 0
-131 157 -369 0
302 377 -390 0
109 -239 -244 0
153 -154 363 0
100 -193 -324 0
108 -216 -228 0
23 329 344 0
269 -292 -387 0
-141 159 208 0
-10 214 312 0
-21 144 -199 0
-149 320 324 0
-67 94 -219 0
-20 223 260 0
-189 205 -391 0
229 -241 -320 0
-90 -366 -376 0
85 127 204 0
-81 -156 339 0
-147 209 357 0
-129 -186 -274 0
63 208 224 0
106 -186 271 0
-106 178 323 0
19 -336 -394 0
31 252 -269 0
122 -165 -202 0
-247 -335 -346 0
93 -238 -383 0
65 223 260 0
-14 153 -366 0
-46 -284 346 0
126 281 318 0
-131 -331 380 0
-125 -231 -357 0
-102 273 342 0
230 -280 -329 0
-70 -98 -110 0
-102 157 -209 0
-204 -220 -372 0
144 162 -398 0
-36 209 260 0
-105 175 392 0
130 -281 383 0
-107 -313 -358 0
-5 33 172 0
-34 105 -362 0
-181 291 364 0
70 111 116 0
20 110 -324 0
-33 178 -361 0
176 181 -220 0
46 108 188 0
18 23 179 0
-57 91 -283 0
34 329 -341 0
-98 -243 -290 0
87 -342 400 0
-152 263 -349 0
111 130 244 0
154 -236 379 0
5 20 277 0
35 -198 -275 0
6 178 314 0
-67 -247 -322 0
-2 48 257 0
185 -223 -233 0
187 244 -387 0
-86 240 -360 0
257 319 -359 0
36 95 358 0
-147 173 -310 0
204 -221 325 0
61 376 397 0
-156 -350 388 0
-23 24 256 0
74 351 -382 0
-115 -138 393 0
84 134 -220 0
56 124 373 0
98 155 -253 0
-17 117 -287 0
-57 -216 -238 0
-70 -181 -229 0
121 253 292 0
-135 269 311 0
251 264 341 0
-87 -134 343 0
-167 -193 293 0
164 220 -327 0
-19 -21 -334 0
-110 336 -390 0
188 384 -393 0
-9 22 -249 0
196 -202 -217 0
91 -170 368 0
217 -220 -242 0
-116 -221 -292 0
53 87 -202 0
130 175 -375 0
58 -184 290 0
5 -264 304 0
-44 -88 357 0
210 -290 353 0
-87 187 348 0
-135 245 306 0
163 -241 336 0
-45 -82 -382 0
-94 -124 -290 0
12 81 115 0
-47 -144 400 0
-22 -27 -350 0
-350 354 -380 0
151 -213 363 0
-37 -48 50 0
-38 105 339 0
-35 -108 -399 0
-178 -226 230 0
38 224 325 0
-41 149 -389 0
47 257 294 0
-113 -302 -382 0
83 197 -230 0
-214 -247 -338 0
-145 186 336 0
64 299 -350 0
107 -312 -359 0
71 150 219 0
123 141 -249 0
33 136 275 0
80 -127 -384 0
126 183 282 0
51 -215 -226 0
-63 91 -100 0
104 164 -323 0
-3 375 -383 0
-86 -190 -281 0
19 -130 381 0
277 -346 -381 0
-13 -71 -234 0
30 -103 -239 0
-137 190 337 0
114 -168 311 0
226 280 -303 0
78 -216 -374 0
87 -367 -394 0
81 250 394 0
141 234 245 0
152 249 388 0
86 -127 -309 0
114 -299 323 0
-71 258 -359 0
-5 263 -386 0
-90 193 252 0
-165 -178 -391 0
132 190 281 0
111 -282 -284 0
-20 335 381 0
111 -168 -229 0
-33 -99 188 0
123 154 -362 0
34 148 288 0
-187 -231 304 0
-32 -328 370 0
35 350 -388 0
-89 112 211 0
-109 189 318 0
263 -276 -399 0
263 -372 -376 0
117 -128 159 0
-75 137 218 0
79 238 394 0
-12 14 209 0
171 252 364 0
98 162 -228 0
-115 154 350 0
24 -90 -341 0
42 83 371 0
65 110 -190 0
98 -195 330 0
-70 205 257 0
172 211 247 0
141 -176 284 0
-3 97 163 0
-53 115 -132 0
178 191 393 0
98 -212 -332 0
69 -236 -288 0
25 72 306 0
-66 204 -207 0
8 -20 245 0
60 70 124 0
-204 -347 364 0
-144 -251 -297 0
-100 -249 -274 0
-97 337 346 0
-207 299 367 0
170 336 -355 0
-83 245 -347 0
48 -103 229 0
-121 299 -304 0
-89 -301 -302 0
-196 239 -307 0
110 115 -352 0
-155 -215 -264 0
180 -228 -280 0
93 -137 -314 0
-87 240 267 0
-46 -203 235 0
37 133 292 0
-37 105 -125 0
67 -344 -372 0
150 168 -259 0
275 283 -353 0
-34 -153 -292 0
-57 -253 -297 0
181 311 337 0
-129 144 -154 0
-1 131 -315 0
10 -226 282 0
40 69 -369 0
164 277 293 0
-267 -332 351 0
15 49 313 0
179 -223 262 0
-18 -61 -79 0
228 305 330 0
45 -56 159 0
46 170 264 0
16 80 400 0
-168 248 356 0
-97 -114 288 0
-33 81 400 0
137 269 -391 0
212 230 357 0
71 -95 -284 0
62 295 328 0
17 126 148 0
-135 -301 336 0
101 -192 -374 0
-279 294 -395 0
-121 200 -279 0
60 105 -351 0
-132 -178 278 0
214 -238 -275 0
-207 246 -395 0
-135 -205 -322 0
-49 64 230 0
182 -260 -391 0
-197 257 -338 0
-77 152 252 0
140 -164 -304 0
89 -256 -342 0
-98 -235 253 0
48 184 268 0
12 173 -393 0
270 286 -328 0
29 90 -139 0
30 -154 211 0
-16 281 306 0
29 -105 -366 0
99 -193 376 0
-54 -199 362 0
100 -142 -275 0
-45 -152 188 0
-82 -155 377 0
-200 -275 -306 0
-21 263 -349 0
63 105 -118 0
2 130 -289 0
-213 266 -301 0
19 73 -84 0
127 229 -265 0
-151 229 289 0
-89 199 -281 0
27 -58 -271 0
55 -66 88 0
69 119 324 0
336 343 -350 0
-199 -251 359 0
-119 250 393 0
1 -167 -310 0
-229 -287 -376 0
116 266 -322 0
171 -227 260 0
-27 -150 -396 0
-18 70 363 0
-68 266 366 0
-95 211 377 0
-33 149 212 0
-65 109 -131 0
-67 185 -322 0
98 -240 287 0
202 235 -244 0
-52 -275 343 0
224 -245 298 0
-135 288 -355 0
7 -296 -363 0
54 -73 85 0
104 -256 265 0
-9 -140 336 0
-36 -319 384 0
53 157 -248 0
165 -185 314 0
-7 -133 397 0
72 -139 308 0
-62 283 285 0
-1 171 174 0
141 332 358 0
24 -179 195 0
143 206 -292 0
-79 -119 -267 0
-77 271 -364 0
-238 351 -365 0
-26 226 -387 0
131 -335 348 0
88 97 -341 0
-190 -329 353 0
117 -137 -149 0
-184 -251 -318 0
127 -158 -212 0
61 -271 359 0
-100 -378 -381 0
34 73 -347 0
158 182 -200 0
8 -174 332 0
25 123 313 0
-292 -350 -370 0
-233 -237 -293 0
-90 -313 342 0
128 172 -347 0
20 -152 339 0
-51 -228 -262 0
33 137 -164 0
118 228 -297 0
-257 -321 -351 0
138 -241 -274 0
46 -358 384 0
108 -206 -261 0
-15 -76 -119 0
-127 -160 326 0
11 -35 314 0
133 -192 323 0
-2 -212 276 0
3 58 121 0
4 204 371 0
82 -91 -172 0
90 -257 374 0
24 134 386 0
8 -64 164 0
-183 194 -249 0
-83 237 -367 0
159 173 -205 0
279 292 369 0
-18 -104 -241 0
-57 183 -231 0
8 -55 232 0
103 -130 273 0
-250 -276 -386 0
102 -126 -310 0
7 -66 175 0
12 236 -328 0
-85 175 346 0
-169 172 338 0
58 195 234 0
-141 -175 188 0
74 123 -191 0
136 -175 -218 0
-54 -81 -363 0
105 -282 380 0
26 347 396 0
40 -45 325 0
-210 -236 392 0
102 148 273 0
90 -238 242 0
-63 -92 321 0
301 -316 -391 0
9 -178 313 0
155 313 -330 0
79 -93 -265 0
-73 -230 -269 0
-84 -302 348 0
3 5 -95 0
12 -214 325 0
-6 48 -238 0
-16 -70 -247 0
-39 86 221 0
-20 107 -376 0
-28 -138 349 0
-38 154 -263 0
190 -209 -303 0
125 232 298 0
150 -269 -400 0
64 182 -299 0
21 -289 343 0
-295 299 -397 0
186 -271 339 0
226 -331 -342 0
-27 -34 320 0
-61 270 -307 0
-101 147 311 0
63 -265 369 0
24 -113 -367 0
98 264 291 0
186 345 -364 0
41 88 -185 0
92 244 323 0
-81 -151 -284 0
102 -138 149 0
191 -284 -302 0
141 215 330 0
63 -194 244 0
-266 279 -293 0
-259 312 383 0
-66 -74 -332 0
-158 236 -372 0
114 251 -282 0
-47 51 -298 0
98 301 310 0
90 129 283 0
105 -210 -326 0
293 -300 368 0
181 321 -352 0
28 -51 314 0
267 289 356 0
-290 -333 -384 0
244 -352 -390 0
-80 -202 269 0
-80 225 -311 0
68 -72 358 0
104 339 387 0
-6 -100 -193 0
-141 -248 -257 0
-1 -18 64 0
-268 -294 -343 0
62 -116 -128 0
-285 -340 382 0
-23 25 36 0
-17 -128 -137 0
-46 -137 158 0
113 -300 378 0
13 -61 -357 0
-92 192 -315 0
116 219 225 0
299 371 -385 0
-19 69 -214 0
-56 153 309 0
234 282 -334 0
13 -295 -380 0
248 -312 -345 0
164 240 -316 0
100 166 189 0
-248 275 299 0
21 -107 208 0
-32 -98 -214 0
-35 -266 -369 0
67 70 73 0
47 -84 200 0
282 286 320 0
226 258 359 0
-78 386 -393 0
-158 202 235 0
-218 300 328 0
145 225 -236 0
-46 112 -231 0
156 -288 -304 0
114 138 -220 0
86 -189 -213 0
64 76 -209 0
-61 268 -292 0
76 347 -364 0
16 -239 -287 0
-267 321 -399 0
87 119 315 0
60 -168 -207 0
-10 -116 -197 0
11 -233 -263 0
96 -217 285 0
-111 348 369 0
228 328 -388 0
-43 -252 257 0
-92 105 233 0
77 159 281 0
43 61 286 0
-200 -203 358 0
171 -202 392 0
-7 -236 379 0
58 -78 237 0
-106 221 370 0
-15 188 219 0
160 176 -271 0
-31 40 -150 0
-34 158 -314 0
-84 -319 367 0
-234 -265 341 0
38 194 -209 0
-1 -216 -219 0
-67 104 -167 0
-160 260 -321 0
92 110 -352 0
-173 269 -314 0
-21 -62 87 0
112 201 -384 0
-21 157 -197 0
138 340 355 0
-131 -365 -385 0
-25 56 -253 0
-301 327 347 0
20 70 -325 0
-38 99 291 0
-274 -306 -338 0
-50 -303 -313 0
4 239 -257 0
104 -223 -282 0
-49 136 -173 0
42 202 -241 0
-214 216 250 0
-3 21 147 0
29 -140 -195 0
3 67 366 0
178 -187 -207 0
76 -175 370 0
72 -223 -377 0
-176 194 -205 0
-179 -223 -284 0
-64 -204 -373 0
220 235 358 0
111 -155 -226 0
104 134 -342 0
-280 286 315 0
-149 -320 -396 0
112 -173 299 0
-344 370 -394 0
-73 308 -317 0
157 258 343 0
-27 99 -224 0
-9 -179 255 0
-100 -149 -246 0
38 -174 246 0
35 195 308 0
80 114 298 0
91 186 -377 0
130 372 376 0
-53 242 294 0
-116 132 -269 0
214 -239 -312 0
58 -82 -136 0
11 -74 283 0
35 372 -374 0
18 -65 -154 0
120 -285 375 0
24 38 -156 0
110 -116 356 0
187 -241 371 0
2 119 316 0
197 -299 308 0
179 265 376 0
116 208 -290 0
-169 173 -263 0
75 256 -371 0
80 149 275 0
3 -17 206 0
194 195 257 0
185 218 370 0
-234 361 371 0
68 -90 387 0
42 50 -354 0
-27 -246 -300 0
-34 -118 250 0
-115 177 325 0
-89 -327 -400 0
-190 -385 -388 0
126 184 -379 0
146 227 351 0
-131 -295 347 0
38 -55 -380 0
213 -350 375 0
91 154 -174 0
-272 -313 -399 0
48 -196 343 0
254 290 390 0
198 -392 393 0
-234 339 -394 0
150 186 -383 0
111 240 -320 0
-141 -203 -210 0
-147 205 -229 0
-54 216 -264 0
74 79 280 0
-128 212 -314 0
32 -198 -388 0
-26 40 -162 0
-13 -220 -262 0
107 -220 -396 0
-62 100 314 0
167 326 -371 0
-72 -214 -326 0
157 -231 -276 0
-180 231 -241 0
-180 -256 -347 0
-102 -336 -339 0
-14 -78 -93 0
15 88 324 0
-65 -90 -307 0
-4 -77 -280 0
47 -258 358 0
67 162 -359 0
70 -355 362 0
-138 -192 271 0
-87 124 343 0
13 -28 -149 0
106 349 -379 0
48 -132 237 0
-9 88 343 0
16 143 383 0
59 -147 248 0
-186 207 -366 0
125 176 271 0
100 196 246 0
67 -321 -334 0
154 -206 313 0
138 361 369 0
-22 56 -392 0
-93 -176 218 0
-86 -197 -228 0
39 -268 -339 0
46 266 -355 0
-199 -348 361 0
-221 270 273 0
334 348 349 0
-31 121 -281 0
-48 -213 274 0
-84 341 366 0
7 265 -361 0
-63 101 302 0
-48 -178 -236 0
27 -67 264 0
70 -84 -232 0
-97 204 313 0
-35 62 -274 0
265 329 -366 0
46 -155 -368 0
116 -151 -389 0
-32 287 -314 0
-25 -120 -211 0
272 313 396 0
164 -282 -373 0
68 -128 -288 0
33 165 -188 0
207 -243 300 0
79 229 -251 0
-137 207 -210 0
-21 156 339 0
235 -315 365 0
34 -296 375 0
-124 180 252 0
264 319 354 0
-144 -254 -368 0
-162 -216 309 0
49 75 203 0
25 -68 208 0
154 279 -317 0
311 -382 -387 0
182 249 386 0
-69 77 -282 0
7 -172 -181 0
23 -38 -395 0
-89 141 -227 0
-10 -337 -380 0
-111 264 283 0
-9 84 -247 0
140 -323 -334 0
157 -286 -391 0
1 36 -170 0
134 -197 215 0
-107 -124 243 0
-22 -54 -309 0
93 -173 197 0
-22 -39 -274 0
-208 257 -358 0
-36 -141 198 0
-156 -228 325 0
105 -230 -277 0
107 -182 -195 0
187 196 396 0
118 222 -240 0
64 -147 158 0
-19 36 275 0
-5 87 277 0
-70 -341 374 0
135 -158 -180 0
3 384 397 0
150 -207 -326 0
-67 290 359 0
-41 319 -343 0
36 -226 -323 0
-11 34 371 0
-39 -174 -188 0
-70 147 330 0
-70 -127 269 0
67 -245 272 0
101 -327 -341 0
-21 -271 284 0
-180 -188 231 0
55 66 -119 0
-91 178 -332 0
-114 177 -220 0
-92 -270 289 0
-114 -155 210 0
10 235 -341 0
-57 -169 230 0
71 -276 382 0
113 -200 279 0
3 274 -396 0
103 -114 394 0
189 207 -263 0
-23 -49 -312 0
182 -268 367 0
121 -177 -254 0
29 -376 -396 0
-100 -198 350 0
-82 232 359 0
19 164 -321 0
-82 225 -374 0
66 117 -220 0
-245 -271 355 0
5 -85 -121 0
58 -313 -390 0
336 -341 355 0
59 285 386 0
-50 -236 -380 0
-285 293 341 0
72 227 -267 0
-234 244 -280 0
-47 -73 330 0
-44 135 -337 0
-147 -181 -262 0
41 -237 -249 0
-29 277 280 0
106 -160 316 0
-115 -155 251 0
-73 -102 242 0
268 337 355 0
-160 203 -330 0
249 253 -387 0
6 -85 -128 0
-79 -321 -382 0
-115 -118 176 0
-16 118 -217 0
-39 84 -240 0
-211 -222 371 0
22 302 309 0
12 -103 -247 0
85 323 -383 0
-13 -292 383 0
-66 -110 -359 0
-87 371 -398 0
-61 -211 -272 0
-226 -271 -292 0
-25 36 358 0
-60 -166 -353 0
241 -259 379 0
-34 -105 -390 0
71 -126 -224 0
28 150 -264 0
-25 31 360 0
-86 87 349 0
-155 -366 -376 0
-177 306 367 0
94 234 -371 0
-19 82 147 0
-69 -138 -271 0
194 385 -395 0
168 273 373 0
-23 311 333 0
-142 158 313 0
-139 231 -331 0
-58 238 -372 0
187 316 391 0
39 159 282 0
-2 -87 230 0
141 193 -271 0
-238 245 -311 0
-32 -109 204 0
141 -168 -238 0
-62 118 268 0
81 195 308 0
266 -339 -343 0
-64 72 206 0
-22 187 -400 0
-59 -140 -330 0
65 78 -290 0
-283 -291 293 0
268 -303 -397 0
-19 -95 338 0
-18 374 -386 0
-69 -156 330 0
-157 -289 -358 0
178 302 -305 0
-121 -156 380 0
-189 -380 390 0
162 202 -281 0
-19 135 -281 0
-56 81 -335 0
70 -127 261 0
43 -72 -246 0
-159 219 381 0
104 -142 -344 0
-81 251 -363 0
-92 -186 -311 0
-124 144 -366 0
3 -310 339 0
28 167 362 0
-36 48 -295 0
-143 -163 211 0
16 275 355 0
52 94 257 0
31 -237 347 0
160 -170 -181 0
18 -63 369 0
-150 -243 389 0
32 231 341 0
-12 53 -94 0
131 185 -194 0
-30 118 -201 0
-85 160 228 0
46 114 356 0
49 -205 -237 0
154 -272 -399 0
-110 182 336 0
-41 -212 -305 0
147 -293 -390 0
109 334 -386 0
-183 -280 -308 0
35 194 211 0
-79 234 -363 0
-80 -92 387 0
10 -76 338 0
23 -263 -343 0
216 308 329 0
130 344 362 0
-89 -121 -256 0
54 -89 190 0
80 -190 355 0
-102 275 292 0
-74 384 -399 0
-33 -228 367 0
48 -193 386 0
-33 148 -233 0
-50 62 373 0
-259 -373 -380 0
198 -286 287 0
-9 -55 -163 0
55 -215 340 0
247 335 381 0
115 168 340 0
-57 -271 272 0
71 -199 304 0
149 215 -333 0
95 -122 293 0
-11 249 372 0
149 282 -283 0
-125 131 400 0
-229 -288 -356 0
280 281 -309 0
86 94 160 0
112 188 271 0
145 -305 -316 0
15 -232 -360 0
53 -268 -389 0
-179 -252 -273 0
-62 175 -188 0
-153 161 -332 0
-15 -85 294 0
202 232 320 0
-272 325 -333 0
-178 -196 316 0
185 -227 293 0
-28 137 -169 0
37 87 236 0
32 -109 198 0
-75 -144 -296 0
172 -326 -334 0
27 30 82 0
-3 -101 392 0
282 329 359 0
-3 112 -347 0
68 331 -348 0
-183 239 259 0
181 308 -345 0
-96 100 287 0
-53 272 -287 0
-51 201 256 0
28 292 -399 0
222 -248 321 0
-9 -54 129 0
130 -169 374 0
-112 -115 -186 0
170 245 -326 0
-214 313 393 0
195 -296 -369 0
102 168 -262 0
168 -214 -240 0
191 -265 344 0
-198 362 376 0
103 -117 330 0
-111 193 283 0
14 127 -339 0
74 -105 -324 0
126 181 -319 0
105 -177 315 0
177 -342 350 0
-182 265 -272 0
265 344 -394 0
99 -144 -229 0
-161 -208 -336 0
187 -322 385 0
16 237 329 0
66 -351 -372 0
-14 75 264 0
8 14 -37 0
-73 74 251 0
87 146 -313 0
-232 -246 318 0
212 -215 -277 0
127 371 394 0
-149 233 -392 0
61 -110 347 0
-64 -131 -249 0
141 307 371 0
176 190 -222 0
39 198 -306 0
238 336 348 0
-132 135 -211 0
68 -112 -147 0
-56 -100 259 0
62 131 373 0
-146 148 -293 0
113 -192 -341 0
187 226 308 0
14 -118 -267 0
-30 202 -286 0
-185 196 249 0
47 168 247 0
81 -228 -266 0
51 376 382 0
57 60 200 0
-103 -151 157 0
-103 -153 -278 0
84 191 -393 0
81 -245 334 0
-28 155 -321 0
27 -177 240 0
-90 143 -243 0
55 106 -273 0
56 -62 384 0
45 -281 386 0
-164 264 -265 0
176 214 311 0
-227 280 -364 0
-28 89 196 0
-29 -73 370 0
286 325 376 0
22 -30 69 0
12 -86 268 0
-20 98 130 0
-246 -324 -327 0
108 198 -334 0
-109 153 -312 0
147 283 -305 0
-12 68 -148 0
-61 121 -341 0
55 304 -314 0
-123 -232 304 0
-149 -353 -373 0
73 149 192 0
-51 164 390 0
-57 87 303 0
-36 -246 -394 0
-58 183 -214 0
148 287 -293 0
-74 142 157 0
-226 -280 -396 0
-173 -294 -349 0
55 315 -375 0
300 -369 382 0
153 -174 334 0
-172 317 -380 0
266 -306 -319 0
-83 -287 -365 0
159 -179 306 0
31 -53 380 0
-26 84 -297 0
-49 131 -306 0
104 -140 -171 0
73 86 -107 0
214 -241 -314 0
-41 -296 -336 0
47 326 327 0
-83 272 -289 0
55 -326 -362 0
280 -327 -365 0
92 141 275 0
-194 339 342 0
-285 -316 -395 0
-91 -103 -121 0
-62 158 296 0
134 -278 -329 0
59 -88 -275 0
260 -346 -389 0
-126 134 -304 0
-122 132 -211 0
-11 24 200 0
-39 227 -239 0
81 -140 292 0
-184 222 297 0
-80 -345 -393 0
-113 -175 273 0
4 333 -338 0
69 105 315 0
68 119 -384 0
-33 -213 -366 0
-14 -341 396 0
294 368 -380 0
-190 -302 332 0
41 -200 389 0
215 216 307 0
-25 81 372 0
-312 -314 -380 0
-15 -53 -183 0
1 -10 -398 0
-35 95 -338 0
-130 -236 326 0
-119 -164 166 0
40 285 363 0
-17 -195 267 0
-12 167 -306 0
-261 273 365 0
-187 325 -385 0
22 56 103 0
-30 -53 -372 0
67 177 -331 0
42 163 386 0
-248 -305 -355 0
70 298 -355 0
105 110 338 0
-159 -218 -229 0
167 -219 -248 0
-35 -89 -260 0
169 189 -387 0
17 81 83 0
163 -247 -285 0
45 119 146 0
-116 355 -362 0
55 116 233 0
-213 359 -395 0
-45 -72 -227 0
14 -50 -170 0
131 -220 268 0
-55 -110 209 0
-42 -167 232 0
189 -215 228 0
294 -307 -335 0
-24 221 384 0
34 262 264 0
146 -222 -238 0
53 256 -344 0
81 -184 -336 0
-153 -237 -259 0
-24 -31 360 0
60 249 -374 0
-120 225 392 0
-64 -176 319 0
33 -110 -191 0
309 -340 369 0
54 158 -292 0
-171 -279 -286 0
204 -270 -351 0
-179 -202 -399 0
67 -193 -361 0
68 71 -179 0
-277 291 -399 0
-107 -150 364 0
72 -79 -298 0
239 294 349 0
-15 -296 321 0
-84 -91 -201 0
-144 280 -337 0
-191 278 280 0
-39 -162 174 0
120 202 -204 0
123 -184 224 0
-289 293 332 0
-77 168 190 0
262 324 -394 0
256 -313 -321 0
-108 160 270 0
-240 241 333 0
-41 44 224 0
140 -185 -310 0
71 77 -159 0
24 -62 68 0
-10 -258 -320 0
180 -362 -378 0
80 168 -278 0
-51 -364 398 0
-233 337 373 0
93 -281 -314 0
77 79 -127 0
-165 173 281 0
178 -236 -373 0
114 -356 -383 0
196 227 -252 0
135 246 343 0
-8 25 90 0
28 -153 356 0
-62 -94 372 0
31 -130 -253 0
72 179 252 0
35 82 227 0
181 -193 -278 0
55 100 299 0
54 172 280 0
75 -128 -345 0
3 -122 -246 0
-198 -239 -381 0
-151 -263 303 0
