c Phase 3 random 3-SAT negative control
c seed=31041
c ratio=4.26
c variant=uniform
c expected=TO_VALIDATE
p cnf 600 2556
-28 -271 -442 0
3 95 -179 0
163 -351 -465 0
89 -337 391 0
156 244 305 0
-19 147 508 0
-158 -267 368 0
-226 336 583 0
117 234 428 0
360 -393 492 0
-185 291 366 0
2 72 -430 0
5 68 386 0
303 344 -462 0
-30 309 485 0
170 -408 600 0
-99 -309 537 0
-119 -467 505 0
-318 -470 515 0
-197 590 599 0
232 -452 -461 0
-298 312 569 0
-56 -218 487 0
-149 345 383 0
335 -492 -535 0
-11 158 -340 0
-9 -449 -507 0
-100 -118 142 0
128 -525 536 0
-35 569 -589 0
-284 -440 -541 0
266 494 -525 0
15 251 450 0
5 52 -204 0
-288 -510 -525 0
-112 249 -384 0
21 -288 -469 0
-116 -237 465 0
127 -210 584 0
-32 244 305 0
-42 -150 -409 0
-205 -257 -411 0
-145 375 -423 0
63 -102 -489 0
-85 -98 220 0
-283 334 515 0
82 -91 454 0
-86 -277 -571 0
-303 -406 488 0
82 -338 535 0
263 -330 507 0
-339 -541 557 0
-109 -505 539 0
-190 -318 524 0
-103 -380 -458 0
141 360 -509 0
171 -488 -594 0
-111 241 -478 0
-207 -312 -574 0
240 -424 -456 0
137 -510 567 0
59 113 -506 0
95 208 574 0
265 -468 551 0
234 -304 -512 0
-243 532 -584 0
212 -299 369 0
-3 253 -551 0
298 407 -417 0
235 240 244 0
-110 552 597 0
247 395 524 0
-35 -273 499 0
29 40 397 0
-325 369 -465 0
102 140 -266 0
404 420 -453 0
259 -261 308 0
-85 -192 498 0
11 -58 303 0
-122 265 -405 0
-90 -129 516 0
-199 -364 592 0
-86 448 -498 0
326 -517 -561 0
-94 -246 347 0
125 191 355 0
-62 387 426 0
-8 -394 -457 0
-372 -432 -443 0
-225 -240 -472 0
18 536 -556 0
-74 -235 274 0
-4 86 343 0
-59 -110 188 0
51 132 -230 0
461 546 593 0
238 -517 538 0
330 523 -550 0
243 449 526 0
-110 430 501 0
-495 513 -547 0
249 267 580 0
-230 -282 569 0
93 -343 -556 0
296 -496 -568 0
-102 296 -536 0
315 324 -504 0
133 -248 344 0
32 524 537 0
11 -76 -307 0
69 287 -463 0
124 303 560 0
76 252 -261 0
-110 414 -551 0
64 422 -505 0
-110 266 376 0
-7 141 147 0
-16 -429 590 0
-507 508 -592 0
79 437 453 0
-224 473 589 0
377 472 -571 0
117 322 391 0
131 170 -411 0
-54 211 -273 0
-14 -349 471 0
49 340 -420 0
-125 -385 530 0
-95 -158 200 0
-37 116 -297 0
25 -316 -403 0
8 248 329 0
-361 -435 -469 0
252 -532 582 0
41 224 305 0
-30 -228 392 0
190 214 451 0
-17 279 407 0
-266 397 -455 0
-213 -288 -511 0
77 -104 243 0
-8 289 301 0
-27 -154 241 0
185 -312 -317 0
368 -398 -524 0
19 -30 -47 0
-79 83 230 0
-326 360 -583 0
-57 399 -570 0
-265 313 503 0
114 244 402 0
-75 -482 529 0
25 -299 -579 0
-40 -226 -526 0
73 288 452 0
-167 -340 577 0
-169 273 519 0
111 143 -260 0
-314 421 -514 0
-311 497 529 0
247 -267 504 0
-14 -220 381 0
-70 335 -350 0
323 497 565 0
48 -451 -598 0
166 196 527 0
-85 -177 548 0
198 -230 294 0
-239 -253 -461 0
-173 415 598 0
169 196 -389 0
474 -563 -573 0
13 254 432 0
-164 -337 338 0
-139 -518 -555 0
134 -381 -517 0
-56 -213 467 0
-189 326 -406 0
-89 343 582 0
178 464 597 0
-296 -342 357 0
-22 45 371 0
127 159 -388 0
-75 -276 535 0
315 590 -599 0
-400 -416 555 0
273 -296 598 0
-309 -397 547 0
8 186 -326 0
-192 374 -408 0
-61 510 574 0
-169 -540 560 0
-365 -440 -488 0
103 170 450 0
69 378 -584 0
133 -220 -503 0
-321 340 -409 0
18 -307 -441 0
-171 -327 -461 0
74 -430 481 0
-320 367 434 0
9 -436 -523 0
-6 196 589 0
-177 -515 575 0
62 126 -384 0
-118 -185 511 0
-79 -150 -476 0
62 -267 335 0
-163 -212 -533 0
4 210 217 0
-255 317 543 0
-35 -139 567 0
-105 144 -304 0
-35 -287 570 0
125 575 -591 0
-153 319 418 0
-57 -519 562 0
165 243 -307 0
-47 173 548 0
-257 452 -504 0
63 212 -445 0
388 397 -524 0
145 -532 595 0
-55 -408 431 0
130 -331 -474 0
402 -485 551 0
337 -411 510 0
171 249 524 0
-92 -103 -529 0
8 337 441 0
-308 -497 -516 0
2 -55 -548 0
87 -264 501 0
-108 -198 -207 0
162 -334 486 0
-140 171 -593 0
-18 199 -600 0
-126 323 370 0
-273 348 -544 0
-290 -489 -600 0
-305 426 -505 0
285 385 -433 0
207 -416 -485 0
254 -506 540 0
-12 -86 313 0
143 -235 -573 0
209 313 584 0
-309 438 -591 0
-19 -46 -329 0
26 -200 224 0
-145 -424 -523 0
129 -235 543 0
-153 270 -464 0
-53 240 396 0
-85 -148 538 0
114 -183 327 0
80 -263 -457 0
146 -300 -550 0
140 -495 -536 0
-552 557 -592 0
-193 200 435 0
142 544 -590 0
-362 -458 472 0
-225 403 -590 0
-476 478 -489 0
80 -93 -384 0
-171 209 -320 0
388 524 541 0
-147 -277 -373 0
-78 -362 -465 0
-136 -158 544 0
-101 214 376 0
2 -561 573 0
-205 -271 -318 0
102 365 -567 0
-125 249 512 0
-16 260 -596 0
140 -464 -597 0
196 457 557 0
401 -567 574 0
-243 299 -349 0
395 -417 -507 0
-11 306 -533 0
-271 -503 -566 0
-245 -308 539 0
38 229 -249 0
50 -175 532 0
-70 368 499 0
-1 287 528 0
63 208 -577 0
78 -84 546 0
80 208 -533 0
-209 288 508 0
-49 -362 -539 0
-54 321 475 0
92 -537 -564 0
49 393 464 0
82 -101 -159 0
74 -198 -453 0
20 -498 -539 0
15 -153 350 0
-220 234 -459 0
346 -397 -543 0
29 -111 282 0
257 303 -513 0
29 268 423 0
-33 -449 530 0
-417 -474 529 0
114 262 -290 0
182 304 -368 0
278 -461 498 0
75 309 594 0
128 -435 587 0
-230 -299 501 0
-8 185 362 0
10 388 406 0
-94 -340 -504 0
-259 528 -589 0
-272 312 -445 0
23 101 583 0
50 407 -420 0
24 -261 490 0
103 242 -411 0
92 348 -529 0
-58 -161 550 0
-81 400 551 0
47 -73 -76 0
-60 -297 -461 0
-43 498 548 0
286 415 513 0
-270 -365 -592 0
-113 167 571 0
-257 -284 -333 0
-57 -363 -377 0
-45 428 -495 0
286 366 390 0
99 -161 213 0
2 -31 -381 0
-228 462 492 0
257 -287 454 0
-11 -129 150 0
-174 -187 -205 0
-37 -152 271 0
-10 148 301 0
150 -301 469 0
-29 -119 -586 0
-306 -439 521 0
-214 -429 520 0
-123 332 -433 0
-137 -418 583 0
93 -203 483 0
104 112 -125 0
-105 -172 476 0
-402 -562 593 0
-115 -304 -394 0
-118 340 502 0
36 -440 588 0
-65 233 -268 0
-67 231 -333 0
-11 -13 -303 0
-259 -278 310 0
-212 395 -454 0
215 -377 -548 0
40 -136 -283 0
-125 239 551 0
-100 531 -544 0
-125 -153 -368 0
68 -450 504 0
-190 -203 532 0
-22 -444 560 0
39 -67 -331 0
-208 502 -567 0
103 -457 514 0
-71 -180 427 0
-117 -170 404 0
406 521 -537 0
-270 357 -413 0
189 403 591 0
-377 -492 565 0
171 374 378 0
-175 184 -209 0
-70 265 442 0
426 556 594 0
219 523 566 0
68 290 -562 0
152 515 -594 0
-78 177 251 0
7 -178 262 0
82 84 320 0
-122 319 493 0
-348 433 507 0
-232 -298 343 0
20 329 -470 0
51 357 453 0
-54 -357 -484 0
6 67 -109 0
61 -120 406 0
-51 -205 -291 0
154 -336 -556 0
90 -449 519 0
-60 281 -588 0
21 199 -427 0
-374 -515 585 0
25 -40 332 0
21 179 404 0
239 372 593 0
105 424 -434 0
-298 -342 -458 0
-57 -174 587 0
-113 385 476 0
142 172 482 0
-112 133 -228 0
82 -216 378 0
-14 348 407 0
-203 365 -522 0
-28 171 -479 0
-54 -69 -263 0
72 -88 -405 0
-248 491 520 0
-61 -259 439 0
-101 -355 -367 0
-478 -493 504 0
-109 194 301 0
-161 -428 580 0
-220 -262 265 0
-162 -352 580 0
101 406 -523 0
158 194 217 0
-13 388 -465 0
-168 175 -467 0
-123 -522 -538 0
-202 -568 599 0
391 -481 -525 0
119 -236 -516 0
-149 -237 -346 0
-286 418 500 0
-170 274 554 0
103 -163 261 0
-68 258 567 0
-252 -324 -497 0
-102 -230 -329 0
517 550 579 0
-91 238 -482 0
-102 -457 -559 0
160 -162 -448 0
111 -491 578 0
-19 165 -243 0
-12 -97 423 0
19 184 -341 0
-10 -162 -519 0
54 178 566 0
-355 539 577 0
-266 -341 -468 0
-209 -246 -568 0
91 220 -319 0
-86 -277 -326 0
332 -348 484 0
-173 291 422 0
-142 205 -340 0
62 -127 358 0
-72 179 -458 0
136 146 352 0
182 462 495 0
146 -229 -321 0
243 -326 397 0
-114 -377 -427 0
-231 252 -407 0
9 233 307 0
-160 207 -385 0
-15 280 -427 0
-38 -93 -405 0
-173 -285 -312 0
-146 276 -304 0
-55 167 -515 0
-251 289 591 0
-232 -252 -498 0
-208 433 -513 0
-484 -542 594 0
-218 322 419 0
75 248 547 0
-328 472 -524 0
-31 -330 555 0
-109 300 477 0
-21 369 -420 0
86 -115 141 0
189 284 434 0
-142 164 202 0
-305 -357 530 0
-118 -379 -557 0
-72 255 -532 0
-154 371 -514 0
-336 -440 -491 0
13 -80 347 0
-47 -139 -573 0
-68 -410 513 0
-212 267 512 0
-118 272 566 0
-145 -414 -583 0
201 -393 -458 0
53 -281 -553 0
159 178 -470 0
-209 277 530 0
169 -287 -469 0
44 329 401 0
141 351 570 0
-147 358 -500 0
-191 209 -293 0
114 228 -379 0
66 416 445 0
88 -151 327 0
-364 542 561 0
-268 -311 429 0
-65 164 -507 0
-91 -247 297 0
164 375 407 0
-178 406 495 0
295 580 592 0
-55 -60 -151 0
92 -417 -465 0
-74 156 -555 0
189 -267 -314 0
-221 -352 474 0
-330 419 -456 0
120 215 478 0
-313 -408 581 0
-37 -289 -321 0
-258 307 -486 0
-56 260 551 0
-17 57 -309 0
7 122 -591 0
240 250 385 0
195 -535 598 0
-40 -345 599 0
-108 257 399 0
55 418 -510 0
65 -286 498 0
91 -324 -584 0
379 505 528 0
-69 317 -447 0
-105 144 243 0
39 77 -396 0
-139 147 297 0
386 -413 534 0
-121 420 485 0
203 302 -311 0
464 488 595 0
43 145 -551 0
207 -270 -299 0
-29 492 -580 0
-164 420 433 0
50 246 -313 0
108 169 -175 0
172 409 600 0
464 568 599 0
164 -231 553 0
26 -83 352 0
271 -408 458 0
-216 -278 -488 0
325 336 356 0
-207 -285 442 0
-145 -195 552 0
173 -191 359 0
-69 315 518 0
19 91 -306 0
144 -276 504 0
144 -180 421 0
151 268 396 0
-3 -255 -597 0
-99 110 150 0
113 -157 518 0
-7 178 -534 0
237 321 -363 0
297 -406 546 0
540 -580 -586 0
89 287 566 0
141 354 469 0
-138 379 -578 0
-64 236 -513 0
30 120 -178 0
323 461 -466 0
104 -238 -339 0
-55 245 -496 0
-148 154 271 0
79 462 -530 0
200 415 577 0
-53 335 541 0
-299 413 538 0
-137 163 -443 0
-34 71 591 0
10 -129 409 0
-235 338 -353 0
268 468 542 0
109 307 325 0
94 -294 423 0
33 429 461 0
-117 -249 491 0
-148 452 -529 0
-245 293 353 0
282 -334 -340 0
-192 436 478 0
-130 163 465 0
154 400 418 0
53 -79 -140 0
-88 -125 420 0
-8 414 -496 0
-10 -45 -272 0
-35 61 145 0
-285 398 -560 0
-24 95 -406 0
-116 308 361 0
278 443 461 0
-14 208 309 0
-126 162 -406 0
172 -314 -435 0
107 224 -374 0
110 -156 415 0
167 333 577 0
29 -369 -427 0
-183 383 472 0
137 291 326 0
139 -200 385 0
-249 -386 557 0
-250 -267 -302 0
-56 -223 -531 0
-76 202 -542 0
331 -437 -558 0
260 405 509 0
-116 -242 -243 0
47 -231 253 0
-23 -295 547 0
-82 -95 184 0
-31 342 581 0
155 321 -428 0
88 384 478 0
281 -318 -431 0
226 -449 549 0
-67 112 457 0
-53 -77 -544 0
414 -555 586 0
-121 -216 510 0
48 -472 495 0
-106 -329 -478 0
28 95 247 0
-203 -331 -526 0
-150 343 510 0
242 405 582 0
-68 -156 209 0
-71 -173 181 0
20 75 207 0
-95 290 -485 0
362 -368 492 0
4 -232 -280 0
-263 -556 593 0
-81 -134 -157 0
-137 148 -529 0
172 354 -414 0
226 -245 587 0
-137 296 -441 0
-50 -81 113 0
96 354 -513 0
-304 334 -439 0
-241 -293 509 0
-30 303 -351 0
266 -529 -571 0
-120 276 -479 0
27 -557 -581 0
148 -193 354 0
-30 64 -352 0
-189 295 -557 0
224 -263 -287 0
95 -223 396 0
-265 392 418 0
-83 -224 559 0
243 -304 455 0
-48 523 -535 0
10 -243 569 0
172 356 -498 0
-123 -145 -179 0
-217 -416 583 0
-176 500 -580 0
232 -341 463 0
109 -362 -484 0
240 -334 -554 0
-314 -369 529 0
-143 381 554 0
35 254 336 0
449 -507 537 0
150 -198 546 0
7 15 -17 0
-193 297 364 0
103 -499 533 0
101 -203 -574 0
49 -347 -584 0
-114 395 -474 0
130 -303 349 0
256 280 -479 0
-130 -308 -447 0
105 -201 -203 0
95 105 224 0
-303 -318 467 0
43 109 573 0
-394 -415 -583 0
-64 -272 -442 0
-37 295 -484 0
377 -461 542 0
265 -418 -525 0
-28 83 -178 0
-52 291 -459 0
40 312 -595 0
21 36 -150 0
325 -466 473 0
-357 -403 -431 0
57 179 220 0
-302 410 -528 0
34 425 -513 0
286 -398 -597 0
60 271 -356 0
-48 -70 -353 0
-10 402 -540 0
232 -268 467 0
-138 459 -484 0
-129 240 259 0
43 162 503 0
93 -474 487 0
-37 107 -554 0
246 -298 479 0
178 211 -414 0
-49 293 -398 0
-173 184 328 0
-392 471 -511 0
238 -298 564 0
-10 -93 -531 0
275 368 479 0
-184 191 -536 0
-22 -298 412 0
280 361 439 0
-84 -365 525 0
-200 233 516 0
275 -359 -398 0
-387 -516 -528 0
17 -79 -445 0
-269 -353 471 0
-83 -323 339 0
183 -507 584 0
-73 -329 -486 0
-104 -246 247 0
-483 521 553 0
40 340 -384 0
2 -118 422 0
81 -368 451 0
123 -257 -574 0
-27 195 -298 0
-324 485 531 0
6 -238 -456 0
-260 372 500 0
23 -352 466 0
24 403 -558 0
33 99 -215 0
-513 520 547 0
-140 454 501 0
145 344 -474 0
340 -347 409 0
62 368 -486 0
125 133 570 0
-119 263 -401 0
-91 279 -555 0
337 -383 -572 0
193 310 313 0
24 344 -382 0
207 -298 483 0
-7 -219 568 0
78 360 -416 0
73 -93 242 0
-133 -392 492 0
-121 251 524 0
-67 358 -475 0
-234 -301 -516 0
-304 -319 -454 0
229 -365 592 0
-76 -544 560 0
-26 238 -321 0
-122 -132 525 0
18 -372 -378 0
-97 324 -491 0
-51 277 -469 0
34 -144 -179 0
328 -544 -591 0
233 -247 -430 0
-20 327 -491 0
357 -490 587 0
-65 83 -379 0
-13 -43 -94 0
393 -529 -539 0
-41 116 474 0
213 448 -479 0
-495 515 -527 0
-116 166 396 0
-39 -71 442 0
189 307 440 0
11 -68 -388 0
272 504 572 0
-3 -518 587 0
-104 -199 421 0
2 174 -529 0
362 -390 521 0
143 286 383 0
59 160 -193 0
133 185 -454 0
67 -457 -553 0
220 282 -310 0
-257 528 -594 0
-29 342 -399 0
201 266 432 0
-292 -531 -585 0
69 234 -528 0
351 561 -571 0
42 -115 282 0
-238 -369 -398 0
-2 -154 483 0
-75 248 402 0
-6 50 358 0
-381 385 588 0
-269 296 -450 0
-82 -426 -568 0
-404 489 -512 0
241 -533 -559 0
7 24 -178 0
-79 100 165 0
171 -314 424 0
50 -76 -360 0
-122 256 330 0
17 -385 538 0
-206 282 -396 0
-100 357 407 0
68 -235 -240 0
-91 155 479 0
23 -317 439 0
226 445 -594 0
-8 -121 -364 0
154 -178 -491 0
85 379 451 0
-42 -52 -526 0
-184 295 -436 0
-470 567 591 0
-201 -369 -499 0
-88 516 589 0
-180 405 484 0
278 -299 314 0
5 477 -588 0
405 486 -552 0
188 -313 -554 0
173 -183 213 0
-98 436 452 0
116 334 -393 0
158 -179 -380 0
-182 -312 -397 0
-193 374 -389 0
-131 -288 -500 0
295 -554 -558 0
58 -134 271 0
-22 -399 418 0
-207 312 -571 0
357 427 472 0
240 381 -504 0
-148 -227 236 0
-5 93 206 0
12 -57 -591 0
160 -326 -546 0
-258 536 -560 0
-74 -154 -557 0
-46 -241 -537 0
-11 62 -139 0
2 245 -318 0
-219 -304 -428 0
25 -154 408 0
340 -420 -595 0
-51 211 366 0
-133 251 -357 0
83 -269 394 0
-48 212 -539 0
294 -474 587 0
-59 -299 569 0
-142 271 -525 0
-123 -464 -593 0
197 -361 535 0
26 -103 -179 0
-424 454 -518 0
-105 152 -414 0
68 368 541 0
39 322 594 0
-152 -380 -579 0
-391 -547 -575 0
48 352 -497 0
511 -557 -587 0
116 -207 -354 0
-86 164 -349 0
93 -210 350 0
50 -359 556 0
-76 430 -489 0
-358 -359 -444 0
64 109 567 0
-184 264 -381 0
-127 182 542 0
72 141 -489 0
-178 -350 394 0
126 -171 392 0
425 444 568 0
-165 -291 476 0
95 -235 -411 0
-109 166 190 0
69 361 -370 0
-257 279 301 0
-255 436 -571 0
-208 -562 563 0
-109 -560 573 0
-173 256 573 0
93 347 -534 0
-291 340 -587 0
305 380 406 0
155 -378 -579 0
55 -188 -408 0
39 -379 -572 0
225 521 555 0
418 439 541 0
-216 -332 -436 0
-90 91 275 0
45 283 -317 0
-288 -441 -588 0
240 -394 -536 0
131 285 328 0
-109 -123 541 0
-396 413 -467 0
358 -419 565 0
-13 -51 -494 0
289 553 -572 0
78 230 -519 0
113 -339 393 0
-231 -279 -351 0
209 -225 -341 0
-128 384 399 0
-118 254 -285 0
-289 302 528 0
25 -128 450 0
-316 327 508 0
-119 142 -259 0
38 449 460 0
-162 -184 -235 0
3 -69 -340 0
-200 537 -590 0
18 334 600 0
178 277 370 0
267 356 584 0
-188 385 -567 0
-160 287 592 0
-282 -540 541 0
41 370 -573 0
14 -423 527 0
354 -467 -539 0
61 -231 -426 0
-161 295 566 0
-98 -386 -436 0
-99 533 559 0
-460 469 -545 0
-62 69 497 0
377 526 541 0
-137 331 -431 0
-97 109 409 0
-337 -365 -368 0
-93 -124 -331 0
-89 258 -344 0
224 225 -581 0
-49 -172 -277 0
-165 -305 -348 0
-118 -180 -545 0
99 233 -354 0
-129 268 -512 0
67 -272 336 0
-307 330 437 0
137 -525 -600 0
-40 -120 485 0
87 -146 233 0
21 -81 147 0
-55 191 468 0
-75 303 -319 0
-123 428 -534 0
-148 407 519 0
-133 185 -475 0
-454 -493 -532 0
-76 -408 -526 0
76 368 -512 0
5 159 -259 0
-41 289 321 0
21 -435 -488 0
27 -143 -185 0
54 -392 -552 0
392 -482 -562 0
-114 -195 -331 0
351 -445 -574 0
-324 361 -386 0
177 234 -383 0
-292 -496 -541 0
-125 -366 -592 0
-29 428 465 0
-212 256 -582 0
153 -328 -573 0
-187 392 -514 0
-296 464 -589 0
184 210 -358 0
-85 -445 570 0
103 -124 163 0
55 -114 -314 0
-105 176 447 0
-160 -245 -324 0
249 -312 514 0
-100 -152 -349 0
308 -473 598 0
-160 -294 -454 0
-357 -488 -588 0
218 -227 447 0
141 -419 516 0
-410 489 512 0
-228 513 516 0
107 -169 359 0
-17 153 441 0
77 331 -578 0
-104 -113 -137 0
-163 459 570 0
-109 357 -485 0
-300 -305 -344 0
501 -587 -596 0
-243 -328 -364 0
216 418 -593 0
253 -346 549 0
-13 -222 423 0
146 290 539 0
-44 -125 -428 0
52 394 -531 0
79 -236 -463 0
250 289 304 0
-157 230 474 0
-36 42 321 0
27 -55 -282 0
38 -186 297 0
-455 -473 -499 0
236 -258 -508 0
-155 -300 -472 0
-11 -126 -144 0
81 191 -517 0
-201 -287 -566 0
265 -502 -541 0
11 465 -486 0
-338 352 -543 0
-109 191 -347 0
-132 -263 426 0
344 -375 -497 0
84 -367 -561 0
76 138 200 0
-17 -431 560 0
-110 -458 -584 0
183 304 -483 0
7 -109 220 0
-121 204 369 0
47 195 -439 0
-118 -440 -455 0
-235 -342 348 0
187 278 -467 0
-1 303 -489 0
77 299 -462 0
96 416 -558 0
-86 119 154 0
153 154 364 0
-27 40 406 0
-297 -408 469 0
-82 -132 206 0
34 -136 -288 0
129 405 525 0
-89 -217 381 0
-98 -551 -564 0
-8 -283 425 0
-339 -480 -574 0
19 -309 317 0
200 -435 481 0
-309 386 -574 0
-280 339 503 0
-108 284 -339 0
127 262 590 0
38 -233 598 0
-36 196 -456 0
99 -118 197 0
75 209 573 0
7 188 -462 0
121 -171 190 0
-368 -459 587 0
-170 -292 -491 0
53 399 461 0
-181 -268 -381 0
-27 -120 596 0
-15 -107 -519 0
192 330 -338 0
-273 -288 570 0
-55 -173 -406 0
-22 134 315 0
-56 -251 -285 0
-161 192 -473 0
280 456 527 0
-315 -515 531 0
-110 197 -507 0
-95 317 -339 0
307 463 -513 0
5 -339 -550 0
-71 104 227 0
345 -485 -552 0
23 -71 -320 0
-61 183 206 0
289 -384 -598 0
-243 501 560 0
189 -472 539 0
-237 452 550 0
-116 376 424 0
-60 249 339 0
-87 -387 -464 0
172 -497 547 0
-146 -314 427 0
-283 355 442 0
-132 454 556 0
170 -256 -574 0
128 -293 527 0
-59 -96 177 0
100 -280 -308 0
-109 -177 445 0
-2 135 -179 0
325 458 470 0
7 57 445 0
-32 352 -433 0
191 -314 367 0
16 49 429 0
-172 -275 -425 0
-180 211 -283 0
91 163 -469 0
-192 -217 -385 0
51 160 275 0
-139 292 332 0
109 -303 593 0
-156 452 490 0
-125 -522 -600 0
-151 -355 -569 0
-95 -277 -573 0
29 -103 -477 0
15 225 410 0
-230 -241 -579 0
-85 -107 116 0
-22 -33 291 0
96 -283 583 0
-129 -274 -514 0
-251 523 552 0
-205 -336 -364 0
73 149 -524 0
27 232 -401 0
-30 86 89 0
-160 219 -333 0
112 -137 -221 0
-11 275 304 0
58 -69 -324 0
9 -192 402 0
29 -180 -465 0
-212 -442 483 0
-118 151 167 0
218 296 304 0
241 384 -424 0
348 426 -563 0
300 404 -488 0
249 -472 563 0
83 223 -558 0
-155 442 -582 0
119 -414 538 0
6 -46 477 0
79 331 -571 0
19 260 366 0
296 366 499 0
-356 381 -577 0
9 -171 210 0
-184 -264 -284 0
-88 -480 521 0
-46 -256 -454 0
-153 -204 240 0
123 245 -436 0
120 205 -509 0
340 -446 585 0
42 184 -283 0
26 -93 -453 0
-58 107 -238 0
-205 -397 -548 0
202 329 412 0
-196 348 -521 0
182 297 -364 0
-358 465 -551 0
261 274 -451 0
-358 -508 547 0
393 -396 -543 0
23 -169 560 0
58 -88 438 0
-129 -499 -551 0
-21 140 304 0
-179 226 -276 0
-88 155 -313 0
-83 114 -182 0
53 -320 -497 0
142 275 -322 0
-190 -394 563 0
219 -311 558 0
-165 -236 -539 0
236 -418 -545 0
-186 205 464 0
81 372 478 0
115 200 -315 0
-238 -296 543 0
80 -130 -275 0
-59 215 -463 0
73 -236 352 0
-190 -220 -572 0
-243 284 428 0
198 -422 -563 0
52 -312 526 0
-371 -444 -490 0
-65 -187 -345 0
324 -385 -433 0
-366 516 -529 0
162 -265 -285 0
-208 -523 545 0
54 -145 -184 0
-255 366 425 0
-206 -426 -577 0
-218 513 533 0
262 286 -460 0
104 -271 -316 0
-295 -300 -440 0
-425 443 -496 0
30 -471 538 0
32 -181 523 0
57 -438 551 0
64 -202 297 0
74 -145 -438 0
153 -208 473 0
-84 124 228 0
-204 243 292 0
-78 238 -310 0
-89 -203 -581 0
230 -291 329 0
-114 136 522 0
-492 -537 589 0
76 78 273 0
39 184 -358 0
262 -267 335 0
-72 -365 -403 0
15 -87 597 0
-4 37 -66 0
233 -472 -491 0
228 -240 242 0
115 414 490 0
-188 -311 -560 0
-189 210 320 0
-401 412 -596 0
56 168 -587 0
202 217 -254 0
-250 -251 -420 0
-12 106 426 0
-354 359 -467 0
150 -211 472 0
45 95 -515 0
64 -122 -571 0
-34 -154 330 0
-160 195 325 0
122 -374 -447 0
185 -384 521 0
-6 372 398 0
274 -422 -587 0
-421 -463 583 0
-47 216 254 0
52 198 -429 0
68 195 -286 0
385 -464 536 0
-216 -233 329 0
206 291 383 0
43 322 389 0
11 269 -477 0
24 -150 -160 0
-273 -390 518 0
131 -542 543 0
-85 -507 -539 0
111 -122 133 0
211 -322 559 0
-192 382 -457 0
1 -186 -342 0
149 -484 -507 0
121 -351 -444 0
-368 437 -492 0
133 -334 473 0
-57 477 563 0
18 -213 -422 0
-116 180 -524 0
87 467 584 0
-106 129 -212 0
234 269 -506 0
-98 309 -527 0
-210 -331 -588 0
-182 312 468 0
-301 -416 488 0
265 266 -592 0
-157 -184 -364 0
24 -150 234 0
-231 349 528 0
142 343 474 0
-42 167 244 0
11 501 505 0
-126 -355 -438 0
-20 -212 538 0
-105 567 583 0
-299 -477 536 0
93 147 418 0
21 -130 360 0
-40 178 263 0
118 188 -570 0
-154 -171 -512 0
-70 277 580 0
-204 273 -400 0
92 93 -238 0
12 -14 -236 0
-281 -298 475 0
-22 -337 425 0
-333 -340 465 0
-240 -295 -488 0
20 413 -446 0
-264 -427 486 0
-53 -244 -595 0
-51 198 -414 0
304 -331 -377 0
283 -316 445 0
35 102 -132 0
-265 267 503 0
550 -557 577 0
-54 159 427 0
57 -221 587 0
-42 -135 317 0
55 -298 -486 0
-193 -278 529 0
-206 344 354 0
-182 358 -360 0
-85 -303 -386 0
-35 54 -437 0
-158 -229 -322 0
-122 -251 387 0
103 435 -500 0
-36 -587 594 0
433 525 545 0
182 -489 599 0
174 -310 -574 0
467 -483 549 0
164 -549 -575 0
-178 -302 -484 0
-12 54 116 0
268 -403 476 0
-60 101 171 0
239 -256 592 0
-332 -541 582 0
-317 -473 -538 0
-243 301 556 0
47 -170 498 0
362 513 -581 0
43 78 -524 0
-160 -591 596 0
-31 86 -91 0
194 220 504 0
-30 -65 -125 0
-145 -249 454 0
2 -53 -317 0
-159 189 -485 0
-354 -469 598 0
243 280 512 0
-244 -276 -585 0
108 -165 443 0
3 99 -133 0
65 392 572 0
29 210 -465 0
-240 -267 289 0
151 311 600 0
292 -415 -547 0
120 -243 551 0
-228 -261 -313 0
58 373 585 0
-137 187 287 0
298 -485 -571 0
241 -264 -482 0
61 -390 -489 0
-56 244 -344 0
-23 219 -566 0
69 -256 541 0
-65 -352 -574 0
236 247 -344 0
-168 -305 404 0
45 -237 558 0
-230 282 -391 0
-219 346 -468 0
160 -364 381 0
415 532 537 0
-145 -203 -224 0
-14 -341 484 0
45 46 90 0
-232 -369 -463 0
311 -343 461 0
229 -363 369 0
-201 -447 -501 0
305 421 531 0
-207 210 219 0
69 -252 537 0
255 272 -275 0
309 528 592 0
367 -418 556 0
229 358 -511 0
114 156 -245 0
141 159 377 0
-267 -344 -386 0
271 -355 400 0
20 -274 -537 0
-28 226 561 0
-54 -381 -538 0
465 517 -523 0
-23 94 -525 0
-474 492 503 0
-80 172 513 0
182 -251 -414 0
-15 303 540 0
238 334 552 0
69 401 539 0
147 -282 366 0
-201 207 379 0
-467 -485 513 0
-75 -135 398 0
-264 -364 -461 0
-7 487 539 0
-175 -530 -571 0
41 -415 505 0
249 -463 510 0
-42 -138 -429 0
96 474 497 0
371 409 529 0
328 -549 576 0
78 287 464 0
117 -215 -454 0
31 -32 -357 0
133 319 386 0
-77 106 -408 0
158 -185 509 0
52 72 -516 0
-279 -546 -592 0
-127 -360 362 0
-6 -242 572 0
173 -251 291 0
2 -524 -537 0
-26 -82 382 0
-231 372 -379 0
-78 -120 320 0
136 -539 547 0
36 -50 442 0
217 -507 566 0
-143 363 377 0
-190 -239 396 0
300 357 421 0
-220 -483 -512 0
223 284 -551 0
-170 -268 592 0
-179 -231 -492 0
5 41 -280 0
45 -485 587 0
104 -268 -374 0
111 125 -500 0
136 -148 412 0
-90 144 -458 0
167 180 -208 0
417 435 -562 0
16 -271 -330 0
170 -214 277 0
-326 524 -537 0
-5 -426 -532 0
-45 -255 -382 0
-103 -278 -484 0
23 554 -600 0
-20 145 -248 0
-376 448 582 0
176 302 -337 0
-169 319 509 0
-11 122 415 0
167 442 455 0
116 -235 -273 0
-314 -332 -472 0
-12 -305 -476 0
229 497 529 0
78 93 219 0
165 255 296 0
-79 141 -482 0
-277 278 -437 0
92 192 -383 0
-129 -237 -330 0
3 363 418 0
62 235 396 0
9 -81 261 0
209 -395 -410 0
-313 344 -545 0
299 -410 -472 0
275 400 501 0
-5 262 452 0
-280 -374 -469 0
242 564 595 0
216 235 543 0
18 -54 207 0
-251 -280 367 0
89 -466 503 0
23 -35 556 0
17 165 -495 0
275 -498 -567 0
-137 347 454 0
-64 -147 -287 0
-4 -81 279 0
-40 355 -480 0
-180 435 -589 0
-215 -219 -496 0
-439 -482 497 0
149 -316 -358 0
-218 363 -554 0
70 -365 465 0
89 370 -560 0
-257 387 504 0
-248 -353 -422 0
-329 -363 -395 0
77 -426 -587 0
-215 -232 347 0
104 281 -293 0
-319 -385 -468 0
2 -34 -91 0
-211 -301 406 0
-146 -330 368 0
-19 65 -564 0
-34 77 -518 0
81 -191 263 0
117 265 586 0
-328 456 -520 0
219 -363 -522 0
297 490 -553 0
36 -310 -561 0
25 129 479 0
102 305 584 0
165 -269 279 0
-1 -296 497 0
-465 540 -595 0
-205 257 -556 0
-385 -556 -595 0
-356 -384 -504 0
176 -469 -561 0
32 89 492 0
-275 -412 -552 0
2 -34 598 0
44 66 444 0
-279 -459 -591 0
46 -436 496 0
-449 -480 -527 0
-340 344 469 0
349 394 533 0
16 122 -465 0
168 -182 286 0
288 -385 -482 0
30 49 -387 0
-254 -335 383 0
-341 -461 467 0
242 -499 591 0
53 405 -481 0
27 180 -266 0
294 553 -581 0
10 -143 -158 0
-12 360 -596 0
277 -421 597 0
-288 -579 -591 0
-438 547 -562 0
48 108 366 0
-36 368 445 0
-3 -167 184 0
5 213 -492 0
-55 -243 -413 0
229 -467 485 0
72 129 -546 0
416 -521 599 0
-18 -294 543 0
251 -358 457 0
72 108 -157 0
-57 -376 -417 0
-220 512 522 0
43 -486 -507 0
-7 -477 495 0
-46 -290 -331 0
56 498 -591 0
271 357 -488 0
-277 -365 561 0
-237 -471 500 0
33 57 -263 0
239 307 409 0
-116 117 378 0
172 367 552 0
-204 -453 -551 0
-25 -158 -261 0
112 188 -277 0
-183 -444 -537 0
-104 -204 -593 0
70 -533 -538 0
245 -437 466 0
-23 -29 -427 0
-104 -324 372 0
508 561 577 0
-177 198 467 0
52 141 558 0
-266 -494 598 0
-316 526 580 0
173 238 -466 0
259 -354 -507 0
184 221 495 0
-57 -318 -436 0
272 372 526 0
-192 -422 450 0
45 328 516 0
-75 521 -563 0
134 279 -395 0
-59 -87 -585 0
190 445 513 0
61 -234 583 0
-68 87 -103 0
-84 -213 -434 0
98 219 256 0
-275 -459 -489 0
130 480 -523 0
217 426 -462 0
-307 396 570 0
298 -313 -381 0
-20 -114 -592 0
-3 -539 545 0
-17 60 -215 0
-142 -404 554 0
87 -321 -410 0
103 235 -415 0
-32 -35 -348 0
-102 143 429 0
-172 -212 -455 0
-180 258 -518 0
420 -510 -530 0
354 -431 549 0
307 -350 -544 0
-90 -391 -530 0
-96 289 -357 0
129 -248 -538 0
4 -392 -457 0
173 -443 -578 0
-87 99 -529 0
-9 -61 -421 0
29 -148 480 0
356 -409 -564 0
-182 -269 293 0
-183 227 -418 0
421 449 549 0
-64 169 268 0
1 221 -359 0
124 248 -569 0
139 -216 271 0
45 357 -505 0
84 -310 -529 0
-292 401 472 0
55 180 414 0
128 272 -356 0
-342 461 -481 0
176 -208 462 0
-1 -394 -540 0
-59 368 406 0
-248 249 499 0
-87 273 343 0
51 212 -541 0
-115 -546 552 0
188 -277 -427 0
86 199 421 0
360 -473 -508 0
190 -440 -564 0
80 220 404 0
-116 192 -338 0
56 -424 -430 0
275 -459 -569 0
239 422 -434 0
-214 217 532 0
225 -393 -573 0
191 410 -551 0
-400 -449 -454 0
31 -396 -417 0
-117 -205 358 0
163 214 -575 0
12 -116 542 0
306 -531 -567 0
255 -289 361 0
-95 189 218 0
-158 -270 -552 0
130 301 363 0
-124 136 -403 0
98 317 353 0
137 344 -581 0
-410 477 598 0
87 166 344 0
43 -72 380 0
-59 118 -278 0
-150 172 -397 0
502 520 548 0
-15 -33 -84 0
-79 -148 597 0
173 243 -390 0
46 -415 -532 0
109 -125 568 0
175 -376 -436 0
-266 389 -428 0
94 -201 -592 0
-377 -510 575 0
-111 149 346 0
-28 -250 513 0
-1 -178 209 0
-97 145 -550 0
47 -120 585 0
2 272 -307 0
-251 -307 417 0
-240 420 -597 0
70 101 273 0
-29 507 -540 0
-8 -327 335 0
-102 158 -464 0
392 -406 586 0
13 -151 215 0
-184 226 -239 0
-256 -354 477 0
-504 526 -550 0
-86 244 426 0
231 482 536 0
84 -303 445 0
86 -362 -462 0
44 -45 302 0
110 118 -327 0
-383 537 -597 0
15 274 382 0
-2 -16 367 0
-4 388 -423 0
-177 276 313 0
-65 477 576 0
-286 -333 -373 0
-400 -424 536 0
-82 -363 543 0
-49 -419 437 0
-37 96 -510 0
32 -66 180 0
-156 488 -545 0
4 -175 -331 0
-124 -232 -246 0
220 -316 -395 0
14 -104 461 0
-287 315 -469 0
100 -340 396 0
-323 382 581 0
247 288 -424 0
-91 -290 -519 0
-108 -337 -429 0
354 436 -461 0
75 80 173 0
-212 308 -565 0
298 -366 -392 0
-113 -253 -555 0
-193 -272 -449 0
333 448 -573 0
-96 205 -253 0
7 -259 284 0
129 218 325 0
28 493 538 0
-202 -374 464 0
20 -240 530 0
-158 -233 -569 0
139 -193 -336 0
211 -443 -500 0
37 321 -338 0
22 -425 587 0
33 -121 -210 0
44 -175 -396 0
177 545 555 0
-282 536 -566 0
275 549 -581 0
-24 386 401 0
168 -372 -482 0
213 328 -450 0
-319 558 565 0
-40 -429 576 0
133 -309 -409 0
-104 -364 -435 0
-61 87 318 0
-366 -529 -548 0
-389 -504 539 0
-191 215 321 0
-151 -192 501 0
7 -65 -253 0
-175 555 -572 0
142 309 430 0
81 -92 478 0
-237 275 -449 0
49 -363 579 0
-185 314 -329 0
-17 109 468 0
-105 497 562 0
-21 -168 355 0
-194 296 386 0
229 351 -426 0
-346 -401 468 0
111 -296 400 0
6 -19 -530 0
-150 235 -379 0
192 -319 -373 0
-45 -207 586 0
-364 477 -540 0
58 -145 -345 0
-136 -201 291 0
-48 483 533 0
30 72 336 0
-34 -67 231 0
-361 375 517 0
-43 -118 -161 0
-23 53 -226 0
-50 303 328 0
-116 -236 -373 0
17 -377 544 0
250 252 561 0
12 -575 583 0
228 -443 -535 0
-55 -413 427 0
-112 -216 472 0
69 200 245 0
185 566 -588 0
-338 491 -550 0
-474 507 590 0
359 477 -593 0
90 -285 -600 0
-109 -127 -303 0
-154 216 251 0
246 -450 454 0
-107 -284 -322 0
-114 -511 -512 0
-135 159 338 0
137 -207 240 0
-179 332 -357 0
-488 -519 594 0
-268 342 403 0
130 205 -419 0
-47 -132 226 0
-67 229 -490 0
-65 163 200 0
269 -503 -519 0
147 -240 251 0
-205 -226 440 0
83 -476 -558 0
-31 391 442 0
136 488 -546 0
-102 -285 -598 0
-138 317 -321 0
-59 394 595 0
-101 -412 524 0
469 -496 -560 0
-56 283 434 0
75 -79 536 0
176 400 -422 0
-444 460 494 0
15 413 -533 0
320 -364 -597 0
-47 58 -98 0
-256 -480 -509 0
-158 486 -533 0
14 386 -492 0
88 -270 -504 0
-15 -293 -472 0
-176 -294 -387 0
-138 155 -391 0
91 -346 -400 0
25 -217 433 0
-114 127 -579 0
104 -260 -539 0
-440 -466 -508 0
-40 157 -261 0
-94 -106 -420 0
-144 490 561 0
85 -412 -469 0
258 337 -529 0
-2 15 -563 0
39 421 -575 0
149 185 238 0
99 -178 319 0
-25 -223 356 0
-166 -396 -401 0
160 270 -489 0
147 195 487 0
15 -220 529 0
-20 -470 593 0
-265 -267 556 0
-84 -94 118 0
105 -197 -427 0
-177 461 -483 0
-342 -445 467 0
-53 -132 -524 0
-182 439 555 0
-226 -348 517 0
-19 -243 -460 0
-37 367 -491 0
-203 522 559 0
29 447 -516 0
360 382 -404 0
-13 -264 546 0
-93 -159 -207 0
9 -215 -288 0
-90 423 -436 0
-25 108 -387 0
203 -212 521 0
-376 386 -486 0
-53 204 221 0
51 120 -564 0
109 -523 -529 0
-74 175 -579 0
7 330 -587 0
201 -494 593 0
206 -458 551 0
-73 213 267 0
-293 381 430 0
210 243 -532 0
-26 444 551 0
-148 495 538 0
-198 244 -388 0
291 425 -513 0
40 -345 451 0
70 165 -600 0
-54 -211 -358 0
353 -460 -592 0
276 427 600 0
-40 213 302 0
384 410 -548 0
-63 -64 76 0
81 292 297 0
50 481 -567 0
-45 -304 -530 0
236 292 357 0
25 173 238 0
-275 363 -475 0
-114 272 352 0
157 -173 -428 0
-100 287 511 0
14 533 -569 0
206 346 582 0
76 -117 -500 0
122 -233 -264 0
239 386 417 0
-265 -272 330 0
-21 -87 257 0
115 -466 483 0
197 -401 -554 0
-267 381 -587 0
-105 -134 -592 0
-249 502 512 0
284 288 -525 0
-6 -160 322 0
21 329 459 0
-72 -177 -366 0
-160 -191 221 0
-22 -229 -330 0
39 444 -508 0
46 -165 351 0
32 416 -531 0
-99 -192 577 0
115 201 373 0
-72 -87 127 0
374 395 -481 0
106 127 403 0
95 -525 -598 0
32 396 -522 0
13 426 -453 0
292 466 -521 0
387 565 -583 0
41 209 254 0
70 -116 -344 0
131 -502 566 0
147 260 -555 0
112 370 -451 0
48 397 -543 0
48 561 -592 0
173 200 -557 0
22 98 221 0
-103 344 456 0
152 -170 334 0
132 274 276 0
-313 364 529 0
-14 -158 -299 0
-80 471 -510 0
-144 -236 -527 0
235 -312 376 0
-123 163 430 0
14 152 -415 0
14 322 -538 0
84 91 -434 0
41 204 -539 0
-349 -520 577 0
420 -537 -574 0
93 -400 497 0
-189 -498 579 0
-82 137 494 0
133 320 562 0
-96 154 -219 0
94 119 242 0
-1 309 524 0
-113 -308 389 0
119 -312 -429 0
-61 221 -352 0
-131 154 -321 0
329 -411 -586 0
-266 358 396 0
-139 499 599 0
80 -255 -449 0
-266 -398 438 0
-130 393 -485 0
188 490 578 0
-76 90 381 0
184 -353 -416 0
88 -253 415 0
344 -451 558 0
-235 -372 -463 0
64 345 -522 0
200 449 598 0
-68 293 418 0
162 -383 -444 0
-72 -281 -308 0
-69 202 225 0
-266 -301 349 0
-270 -447 514 0
74 -163 589 0
-416 439 -521 0
-105 354 -597 0
-230 245 -432 0
64 -500 -596 0
-186 -335 -507 0
50 -269 -307 0
227 367 405 0
-62 -417 544 0
-136 -289 -593 0
213 455 -565 0
-211 218 275 0
12 -303 -468 0
-48 226 289 0
227 -459 584 0
-188 252 510 0
8 -38 331 0
-209 -456 -571 0
-72 262 -421 0
115 212 -284 0
106 -160 -421 0
-353 -451 534 0
177 -231 -517 0
177 484 495 0
200 358 479 0
63 -248 -463 0
-20 -98 181 0
22 -213 -596 0
-111 -296 -405 0
-233 239 -374 0
-255 -409 459 0
-84 291 395 0
205 -373 -538 0
107 -582 590 0
-4 96 -568 0
165 -172 558 0
114 135 -254 0
214 242 -285 0
39 215 -517 0
84 275 -481 0
-18 -141 185 0
146 -325 -440 0
-1 254 -592 0
-48 -345 -598 0
-37 -412 545 0
237 374 430 0
127 -333 590 0
72 -93 -480 0
-121 221 418 0
298 413 -432 0
245 458 -581 0
-293 -417 551 0
-153 427 543 0
-96 -206 529 0
-16 399 -565 0
37 -128 227 0
-346 473 494 0
4 25 381 0
-69 -122 -473 0
-10 396 500 0
-173 378 -536 0
-426 -448 -477 0
410 477 515 0
206 -400 -584 0
-102 523 -600 0
24 184 -258 0
-59 321 549 0
-144 -186 223 0
-111 -251 400 0
-59 -105 -144 0
19 35 -48 0
-90 182 472 0
-50 436 438 0
266 353 -493 0
8 420 427 0
-236 404 -448 0
35 -85 512 0
-51 185 495 0
222 -225 462 0
-4 -54 581 0
-106 -130 -503 0
-227 363 -380 0
-111 134 -292 0
92 208 346 0
136 420 -502 0
-248 -281 309 0
117 139 -409 0
236 452 -494 0
281 -304 596 0
102 336 477 0
-147 411 509 0
210 411 509 0
-76 112 148 0
-27 -459 -560 0
-323 508 -523 0
-315 -416 -493 0
73 -497 -531 0
110 -347 -366 0
-136 269 -513 0
-65 135 -231 0
-63 -237 -259 0
-179 -235 242 0
-234 -250 275 0
86 115 -301 0
101 -179 195 0
-57 -166 440 0
-106 220 552 0
126 199 272 0
27 59 515 0
112 -476 483 0
92 174 -270 0
-86 -110 -504 0
-41 -356 469 0
51 -52 -367 0
217 -355 -565 0
-336 -405 452 0
55 278 -572 0
-26 -339 368 0
74 436 461 0
117 246 -342 0
394 -515 -573 0
-165 -182 499 0
-143 461 -571 0
-123 -185 246 0
-48 -107 -474 0
377 -557 586 0
90 282 484 0
-35 91 -117 0
246 -371 580 0
-281 -390 426 0
383 -498 -506 0
-83 143 383 0
11 441 556 0
-101 -511 -525 0
1 181 481 0
175 -291 448 0
325 -492 -599 0
-90 -274 480 0
-47 433 -467 0
226 -451 525 0
116 -120 267 0
-340 513 -550 0
-25 80 408 0
-387 -429 -438 0
26 134 -593 0
54 -293 -568 0
29 238 411 0
-200 -429 587 0
19 194 236 0
199 -200 -517 0
221 425 540 0
-15 29 -92 0
-5 -20 -431 0
90 -263 417 0
52 -201 -403 0
126 135 475 0
-310 -456 -515 0
-108 269 -288 0
-35 97 164 0
-192 276 346 0
191 -373 -443 0
-266 -400 -513 0
5 318 382 0
-350 -415 423 0
-118 -169 466 0
-83 440 -523 0
57 -119 -406 0
-94 -108 211 0
-267 446 517 0
2 -175 252 0
-10 178 -530 0
-215 -238 333 0
297 468 504 0
-50 -329 -490 0
204 -252 -494 0
126 206 -367 0
-52 -488 -509 0
16 22 315 0
-266 360 404 0
126 -130 -497 0
-27 434 565 0
-282 -348 -425 0
-93 197 -568 0
234 391 565 0
-244 436 -488 0
-65 132 474 0
-59 -479 -534 0
-262 -463 -568 0
44 50 -452 0
-245 -455 501 0
398 463 -507 0
289 -305 550 0
116 235 323 0
-236 -242 -594 0
-345 358 393 0
-62 -156 -384 0
-106 -355 -373 0
-36 -503 -526 0
9 -559 -598 0
-73 -298 -449 0
210 264 -380 0
87 -264 -455 0
-294 -380 -508 0
-190 489 -569 0
28 -179 317 0
-63 -116 328 0
281 393 588 0
352 -424 -564 0
11 170 -583 0
105 -165 287 0
-246 -266 514 0
216 -238 457 0
153 -243 -425 0
93 482 -485 0
152 -248 510 0
-222 315 -391 0
344 -416 558 0
96 -105 321 0
-127 430 485 0
-443 493 584 0
320 362 392 0
-198 -357 498 0
203 -363 -559 0
-203 209 -471 0
115 -166 -496 0
31 -129 -533 0
-176 493 -566 0
-234 -244 280 0
142 -301 -523 0
-110 317 523 0
231 -430 528 0
-193 -328 443 0
-56 -110 133 0
21 412 543 0
-8 70 406 0
509 -540 583 0
98 -168 -235 0
120 -371 426 0
124 178 243 0
130 156 518 0
51 282 -337 0
-218 -497 571 0
-245 -348 523 0
-293 -397 485 0
74 376 538 0
-112 257 411 0
146 -246 509 0
225 269 -460 0
12 -226 -294 0
137 -200 445 0
-71 215 319 0
114 557 -573 0
479 -504 523 0
191 -508 -566 0
-81 -190 569 0
-49 -186 301 0
2 -144 198 0
-11 197 487 0
-125 -296 -561 0
344 -487 503 0
154 -328 -461 0
76 250 -591 0
-230 264 439 0
-401 -508 516 0
-260 275 -560 0
267 279 -355 0
167 -255 -273 0
-24 -152 -216 0
-10 -58 -444 0
30 386 -436 0
12 209 -382 0
190 362 -540 0
140 -299 456 0
215 -229 -422 0
-380 500 -585 0
-191 -309 -555 0
-1 38 -418 0
74 -146 -301 0
-173 -317 449 0
-15 482 526 0
-54 -69 424 0
-472 -505 -579 0
235 244 -312 0
153 425 432 0
-241 259 -318 0
126 -206 -307 0
-106 -137 343 0
86 -477 486 0
41 -215 -600 0
-125 -435 595 0
252 355 -369 0
580 -586 600 0
-107 -119 375 0
187 -219 289 0
17 -175 -437 0
-303 359 -478 0
-133 261 -412 0
-175 -206 -432 0
-193 -460 -499 0
-25 -449 -580 0
319 -398 -469 0
-167 180 477 0
222 -235 -349 0
461 -471 553 0
220 397 533 0
-352 371 -412 0
223 -296 -317 0
140 303 -380 0
-17 137 546 0
-332 -363 550 0
-350 -414 -537 0
-138 257 569 0
-75 237 301 0
323 405 -452 0
-255 -274 -315 0
-309 -488 591 0
13 46 471 0
86 105 -351 0
101 -210 316 0
-291 338 -370 0
214 322 527 0
-81 99 -144 0
-131 -183 -328 0
109 392 -442 0
-99 329 589 0
-146 183 593 0
121 -248 -287 0
-384 405 479 0
-322 355 -459 0
118 -120 -473 0
29 496 500 0
62 385 -464 0
-86 -139 405 0
-215 333 -423 0
57 368 432 0
-33 326 522 0
16 154 -580 0
-162 -190 416 0
245 288 -574 0
15 106 -368 0
-13 175 292 0
-77 -162 -468 0
173 -361 555 0
-70 286 -398 0
-61 -386 -549 0
-78 123 461 0
34 358 476 0
-438 -452 -547 0
116 -125 150 0
277 -337 558 0
-37 -109 -143 0
-26 165 245 0
-68 144 -575 0
98 143 -279 0
-477 -495 511 0
-15 135 236 0
274 426 -492 0
-202 -444 477 0
-201 -267 491 0
-19 86 -231 0
-119 182 306 0
119 -232 426 0
-169 465 -468 0
-148 366 543 0
-338 -341 -525 0
132 512 -570 0
-152 -410 448 0
-42 367 -533 0
-230 -482 508 0
-179 -401 -434 0
115 282 405 0
335 552 562 0
-36 -387 591 0
-275 -277 -578 0
158 -470 586 0
314 428 -538 0
87 -257 -323 0
-39 357 516 0
49 -308 -454 0
109 277 -541 0
309 493 -573 0
34 329 508 0
-49 465 554 0
198 -390 -427 0
181 186 -293 0
-197 259 -468 0
-143 339 -547 0
-136 -288 366 0
152 227 292 0
158 -247 -540 0
35 100 348 0
-91 383 575 0
69 -303 -534 0
381 -397 -412 0
207 -341 -587 0
-35 406 584 0
-207 540 568 0
-136 -204 -444 0
87 -97 277 0
69 289 -447 0
145 -369 473 0
98 245 -274 0
-246 -339 -360 0
63 123 497 0
102 -232 -262 0
31 455 477 0
60 184 342 0
3 -72 -197 0
54 89 -241 0
-190 -343 391 0
-69 74 260 0
240 -455 490 0
380 -489 -569 0
-38 -250 487 0
-349 458 -571 0
11 15 421 0
-3 -146 558 0
-291 -415 -456 0
-250 -255 -327 0
205 237 412 0
151 -382 474 0
81 264 -296 0
49 -372 -497 0
21 -105 -578 0
152 184 -403 0
-230 501 592 0
257 561 -565 0
-316 354 -392 0
-129 169 333 0
-9 166 -177 0
307 317 402 0
-16 -262 -288 0
42 219 220 0
509 550 -562 0
51 -129 272 0
61 97 243 0
-163 -271 547 0
54 -127 -554 0
218 -475 576 0
349 -366 -509 0
-52 -539 -591 0
173 235 465 0
30 159 -359 0
-10 424 567 0
241 -291 413 0
197 -556 -575 0
89 -422 -552 0
107 186 -277 0
-273 -310 446 0
-209 337 -409 0
280 -318 514 0
188 -201 485 0
-38 430 -469 0
-123 337 458 0
-47 384 -452 0
25 -295 445 0
-134 -336 -512 0
-105 128 -406 0
-291 480 564 0
239 -249 -516 0
-28 235 -557 0
94 192 470 0
-49 80 173 0
-99 162 243 0
260 339 569 0
-246 -473 -474 0
-143 282 -587 0
-183 -221 -252 0
199 -284 -404 0
-110 -199 -213 0
-272 -399 -586 0
-273 -377 389 0
4 103 435 0
42 -397 -569 0
107 -253 -271 0
261 -262 468 0
-123 383 432 0
-148 -362 409 0
-278 -310 325 0
437 527 -586 0
-139 -169 382 0
-382 533 544 0
148 -280 -414 0
-102 207 355 0
243 293 335 0
256 389 -537 0
114 147 -161 0
-251 -296 -374 0
-63 121 171 0
-32 169 270 0
-342 345 572 0
-19 -221 393 0
319 -365 -448 0
5 232 -508 0
61 -438 484 0
-35 254 -440 0
-320 347 -481 0
-10 71 237 0
-12 506 549 0
-115 -137 582 0
141 -240 589 0
35 -86 -414 0
-362 491 595 0
-136 -354 480 0
-2 -101 456 0
-119 -232 -255 0
-187 -199 408 0
-23 89 -428 0
-259 -455 539 0
123 -135 -465 0
67 131 407 0
113 -326 -492 0
-109 -455 542 0
-267 -530 587 0
151 -152 421 0
-59 86 257 0
