c Phase 3 random 3-SAT negative control
c seed=31042
c ratio=4.26
c variant=planted_sat
c expected=SATISFIABLE
p cnf 600 2556
-75 371 -585 0
50 193 -363 0
16 -229 -480 0
-178 496 -531 0
257 -390 -470 0
-86 492 591 0
503 -529 536 0
-59 -117 -397 0
99 449 -560 0
99 -115 -570 0
274 -332 -559 0
-99 -395 568 0
106 -513 -539 0
-130 169 236 0
191 -202 434 0
69 -268 -356 0
-318 333 -471 0
216 390 -562 0
-29 -390 500 0
-33 80 487 0
-23 -144 519 0
-398 403 439 0
-24 103 237 0
64 324 -585 0
-411 540 558 0
-231 -500 572 0
157 -223 -295 0
55 351 -395 0
40 -85 -344 0
-209 478 -570 0
-90 134 -237 0
-95 -112 481 0
-291 297 597 0
-411 477 -593 0
-217 -314 496 0
-177 -399 -488 0
158 -343 452 0
448 -506 -577 0
-357 -388 559 0
-162 392 421 0
-99 459 -528 0
150 397 483 0
-500 534 -564 0
-134 330 336 0
255 -261 322 0
-83 88 341 0
-315 -429 557 0
72 -224 368 0
311 -444 510 0
72 251 589 0
29 -281 478 0
-14 135 -294 0
304 -407 -596 0
-5 -28 -519 0
-263 -393 -424 0
35 -254 -268 0
-221 254 -531 0
304 -371 -545 0
-370 461 -552 0
-60 168 -271 0
-180 -303 469 0
488 516 570 0
-233 -278 -447 0
-19 234 -274 0
235 253 391 0
-51 65 -414 0
-13 23 588 0
-19 -469 -486 0
37 42 206 0
43 -79 258 0
-82 380 527 0
215 -315 520 0
-489 -512 518 0
-66 310 -490 0
103 -198 534 0
263 307 320 0
-256 269 -410 0
76 311 479 0
-196 364 465 0
157 -483 -520 0
-155 -416 434 0
-32 -101 -523 0
-379 568 583 0
-74 -421 -527 0
-23 79 161 0
129 -176 471 0
-6 435 -523 0
27 -292 377 0
-123 -473 -580 0
260 265 542 0
-255 -499 -569 0
139 406 527 0
-108 231 449 0
11 359 477 0
-31 94 -203 0
-56 167 572 0
-373 -468 572 0
-38 130 155 0
-128 244 -512 0
-144 209 520 0
99 241 -537 0
433 447 -574 0
148 -208 257 0
146 -249 -272 0
137 -243 249 0
43 -346 -536 0
102 -197 428 0
-240 -358 -575 0
36 -355 -599 0
-307 -394 428 0
70 -125 182 0
-318 -542 555 0
5 -495 -574 0
-3 208 212 0
-307 407 414 0
-80 289 -576 0
26 93 -345 0
22 -263 -405 0
-4 -244 520 0
81 -172 251 0
168 -250 -492 0
-67 -473 504 0
-116 253 513 0
-106 261 -587 0
-29 248 557 0
186 -334 -411 0
103 -311 437 0
38 -201 443 0
150 315 436 0
191 202 323 0
-46 -520 -583 0
-111 -357 360 0
-461 -476 540 0
52 -241 260 0
-18 -207 -314 0
281 -346 353 0
180 -272 496 0
-92 112 -357 0
57 -290 566 0
-56 -347 -548 0
12 -225 -532 0
84 -342 344 0
2 81 477 0
-16 -278 514 0
-295 -351 -556 0
-269 -420 -425 0
384 471 557 0
-284 406 -425 0
-104 427 -574 0
87 -499 513 0
66 106 -161 0
-83 244 518 0
30 35 -70 0
73 -111 -472 0
-35 -124 -440 0
114 -331 -516 0
-122 390 571 0
44 -150 -240 0
-241 307 497 0
-293 -393 597 0
204 220 -304 0
-258 -392 -425 0
-182 484 -503 0
-179 -489 -578 0
-506 -542 558 0
-266 292 -470 0
-392 -488 520 0
-39 186 -550 0
103 191 -242 0
-102 -306 448 0
448 -475 -582 0
70 428 -569 0
-304 -412 -525 0
-88 375 411 0
-135 -311 -587 0
-60 229 279 0
62 537 -566 0
99 135 -556 0
188 255 306 0
-203 -442 -506 0
303 329 -402 0
-75 284 394 0
-22 -266 -388 0
420 -486 -592 0
-32 -67 -479 0
-108 -201 487 0
-4 -5 508 0
-26 171 286 0
-300 -423 -468 0
-199 216 -227 0
-19 396 -591 0
-60 -323 -560 0
-46 413 540 0
-149 182 -376 0
-222 -270 368 0
-137 312 -543 0
-125 266 553 0
34 51 355 0
-157 -222 515 0
-236 -355 -418 0
356 -409 -593 0
-76 -164 551 0
274 -297 -332 0
42 -72 -251 0
86 -374 501 0
-204 294 -594 0
61 -229 364 0
-53 -86 321 0
-131 176 521 0
-155 539 584 0
76 -329 406 0
-195 -301 349 0
42 -450 -453 0
-122 -169 -585 0
154 -293 -547 0
99 -211 397 0
-246 338 -425 0
48 265 277 0
98 353 -489 0
434 -449 -473 0
171 477 -563 0
-429 503 549 0
116 -581 591 0
-30 258 -396 0
6 442 519 0
-357 -477 550 0
188 -420 -567 0
-227 -231 -534 0
39 -60 -311 0
-12 304 586 0
-196 -293 422 0
-31 -127 -411 0
323 -441 522 0
-80 529 -555 0
93 343 507 0
-115 133 -383 0
-11 -342 -588 0
-98 -175 -210 0
-443 500 519 0
203 -532 541 0
-48 -463 -531 0
-75 124 390 0
-195 279 512 0
172 221 299 0
281 -413 -484 0
246 -390 449 0
290 -456 -532 0
-155 -181 591 0
-74 130 -569 0
1 -229 -366 0
234 -328 561 0
44 -250 -322 0
-101 521 -594 0
57 221 -525 0
-140 -506 514 0
-29 184 485 0
23 251 -487 0
97 -238 356 0
-188 313 465 0
-15 224 -596 0
129 -363 546 0
132 -216 -308 0
61 470 -565 0
-113 -253 441 0
66 -580 -590 0
-39 -65 355 0
-213 -326 562 0
256 480 -484 0
82 215 240 0
83 461 489 0
-62 382 -448 0
-211 -334 392 0
-3 -152 242 0
-34 111 273 0
9 135 171 0
113 126 -454 0
-139 -172 435 0
-97 201 392 0
359 407 470 0
67 344 -498 0
-99 -428 -494 0
-4 160 -525 0
-11 -59 155 0
-119 -222 -384 0
-36 71 595 0
38 47 -270 0
-51 402 465 0
-316 -422 -544 0
45 236 -267 0
-117 153 -573 0
124 172 181 0
207 279 558 0
-134 -168 547 0
-6 -259 -302 0
112 199 -456 0
-51 -130 434 0
74 -312 358 0
58 -96 596 0
-14 45 406 0
17 200 436 0
-84 -152 291 0
-198 -433 549 0
91 -112 -296 0
6 -378 -412 0
-73 -259 302 0
112 -252 544 0
-245 455 459 0
40 -246 -524 0
320 -524 -565 0
104 206 -394 0
159 -566 -593 0
52 145 -518 0
299 -559 596 0
30 301 422 0
121 -169 239 0
120 -321 500 0
125 177 340 0
307 551 592 0
180 -509 -529 0
-112 335 -557 0
92 -345 -518 0
-289 -451 545 0
140 -242 413 0
-87 -201 -511 0
73 77 -223 0
228 -356 426 0
57 -190 -202 0
61 301 459 0
-121 267 -336 0
-11 29 -190 0
-163 325 511 0
-53 355 -580 0
113 -180 557 0
-22 112 -337 0
201 -403 484 0
-15 389 -515 0
-2 -212 -499 0
-57 -63 -69 0
11 292 363 0
-350 -370 524 0
56 -177 -202 0
-64 -282 437 0
85 137 -535 0
173 -358 535 0
-93 271 546 0
-153 -163 546 0
-232 454 -534 0
34 334 499 0
-128 462 503 0
309 342 -573 0
-177 -250 382 0
-81 82 -89 0
21 -301 -479 0
-103 -171 181 0
-107 108 223 0
-354 517 -533 0
29 214 411 0
206 -226 328 0
-8 127 -470 0
-56 116 -286 0
-359 -368 -403 0
280 -325 327 0
-424 -529 563 0
-53 -247 394 0
55 -240 495 0
80 -131 -520 0
-12 -49 51 0
-397 -418 -581 0
247 -277 423 0
-12 171 365 0
-219 284 -527 0
-52 -164 502 0
50 -411 547 0
-40 181 362 0
-164 -533 -539 0
354 532 543 0
173 411 -467 0
62 -200 246 0
-72 -240 -407 0
-157 -233 403 0
-17 311 499 0
-516 520 583 0
-248 496 -584 0
58 -252 -576 0
-346 432 519 0
238 527 -557 0
308 -402 519 0
24 184 -475 0
-223 -282 -510 0
312 423 440 0
7 -117 493 0
-89 -143 -258 0
-439 -508 520 0
120 194 578 0
-172 -363 -583 0
-205 390 427 0
242 -244 -524 0
-47 -126 -223 0
273 -519 542 0
39 74 558 0
-120 -272 388 0
53 -64 -396 0
141 -154 -566 0
222 -281 422 0
292 -482 563 0
-33 136 -500 0
-67 -203 230 0
-438 523 598 0
-39 -343 516 0
-305 347 349 0
278 512 -540 0
-308 536 -592 0
-128 145 -335 0
25 -437 483 0
-421 482 497 0
-253 371 540 0
-356 377 505 0
59 -300 -379 0
-177 -397 -552 0
-270 -429 432 0
-199 241 243 0
-107 322 391 0
42 242 -393 0
-266 -428 494 0
-22 -280 -400 0
232 -494 527 0
94 340 550 0
146 376 562 0
536 565 583 0
322 542 589 0
-5 -103 -203 0
45 156 350 0
171 245 311 0
205 -343 -368 0
105 -410 -488 0
83 433 592 0
-61 313 572 0
-12 165 -252 0
-69 -415 -582 0
-249 383 -590 0
-140 -254 444 0
72 458 -465 0
77 123 -248 0
107 202 418 0
56 -260 -592 0
102 -162 391 0
-87 141 496 0
-379 -396 524 0
30 -278 -413 0
119 296 -554 0
56 -91 581 0
-58 -288 434 0
-46 133 -460 0
-107 -124 316 0
-46 -59 297 0
-268 378 -481 0
16 -87 -206 0
42 68 -261 0
157 -338 -477 0
-74 399 524 0
-212 -528 573 0
79 -176 360 0
-366 486 495 0
49 -52 466 0
-230 -439 -554 0
59 -62 -514 0
39 -82 -115 0
297 -367 586 0
-210 -249 -578 0
275 -375 -438 0
537 -543 -595 0
148 -293 577 0
18 -383 558 0
-74 -216 491 0
-87 308 -596 0
171 183 287 0
-332 374 491 0
102 209 -221 0
270 390 466 0
-39 -194 562 0
-243 -332 -514 0
167 -195 -215 0
-343 369 531 0
-142 -308 362 0
26 138 -556 0
24 -63 -144 0
-290 -351 392 0
-62 -430 -445 0
336 -360 579 0
-78 367 -437 0
492 546 -584 0
-2 260 -346 0
50 62 -586 0
-35 146 -192 0
59 137 420 0
87 328 345 0
25 -70 -233 0
-139 209 267 0
359 -360 -447 0
129 -229 -554 0
62 287 -583 0
86 -392 470 0
-27 -369 492 0
148 477 538 0
292 -370 -498 0
-46 80 -569 0
-135 -360 433 0
-115 499 534 0
111 361 460 0
35 -55 -128 0
-370 -527 534 0
-197 522 537 0
-134 -191 532 0
-180 -423 447 0
15 -137 330 0
-223 -404 505 0
324 -369 -577 0
158 287 362 0
67 127 365 0
-42 177 -341 0
295 546 588 0
132 -194 568 0
-155 -225 -453 0
104 127 -268 0
259 445 -491 0
-86 489 503 0
-125 -207 540 0
221 -270 -374 0
96 -299 583 0
15 193 -419 0
-30 228 -477 0
-207 -319 -342 0
-77 81 -238 0
-99 557 566 0
-13 -43 -55 0
-172 553 -589 0
404 527 -575 0
-158 -475 495 0
334 447 -456 0
42 -159 164 0
43 151 -264 0
56 107 426 0
87 -146 -213 0
482 -512 513 0
29 134 283 0
-327 360 421 0
4 337 -456 0
-396 -554 -580 0
-198 211 -481 0
-43 -329 -407 0
303 413 -473 0
49 -294 307 0
175 -256 -260 0
84 -150 324 0
117 366 -472 0
136 412 597 0
-69 -481 -583 0
142 371 440 0
99 105 -315 0
-57 274 424 0
-174 420 -592 0
280 -314 463 0
-18 -203 430 0
-223 -445 -451 0
-277 -340 -403 0
13 148 292 0
-158 -401 -509 0
-332 -386 -537 0
-401 453 -577 0
-56 -378 447 0
82 289 468 0
-109 -257 -461 0
-342 -348 370 0
-117 299 -328 0
-36 -468 -519 0
67 146 -489 0
75 -117 -224 0
-62 132 -152 0
25 207 394 0
-18 -154 -482 0
-30 -87 511 0
-269 -427 -566 0
-123 -248 358 0
-92 -407 -596 0
223 533 539 0
-333 -476 -586 0
96 -196 319 0
-413 -458 -584 0
-4 -337 533 0
339 467 -580 0
88 172 -373 0
-28 -125 580 0
350 404 -419 0
-20 -222 332 0
51 -101 -355 0
207 -281 414 0
141 -386 400 0
79 -270 317 0
-74 -427 570 0
-122 -280 -498 0
241 -333 -381 0
-63 -227 394 0
-86 326 -582 0
124 168 425 0
166 -460 -537 0
-66 467 515 0
-59 317 341 0
-285 -299 589 0
111 -251 -293 0
-19 90 311 0
216 244 436 0
34 -153 262 0
-264 -340 427 0
-214 -357 474 0
-339 350 -455 0
68 -340 577 0
69 -94 -205 0
248 -333 -385 0
-240 -255 315 0
-149 169 224 0
293 364 -401 0
-59 76 472 0
178 397 -501 0
-92 -260 572 0
-94 -326 -456 0
37 298 442 0
343 499 587 0
29 244 435 0
28 234 319 0
-225 528 -541 0
-26 139 338 0
21 314 -381 0
109 -289 -296 0
243 -421 424 0
87 -370 -567 0
-6 223 263 0
19 542 -582 0
-117 -383 558 0
-84 -152 -559 0
-274 406 -525 0
10 -38 419 0
47 -87 315 0
55 69 416 0
93 -317 -343 0
-185 -307 -372 0
-235 -320 -458 0
-76 -145 -234 0
51 319 494 0
138 -390 -499 0
319 -565 -595 0
5 45 597 0
159 -429 -597 0
140 516 -559 0
-89 222 -574 0
242 397 427 0
16 63 -356 0
76 206 472 0
1 -7 -314 0
88 -167 381 0
-124 -154 188 0
-494 573 578 0
278 285 -519 0
-204 -427 590 0
107 -208 372 0
42 114 -137 0
-389 395 -567 0
-167 430 -505 0
200 -222 -547 0
30 157 529 0
-65 -340 -426 0
54 166 -446 0
-195 294 431 0
262 -345 -532 0
-358 386 538 0
91 -158 -244 0
47 446 488 0
-148 -439 -482 0
-435 -513 546 0
-439 -483 556 0
-33 357 -507 0
98 223 580 0
123 -312 -464 0
59 281 297 0
27 -114 464 0
-48 196 412 0
-267 272 467 0
-182 -471 500 0
-211 219 -514 0
264 -448 572 0
11 353 532 0
299 -424 -571 0
173 561 592 0
496 542 598 0
-42 -133 -283 0
96 -201 457 0
-119 334 -416 0
-120 330 599 0
-109 -311 450 0
115 231 -280 0
-160 -163 526 0
56 445 553 0
-47 162 -199 0
109 -401 456 0
-47 118 -254 0
-117 -489 590 0
45 271 576 0
75 232 562 0
-174 288 359 0
-263 412 -522 0
-72 -93 436 0
-4 -39 567 0
-143 -210 -404 0
-235 508 594 0
-196 -208 -548 0
29 361 389 0
-24 -85 264 0
128 -162 587 0
130 466 515 0
30 -224 585 0
57 -121 -525 0
-208 243 -535 0
-447 488 581 0
-448 -494 -545 0
-221 421 543 0
136 344 -415 0
311 355 -375 0
-92 -267 -500 0
-167 290 -390 0
-300 515 580 0
-98 -200 366 0
-357 461 486 0
-19 242 316 0
-103 342 -476 0
-31 -47 346 0
84 254 -496 0
-10 306 -468 0
-132 -458 577 0
-32 -316 452 0
-16 -91 531 0
414 -528 541 0
142 -358 573 0
-310 416 465 0
-316 -504 -599 0
-208 -288 -458 0
13 -59 326 0
277 382 488 0
-36 -227 318 0
177 569 584 0
-91 246 343 0
207 220 -370 0
28 545 552 0
206 -207 -279 0
47 480 536 0
5 97 -440 0
-113 192 -396 0
-7 118 -486 0
-143 211 359 0
-74 502 544 0
214 233 261 0
7 -64 102 0
-27 244 -262 0
107 -185 489 0
233 320 582 0
-188 356 -434 0
303 403 -501 0
-83 84 -393 0
46 146 392 0
-53 -270 -377 0
-28 -165 528 0
-50 514 594 0
-398 539 -594 0
-163 312 -414 0
-129 187 -484 0
156 -375 -510 0
278 -447 595 0
-17 378 398 0
-123 339 497 0
22 221 490 0
42 -397 409 0
-11 -501 531 0
-8 -423 443 0
51 223 429 0
-155 -205 -512 0
63 96 -127 0
-83 464 540 0
125 197 -278 0
-35 -66 388 0
282 412 525 0
-31 -46 86 0
246 -257 426 0
-108 -141 -409 0
66 -215 495 0
66 163 -403 0
252 -277 417 0
92 -180 -522 0
-20 233 -374 0
194 -200 297 0
96 207 -362 0
-71 133 -386 0
-37 -211 -478 0
212 279 -398 0
78 153 533 0
199 491 544 0
547 -571 582 0
-179 282 -584 0
168 -181 363 0
157 -386 439 0
478 -494 -586 0
449 -483 -487 0
96 199 -431 0
272 374 -595 0
139 250 -273 0
-85 -296 -598 0
10 -33 -142 0
-297 -310 -335 0
-118 125 362 0
204 -301 -531 0
-48 -230 413 0
-271 -343 437 0
25 -545 -568 0
13 204 -485 0
-108 182 -426 0
-86 -152 364 0
-68 -507 -589 0
395 -451 -527 0
-86 -377 570 0
20 89 -91 0
-529 -580 593 0
-261 376 -442 0
65 199 -338 0
300 408 531 0
-226 257 -351 0
56 -424 -447 0
-112 187 442 0
-110 115 397 0
228 -490 -496 0
-131 202 -561 0
-14 361 491 0
347 -452 -533 0
-125 -186 547 0
212 -391 -521 0
217 -368 -459 0
102 331 497 0
12 36 43 0
289 470 -516 0
114 -266 328 0
-298 324 -332 0
67 -488 530 0
-78 -144 298 0
100 -412 567 0
148 223 -248 0
59 145 315 0
354 -402 -498 0
-33 191 451 0
-229 274 348 0
-426 435 454 0
157 473 548 0
-176 267 -442 0
-139 -339 590 0
-105 -321 400 0
-425 481 -565 0
-139 446 518 0
-27 184 238 0
-10 -203 -367 0
21 349 352 0
21 -231 -438 0
-152 -547 564 0
-135 264 -282 0
84 294 497 0
-144 311 580 0
112 115 361 0
79 154 -401 0
-235 -263 -419 0
-447 -451 560 0
-29 98 590 0
-140 147 579 0
-54 -457 -523 0
-78 395 428 0
538 547 -595 0
-218 312 543 0
-187 -310 -584 0
-5 436 571 0
69 285 371 0
67 -475 531 0
56 324 405 0
-165 -513 528 0
86 206 -346 0
-283 371 -517 0
-216 388 507 0
-30 -396 442 0
-1 298 470 0
339 -479 495 0
-59 225 -503 0
-252 -469 491 0
-155 -273 530 0
-105 319 517 0
-158 -241 329 0
39 -508 580 0
-29 96 -207 0
73 -138 287 0
1 296 -557 0
-339 399 489 0
-269 -337 599 0
67 321 467 0
-84 -404 -586 0
-389 471 -583 0
143 -469 -513 0
131 -355 -439 0
-147 -219 -392 0
-7 -113 -117 0
-169 -313 -329 0
257 261 -483 0
373 395 -505 0
181 -450 574 0
8 188 -416 0
21 -24 432 0
-169 227 -575 0
-78 564 592 0
-4 299 533 0
-152 323 -436 0
-56 477 558 0
-260 -340 344 0
-223 -391 559 0
-149 -351 -370 0
233 274 497 0
111 -271 -279 0
38 -348 -479 0
185 -505 -546 0
251 -562 -572 0
-349 -502 570 0
-214 -333 430 0
101 481 -533 0
92 -216 -445 0
-257 390 -538 0
-28 -409 -600 0
-136 -275 -420 0
290 -299 575 0
-147 -159 -475 0
209 343 -587 0
-206 252 -357 0
139 252 576 0
117 187 -583 0
40 -56 545 0
21 -225 -485 0
-24 391 -491 0
34 -91 -499 0
36 -178 -424 0
-13 174 492 0
-29 57 499 0
-51 234 -478 0
63 230 -231 0
115 -117 367 0
-29 198 -384 0
69 -346 411 0
-264 319 -492 0
-177 331 -365 0
135 184 -292 0
266 527 589 0
11 272 -295 0
40 413 -534 0
127 -243 297 0
7 30 94 0
-20 -253 441 0
-19 -344 -384 0
157 -565 592 0
49 266 356 0
122 -492 -507 0
-321 -322 376 0
-338 -362 487 0
122 126 -149 0
226 353 -519 0
31 -431 -441 0
-275 323 -363 0
-38 171 223 0
97 -122 449 0
78 130 459 0
-63 -134 316 0
-58 128 -206 0
32 -330 399 0
-58 -386 -505 0
90 94 167 0
-189 229 -234 0
-162 -329 -386 0
-168 570 -589 0
231 -379 -517 0
-10 197 -250 0
12 -316 462 0
169 -503 504 0
-120 -276 -449 0
-207 235 -552 0
-171 226 232 0
-345 358 -590 0
-151 215 232 0
490 495 -554 0
286 487 -513 0
47 -75 148 0
-399 -418 475 0
-43 -328 422 0
-74 -124 320 0
26 58 -364 0
257 291 -507 0
217 337 523 0
286 -465 -559 0
-131 -313 572 0
74 379 420 0
-27 89 433 0
-110 -478 -530 0
-104 124 170 0
75 -243 -516 0
205 -328 -590 0
134 -358 -470 0
-131 266 466 0
11 -162 517 0
140 238 -325 0
-62 258 558 0
392 483 -550 0
-33 -252 403 0
-282 -376 -438 0
-235 -348 509 0
75 -237 -412 0
483 -548 -564 0
294 594 -599 0
295 -391 475 0
84 -388 597 0
-62 148 462 0
-135 -157 500 0
-254 -267 -271 0
14 100 -421 0
177 -356 570 0
-4 -58 -171 0
159 495 511 0
306 -370 -432 0
-397 468 509 0
-206 365 406 0
242 247 -592 0
81 138 534 0
125 283 -433 0
-99 235 338 0
-98 184 421 0
142 157 222 0
106 225 398 0
39 -376 -525 0
178 -179 259 0
-281 377 -394 0
127 414 546 0
2 -341 395 0
-196 354 -546 0
87 485 -500 0
-72 -456 542 0
88 153 -413 0
264 283 -360 0
-321 -418 -454 0
-174 -300 402 0
-36 -219 -367 0
-81 530 -563 0
-43 68 -126 0
23 -181 406 0
-31 -508 522 0
-122 -258 -573 0
321 336 -422 0
-280 393 476 0
111 510 594 0
116 204 -243 0
-298 -470 550 0
92 -442 589 0
-53 -525 596 0
-163 302 317 0
-69 -132 -153 0
-33 -144 528 0
31 -514 594 0
-49 126 379 0
-26 -227 290 0
16 416 -485 0
67 -149 277 0
68 591 596 0
-29 393 -524 0
89 502 541 0
-323 562 -573 0
-6 296 351 0
-164 -203 568 0
-16 394 397 0
-136 -191 430 0
-54 -87 -334 0
-29 -185 285 0
-326 410 510 0
231 435 -558 0
438 465 552 0
165 -403 -585 0
-149 -366 -473 0
5 -175 478 0
-121 342 430 0
-23 177 192 0
-7 324 -433 0
-283 -323 -598 0
162 328 -456 0
-293 -501 -549 0
419 -493 -531 0
22 -165 371 0
184 200 580 0
-32 -48 452 0
-170 261 502 0
23 -194 198 0
185 -251 -420 0
397 427 585 0
81 261 429 0
-38 190 208 0
29 217 376 0
-214 -327 564 0
-58 -411 -475 0
20 -93 -329 0
-85 -384 -413 0
-56 96 272 0
46 -285 -469 0
46 -196 253 0
257 -387 -479 0
105 295 -328 0
159 -305 -551 0
-207 -358 361 0
133 -198 204 0
-50 -102 -333 0
126 -156 -513 0
45 -356 -540 0
-5 -355 461 0
-99 128 -502 0
411 -457 -478 0
37 -105 -328 0
-198 -486 549 0
130 -475 -508 0
230 244 -314 0
245 370 -560 0
27 -304 341 0
-180 -248 598 0
105 -482 582 0
-10 96 375 0
135 353 418 0
52 317 -491 0
-29 -360 466 0
-401 -487 -501 0
-285 313 516 0
127 219 -491 0
71 308 -591 0
12 -270 593 0
-233 -441 534 0
-244 251 445 0
87 -359 -496 0
-8 9 -55 0
226 296 -593 0
335 347 387 0
-245 -504 -594 0
413 415 -548 0
268 -306 422 0
-380 -573 -597 0
-122 -232 370 0
-65 -167 -365 0
179 264 545 0
-192 -452 568 0
93 201 340 0
-139 -285 474 0
-174 -315 407 0
-320 -347 527 0
52 257 581 0
173 -399 524 0
-260 545 582 0
-32 338 464 0
11 299 521 0
-312 482 -519 0
-30 230 445 0
118 154 -537 0
93 135 153 0
-97 -146 -502 0
388 393 -462 0
-53 -91 -370 0
123 -208 245 0
-92 318 490 0
311 -447 -566 0
-115 -399 557 0
197 245 -448 0
117 -242 -281 0
207 337 -444 0
197 385 484 0
63 417 -502 0
1 -63 -430 0
88 210 471 0
-190 -444 -484 0
-131 -381 -580 0
270 -427 -504 0
188 -260 410 0
61 -565 -599 0
-189 -501 -512 0
-46 48 -528 0
-315 384 -388 0
75 210 -334 0
178 301 -476 0
58 -189 355 0
-240 272 394 0
-42 -70 474 0
445 -447 -559 0
351 -412 -474 0
74 192 -322 0
68 214 -530 0
201 207 326 0
290 -330 598 0
178 347 562 0
52 260 583 0
-43 -418 564 0
-78 -164 -550 0
86 421 -509 0
79 -85 -172 0
-32 -362 531 0
-233 397 -487 0
144 185 -309 0
173 339 472 0
-58 -108 369 0
138 -375 -413 0
34 -265 414 0
3 15 -458 0
-300 -372 -484 0
-418 460 -526 0
130 378 575 0
-161 421 -467 0
-273 410 554 0
-179 254 515 0
4 -142 563 0
-22 153 430 0
-140 363 411 0
8 78 496 0
-10 -316 516 0
245 403 555 0
-37 174 518 0
107 -126 -232 0
159 -331 -474 0
-328 557 568 0
-122 233 557 0
4 146 -226 0
64 -78 -149 0
-149 -456 555 0
347 -425 513 0
65 -217 -509 0
171 -277 361 0
237 534 -545 0
107 121 -302 0
248 486 -590 0
64 98 158 0
128 -207 459 0
555 -591 595 0
-239 386 513 0
48 458 -505 0
159 227 516 0
-387 -440 467 0
352 -440 558 0
101 -172 253 0
327 333 405 0
146 -319 356 0
-126 362 -486 0
385 -511 571 0
368 -401 514 0
-118 190 -234 0
-19 -240 -400 0
-30 269 585 0
119 402 -438 0
192 -384 451 0
281 349 452 0
271 464 -578 0
212 406 528 0
-420 -578 -579 0
-4 358 501 0
52 332 -448 0
-84 339 587 0
7 -213 538 0
397 -453 -589 0
72 -228 -600 0
304 -394 583 0
-19 446 -546 0
63 230 -242 0
244 440 -574 0
-218 497 -532 0
-408 -523 -525 0
-32 -243 -437 0
32 -170 543 0
28 426 -578 0
-237 285 -539 0
62 -132 388 0
-59 -496 598 0
178 231 -383 0
15 -310 -437 0
-87 369 -373 0
-180 379 463 0
360 367 431 0
153 307 374 0
-35 569 -571 0
-102 349 -447 0
217 404 -536 0
254 414 -545 0
-17 363 -456 0
51 -364 417 0
-21 -136 250 0
-165 186 -578 0
-382 -539 -569 0
96 -357 372 0
355 -373 539 0
-242 293 401 0
-386 454 -462 0
-116 227 500 0
-116 -124 211 0
-143 -192 -432 0
-69 495 524 0
86 244 -345 0
-83 -104 245 0
-135 -335 449 0
-35 119 295 0
29 408 571 0
-200 -300 326 0
-88 -365 -411 0
-86 276 422 0
-42 104 464 0
-80 -287 -591 0
60 -167 310 0
281 480 -505 0
-144 252 284 0
-394 -477 575 0
-174 504 538 0
-18 -368 -425 0
263 517 591 0
-9 -318 356 0
-66 216 362 0
153 -477 -553 0
-318 355 420 0
-265 -317 438 0
27 -29 -417 0
-202 551 587 0
-247 308 -530 0
-123 -430 515 0
270 -302 -502 0
173 217 448 0
-66 457 -578 0
210 -553 577 0
87 127 -396 0
-86 -303 592 0
-244 307 373 0
-313 450 528 0
-303 -314 353 0
131 -192 312 0
47 323 375 0
-476 -522 -576 0
-70 296 462 0
72 -535 -588 0
237 399 -490 0
374 503 -581 0
-69 -394 -416 0
-47 -238 385 0
117 -440 -444 0
43 -357 550 0
-166 287 334 0
110 256 324 0
214 -229 -593 0
108 -538 -600 0
18 -435 539 0
-292 -326 -415 0
-121 -243 446 0
19 -107 301 0
-98 -417 496 0
69 -201 596 0
251 424 -507 0
-246 -259 577 0
-276 512 544 0
-91 169 -245 0
376 -558 -571 0
-90 -164 -495 0
283 487 587 0
309 -359 385 0
-190 294 425 0
-7 -158 -323 0
223 426 -457 0
-27 186 -533 0
64 170 -567 0
180 426 -583 0
118 -246 545 0
-67 157 572 0
-147 -433 481 0
102 223 -235 0
39 -387 519 0
313 359 -370 0
207 -448 574 0
-226 524 578 0
-39 355 433 0
226 350 455 0
-8 -59 552 0
123 420 447 0
-54 267 -517 0
23 -41 -413 0
343 -502 596 0
190 360 -551 0
2 171 -362 0
-153 238 309 0
-55 148 519 0
155 -533 -588 0
-103 211 291 0
-14 73 -389 0
140 512 -580 0
149 -297 -334 0
149 -166 419 0
343 -433 -505 0
160 -324 373 0
333 358 -542 0
47 63 -406 0
-82 -426 -491 0
18 250 269 0
-3 103 480 0
-48 106 -541 0
-179 293 -409 0
-183 508 554 0
-12 220 481 0
-112 -458 -536 0
157 253 -499 0
78 253 433 0
-48 212 341 0
-107 -196 -556 0
-34 -538 559 0
-132 -211 -477 0
193 241 -349 0
-166 -214 -512 0
319 464 -491 0
423 538 -556 0
62 348 -476 0
148 -306 538 0
103 312 -564 0
192 237 -590 0
129 371 477 0
-2 59 247 0
223 -291 -524 0
116 -196 514 0
-170 403 467 0
-217 -290 570 0
146 442 -454 0
145 -400 484 0
56 256 507 0
-398 -426 -573 0
-94 325 395 0
-98 510 -584 0
201 483 -533 0
-46 -93 575 0
-10 -489 579 0
100 413 -576 0
141 289 534 0
-118 -125 290 0
-157 -291 302 0
59 -333 -589 0
-48 -67 -448 0
178 191 538 0
-132 560 -568 0
-110 -431 453 0
6 -400 -541 0
-252 563 -594 0
-151 375 416 0
79 -178 -356 0
16 -211 272 0
-186 217 491 0
17 214 -565 0
-154 399 474 0
347 370 581 0
-173 213 -514 0
-12 -210 382 0
-340 461 506 0
67 -139 -157 0
204 294 -404 0
236 -498 -510 0
-2 -193 -204 0
-404 549 -577 0
-6 319 414 0
98 234 -270 0
86 285 -429 0
41 -114 297 0
105 137 -268 0
-29 54 -465 0
46 -159 388 0
-377 -470 -507 0
-250 298 -493 0
-56 -180 319 0
10 216 339 0
142 -360 -361 0
-3 208 -246 0
21 28 170 0
-74 500 -566 0
-23 506 579 0
-23 447 -450 0
-62 466 -514 0
-3 178 306 0
493 -546 -569 0
319 -351 -362 0
-111 -265 403 0
-144 -403 547 0
395 477 -483 0
3 -282 550 0
13 336 -484 0
-107 218 -283 0
79 226 427 0
-173 -296 344 0
97 -337 380 0
157 190 300 0
-112 -122 -175 0
-34 -68 377 0
-318 369 457 0
427 479 546 0
14 -177 -582 0
46 55 -431 0
-15 -358 549 0
-94 -238 -274 0
153 -291 -457 0
96 448 -521 0
-109 -178 -432 0
-9 -418 -576 0
-10 -419 -590 0
63 360 -421 0
-149 271 288 0
-334 -351 -387 0
59 130 -210 0
-333 336 490 0
-79 459 513 0
-228 392 -555 0
-256 -332 -372 0
1 318 505 0
-54 -354 -420 0
59 574 -579 0
-73 101 506 0
101 -266 -546 0
-4 -111 -275 0
-184 -234 320 0
318 319 -519 0
395 457 579 0
-34 -256 522 0
-258 -313 -590 0
-226 372 -419 0
-112 396 -598 0
505 538 596 0
127 -331 542 0
-59 -453 -492 0
-151 264 -304 0
165 -171 -380 0
-314 328 -380 0
26 177 -315 0
-306 -361 -495 0
-15 24 230 0
5 -36 -257 0
54 -230 341 0
-77 -165 362 0
-365 -369 -392 0
7 -137 -526 0
92 -477 -530 0
-71 -229 -424 0
104 -150 447 0
-61 130 357 0
218 300 -594 0
-394 -426 -485 0
-214 272 307 0
-48 -371 -396 0
-289 322 360 0
318 472 498 0
215 332 -567 0
96 205 326 0
348 360 561 0
-315 492 -586 0
-43 93 457 0
160 167 -348 0
33 -43 -483 0
-70 318 -451 0
-392 488 -530 0
-99 428 595 0
111 191 -247 0
175 -191 301 0
70 256 -544 0
-190 -574 -576 0
-276 -426 -516 0
333 -381 -417 0
-100 -121 -205 0
-107 149 -274 0
285 301 -503 0
-276 307 384 0
92 488 -561 0
-105 118 -226 0
-4 -292 -463 0
-341 -499 -576 0
-41 442 550 0
-171 206 566 0
-251 -485 -587 0
214 -476 -479 0
-129 208 -241 0
79 193 344 0
140 334 -344 0
-108 193 -342 0
197 199 -285 0
81 183 -500 0
179 419 568 0
-163 -263 -570 0
38 237 -297 0
284 536 -540 0
107 113 -396 0
210 274 -302 0
68 344 515 0
333 451 -458 0
72 -271 502 0
21 445 521 0
-152 287 565 0
219 411 -468 0
26 -459 540 0
-451 -460 -492 0
225 -266 -432 0
220 287 -501 0
-60 70 396 0
-99 -294 -573 0
-95 -111 587 0
-180 195 470 0
156 240 -264 0
-370 -452 563 0
45 -118 -343 0
462 583 589 0
-163 -294 568 0
122 328 -347 0
82 423 441 0
-52 143 -184 0
57 148 -583 0
-224 -346 -438 0
-227 -453 591 0
-54 -105 -291 0
-149 211 -496 0
-306 -483 538 0
186 -234 357 0
-5 -401 -403 0
192 -317 -358 0
330 -538 550 0
-116 -441 -507 0
315 335 -493 0
97 115 463 0
84 -299 -362 0
-31 -226 -507 0
-390 402 497 0
248 -323 -530 0
87 -292 -385 0
163 -224 521 0
54 -284 571 0
-137 -343 599 0
62 232 -234 0
-61 125 -381 0
-392 -517 -571 0
-80 -212 -292 0
-158 255 264 0
-218 -480 501 0
-341 459 564 0
-45 -571 -594 0
-21 -134 225 0
-53 -423 592 0
-160 -360 -577 0
16 -341 -433 0
271 370 573 0
132 -525 557 0
25 470 -581 0
-130 231 -386 0
272 371 372 0
-109 -284 -404 0
-25 162 -550 0
-62 -79 -266 0
-304 -375 595 0
221 -488 492 0
146 -349 -552 0
-82 167 227 0
-271 -357 381 0
368 -415 534 0
-179 -440 533 0
-85 -222 -574 0
85 505 562 0
-225 -230 339 0
-227 -266 -371 0
288 -312 420 0
63 -293 364 0
17 -31 450 0
7 -123 584 0
77 -349 -471 0
101 -163 -323 0
2 355 397 0
1 383 499 0
55 -95 -131 0
-24 276 471 0
145 -208 -358 0
-385 -461 -561 0
-129 133 -195 0
-24 187 -225 0
14 68 173 0
81 -104 -532 0
333 379 -502 0
79 -498 -499 0
85 -166 -316 0
39 301 -471 0
-230 -258 330 0
-134 236 452 0
-88 298 -558 0
-214 303 -419 0
-185 463 -573 0
235 -312 547 0
-122 169 -394 0
171 -309 471 0
123 150 540 0
255 274 314 0
-47 245 -355 0
-333 -364 -431 0
57 -109 232 0
-179 392 516 0
-202 -212 -231 0
275 -372 412 0
-147 417 -579 0
226 309 577 0
-124 -198 439 0
-280 -392 406 0
-167 406 -589 0
-504 519 578 0
-123 -369 -484 0
313 374 390 0
-428 -441 -573 0
-42 331 -544 0
50 148 -381 0
-11 41 -394 0
202 -424 -432 0
328 347 465 0
-109 158 421 0
135 217 224 0
14 -112 133 0
115 492 -550 0
13 49 189 0
-196 427 -465 0
-176 -221 -370 0
73 -175 306 0
166 280 -415 0
25 351 461 0
-68 -73 299 0
119 410 467 0
275 -320 379 0
-116 -193 431 0
-185 -223 -283 0
-238 414 504 0
111 -337 575 0
-255 452 531 0
234 -255 579 0
224 559 -569 0
160 524 -544 0
18 466 528 0
-28 250 -442 0
236 345 -570 0
186 336 -587 0
319 -360 542 0
-364 374 -514 0
313 314 -519 0
-223 294 -467 0
75 149 -588 0
-204 -278 -534 0
339 -403 -432 0
4 17 -179 0
-117 195 399 0
-369 -434 535 0
88 438 545 0
111 -134 -162 0
31 82 103 0
25 -116 331 0
300 -315 -450 0
156 412 -442 0
383 474 -531 0
77 440 568 0
116 -432 -498 0
224 369 -526 0
258 528 -560 0
-67 -439 522 0
116 -368 -380 0
181 255 -325 0
159 170 555 0
-306 -446 570 0
110 150 553 0
76 -118 -208 0
167 194 -581 0
93 -102 312 0
117 -166 -206 0
93 -420 562 0
-339 530 -538 0
-276 -548 572 0
23 330 -400 0
297 385 -578 0
-136 -394 -446 0
183 307 528 0
-224 -346 423 0
-157 283 503 0
87 -105 435 0
-248 330 -348 0
51 301 413 0
181 -369 -410 0
-133 -511 -526 0
57 68 -483 0
454 -467 545 0
-12 20 -437 0
391 -528 549 0
-15 -372 377 0
-223 -316 -529 0
-177 480 499 0
87 -131 520 0
104 314 -407 0
-10 524 549 0
-10 -180 371 0
203 492 593 0
-170 -360 -500 0
104 -170 464 0
-339 557 581 0
-209 -334 -443 0
73 278 543 0
71 83 410 0
-56 -280 -545 0
-255 393 427 0
458 -534 -547 0
72 -305 564 0
-136 -255 -457 0
-8 291 401 0
-186 -225 242 0
101 304 566 0
-298 315 -495 0
-129 365 -441 0
38 -41 -529 0
-12 115 -277 0
-221 246 -371 0
71 -155 368 0
-346 438 -539 0
1 -60 -414 0
111 -328 -363 0
-97 258 -286 0
304 497 519 0
-419 -430 459 0
147 -458 -506 0
-42 436 513 0
23 -186 506 0
250 395 -421 0
415 -440 521 0
120 -237 252 0
216 -301 573 0
-106 -112 437 0
287 -376 599 0
-29 387 -578 0
220 -305 -458 0
-274 -521 593 0
-143 483 525 0
217 250 -406 0
47 467 -476 0
137 -190 -462 0
-17 -328 593 0
-92 275 -429 0
-33 144 -375 0
-61 476 486 0
13 -248 540 0
-260 -547 577 0
26 -373 585 0
37 545 -572 0
-233 -337 379 0
-28 206 328 0
-6 -379 -553 0
237 -335 412 0
37 104 270 0
-111 -129 401 0
-100 138 549 0
55 -112 375 0
72 110 431 0
305 318 -505 0
490 505 -567 0
-189 220 290 0
374 519 -593 0
12 -82 -399 0
-273 -295 -363 0
250 -273 497 0
-204 207 534 0
-261 317 590 0
200 223 -423 0
-123 171 544 0
-4 -112 -227 0
-88 -436 -592 0
156 -396 478 0
166 -422 -597 0
201 -211 -318 0
-77 183 -267 0
-43 -66 444 0
315 495 594 0
-26 -114 -460 0
52 331 -354 0
-154 -160 336 0
-93 172 -405 0
36 -130 -356 0
59 -85 376 0
123 280 -517 0
-32 117 394 0
427 -431 -554 0
107 -367 -431 0
212 -405 453 0
379 -527 561 0
389 418 595 0
-18 43 -322 0
65 -152 -240 0
349 -415 -483 0
-17 -312 501 0
-190 350 -469 0
-256 -379 402 0
122 -564 566 0
-102 221 274 0
56 226 436 0
-37 263 -293 0
-83 -204 207 0
264 301 -395 0
-228 -534 -585 0
10 -95 -450 0
-55 -479 526 0
125 -295 -566 0
168 -172 549 0
-119 293 -389 0
-27 -52 -468 0
-170 265 -296 0
-41 -214 237 0
105 220 583 0
-163 310 -474 0
-124 141 263 0
-182 556 557 0
5 -259 -547 0
-261 465 562 0
76 -230 550 0
95 574 579 0
-84 -457 -468 0
14 -372 -591 0
76 183 188 0
-63 112 -238 0
190 363 564 0
165 -261 418 0
-178 -446 -513 0
97 288 537 0
337 -421 523 0
181 254 270 0
-209 -211 -235 0
251 333 -474 0
-3 441 -445 0
-81 -286 534 0
-181 195 298 0
-24 -334 489 0
189 366 -599 0
32 223 304 0
-109 -295 414 0
262 406 496 0
92 -212 -548 0
77 -186 559 0
-128 134 -476 0
357 416 529 0
13 -37 524 0
337 -432 512 0
-106 340 -467 0
333 -353 520 0
-218 -264 497 0
-2 380 504 0
-182 465 586 0
-19 -230 -557 0
166 -362 -399 0
21 38 72 0
-349 -402 -539 0
336 -414 -449 0
-437 520 547 0
363 -493 -578 0
-188 475 527 0
302 -484 -537 0
75 -173 -183 0
-36 333 -420 0
206 -315 -581 0
-147 -351 -576 0
-2 -73 -498 0
-92 -118 -235 0
201 437 449 0
-198 -236 492 0
-107 484 600 0
-153 303 -360 0
57 263 597 0
73 352 -515 0
-321 -436 -549 0
-161 -231 -472 0
-137 361 574 0
-194 420 -436 0
-256 -272 346 0
172 387 555 0
66 308 -593 0
-205 340 375 0
497 -504 -589 0
-98 172 348 0
-126 307 462 0
15 -498 -586 0
-55 347 -424 0
41 -215 447 0
-68 -93 366 0
26 151 -505 0
190 -304 -339 0
-192 -226 285 0
9 -65 306 0
-192 -392 -404 0
426 444 -503 0
55 59 578 0
136 149 -351 0
34 -407 566 0
131 309 513 0
-278 -441 -459 0
-339 -350 489 0
-131 299 305 0
25 42 -148 0
121 -193 209 0
-47 -231 -351 0
190 -260 -447 0
48 52 -354 0
176 187 335 0
150 153 -383 0
-51 291 -361 0
41 188 311 0
-31 -322 -353 0
392 -437 -526 0
-28 122 -305 0
236 -355 -571 0
67 456 -505 0
140 -413 -592 0
-286 497 -508 0
-316 -403 408 0
1 -88 286 0
-194 -378 423 0
-145 -304 426 0
109 -196 524 0
-54 -91 -470 0
-310 465 -538 0
236 380 489 0
-8 125 -570 0
-26 49 -269 0
-73 315 -392 0
142 -250 -599 0
106 -209 242 0
3 -100 170 0
-367 -451 592 0
173 -424 -549 0
-149 402 -505 0
32 228 -525 0
-21 -336 493 0
-232 281 410 0
136 -318 -443 0
376 407 516 0
524 -563 599 0
-202 -248 584 0
103 -141 548 0
114 208 -523 0
-251 329 -360 0
-40 -190 -514 0
207 212 338 0
49 -476 569 0
288 332 -508 0
-12 102 371 0
49 86 407 0
-161 167 -313 0
119 276 474 0
363 377 495 0
-44 -378 519 0
234 459 -579 0
229 383 -389 0
-364 463 490 0
-99 -472 -557 0
148 254 -268 0
-41 -379 -419 0
65 165 -386 0
-336 421 -490 0
253 375 -590 0
-36 -101 215 0
58 304 334 0
-50 -223 531 0
-14 -369 -472 0
-28 82 -567 0
213 -296 -323 0
-145 -178 -499 0
150 192 -469 0
-262 -303 -581 0
-152 -464 551 0
-2 57 -534 0
13 -167 -402 0
421 -456 501 0
-91 261 368 0
74 -78 82 0
-124 237 -251 0
-12 105 -460 0
95 406 -452 0
-2 37 417 0
-225 303 436 0
-84 185 -535 0
241 340 -425 0
-27 -304 508 0
-51 76 -405 0
-192 -248 -556 0
75 276 -573 0
-369 440 -467 0
-81 241 -467 0
-430 -542 -562 0
218 527 -586 0
232 -405 -418 0
203 -376 453 0
-170 -452 -540 0
135 330 420 0
2 -231 460 0
78 -526 583 0
-203 286 459 0
171 229 570 0
-334 -539 569 0
57 75 -274 0
177 -265 460 0
-64 -522 -558 0
308 -475 -534 0
-88 216 426 0
100 -425 444 0
-142 222 -258 0
246 -304 309 0
100 490 494 0
25 493 500 0
126 -220 -545 0
-61 325 383 0
-109 -232 585 0
174 -359 -517 0
37 62 85 0
-14 23 437 0
240 -352 -409 0
414 -452 -576 0
-20 -544 -554 0
45 -120 386 0
-28 -370 565 0
74 -403 567 0
10 -379 393 0
-247 389 -445 0
-406 -529 532 0
-110 -122 217 0
87 -168 -251 0
-168 372 493 0
14 88 -600 0
268 -283 -578 0
188 -227 -308 0
-318 -499 514 0
-27 107 130 0
307 -344 370 0
-103 -376 484 0
84 211 503 0
230 325 -491 0
-19 370 -569 0
27 -331 -505 0
194 352 399 0
207 301 -315 0
290 -458 -526 0
17 -56 -146 0
105 147 -234 0
-16 187 251 0
-116 548 -591 0
-157 -276 467 0
-164 271 -505 0
96 -155 415 0
-94 -247 363 0
293 -388 493 0
348 -526 583 0
209 -322 400 0
145 178 -540 0
9 293 463 0
-355 402 554 0
94 -325 -456 0
44 362 -406 0
224 337 -492 0
14 -148 -488 0
-267 413 538 0
203 -528 -575 0
-64 444 453 0
-206 -282 369 0
282 -532 546 0
-125 319 -408 0
42 -103 501 0
-273 326 432 0
50 -489 562 0
-80 433 456 0
78 -155 -207 0
-61 -85 316 0
-74 228 499 0
-435 486 -537 0
75 -102 409 0
431 467 600 0
-234 -275 -403 0
-78 -216 -595 0
129 -189 514 0
-230 -252 -449 0
-267 482 515 0
-307 -376 -542 0
-127 -283 -540 0
218 -549 -590 0
-90 -343 -378 0
229 276 556 0
65 237 356 0
47 -436 531 0
261 -309 318 0
-69 -150 -390 0
59 310 -439 0
-240 -401 -478 0
-190 -214 457 0
100 208 399 0
345 542 571 0
-123 163 200 0
-205 300 378 0
-126 284 341 0
-171 -305 -454 0
111 311 -600 0
-81 249 562 0
-229 460 -470 0
242 -411 589 0
-248 -299 393 0
-158 -496 -519 0
-142 381 495 0
271 -445 -554 0
50 113 508 0
-118 314 -597 0
-391 525 530 0
138 -252 388 0
34 -322 515 0
117 -161 424 0
419 439 -549 0
-96 -368 -593 0
123 159 210 0
203 362 -578 0
-351 410 -583 0
80 -336 -600 0
252 -353 479 0
27 -244 591 0
64 290 523 0
-25 255 593 0
-147 -277 540 0
44 92 544 0
231 -484 548 0
-18 136 370 0
68 315 -541 0
70 340 -561 0
-327 450 -500 0
-363 -462 546 0
252 -450 -555 0
27 -150 -484 0
-112 -253 -555 0
-91 563 584 0
1 -60 276 0
415 421 518 0
102 -146 511 0
241 368 517 0
-484 502 585 0
-13 498 515 0
80 -323 599 0
-79 -266 496 0
-59 -233 -374 0
-24 -270 -344 0
42 75 251 0
-1 -163 -336 0
-51 -184 -410 0
539 584 -600 0
-58 129 -392 0
128 -164 -433 0
216 -363 549 0
-129 493 546 0
163 340 -379 0
33 -444 512 0
-6 -104 195 0
262 489 542 0
67 298 -379 0
23 -327 573 0
106 -576 -595 0
-390 -394 497 0
-27 236 451 0
-61 269 292 0
44 -432 -459 0
-35 160 -414 0
5 154 398 0
-331 354 -362 0
-60 352 -498 0
345 -475 500 0
-376 -448 511 0
-191 -208 -383 0
-24 363 -391 0
-31 -46 -301 0
-34 -440 563 0
18 123 -532 0
-11 -20 -558 0
24 -246 481 0
-16 -121 -577 0
-25 139 273 0
164 168 -357 0
186 530 -588 0
-237 -383 541 0
186 401 536 0
240 295 -502 0
-30 -126 391 0
128 -202 -572 0
455 -474 570 0
100 -164 -342 0
-298 -379 587 0
-383 393 422 0
398 -496 -499 0
109 189 -600 0
262 301 -540 0
-168 293 -484 0
-67 253 -478 0
-262 426 599 0
-152 -485 582 0
117 278 -415 0
-47 -139 -391 0
124 311 449 0
130 -331 -359 0
-335 -420 457 0
-14 51 -139 0
303 -352 492 0
91 -247 328 0
-155 -298 346 0
-220 240 -243 0
164 219 520 0
86 305 341 0
215 400 523 0
99 -331 -495 0
-147 -253 -599 0
-77 124 529 0
-154 158 545 0
52 247 516 0
134 -397 -437 0
39 -515 546 0
244 322 595 0
-121 -485 490 0
-220 407 571 0
-104 164 -248 0
184 -385 538 0
49 -90 -170 0
73 -472 594 0
-144 175 -337 0
-176 576 592 0
-287 373 461 0
73 478 -506 0
91 -114 586 0
-145 300 549 0
139 -163 404 0
-236 421 507 0
-62 -332 -553 0
-272 353 -453 0
-95 253 -298 0
2 -173 -206 0
-436 519 -547 0
-62 459 -502 0
-87 -132 315 0
-151 208 -543 0
86 491 -536 0
198 -461 -510 0
257 416 -427 0
118 412 -472 0
357 389 558 0
46 -254 504 0
-13 -408 -570 0
206 -240 -267 0
50 -558 -583 0
101 146 434 0
-35 295 -548 0
47 300 -542 0
-27 394 502 0
266 271 -522 0
73 -470 549 0
144 -396 535 0
389 -392 433 0
-186 -463 492 0
3 -68 -392 0
-226 -251 -539 0
-406 -477 527 0
-12 215 514 0
103 -367 477 0
201 -226 573 0
70 -117 525 0
161 416 560 0
121 -168 230 0
23 308 536 0
182 -224 -513 0
45 339 391 0
-216 -293 -541 0
-17 183 205 0
74 96 -392 0
-164 -351 583 0
214 444 -567 0
57 301 533 0
-101 287 -290 0
-53 54 -436 0
-62 513 517 0
-38 87 -284 0
46 -101 -193 0
-177 397 -560 0
157 -320 -490 0
-149 -202 -512 0
-138 159 -280 0
269 -336 458 0
-52 223 319 0
263 466 578 0
-115 -438 538 0
100 316 342 0
20 -519 575 0
199 -229 318 0
103 -106 466 0
33 495 541 0
111 305 -482 0
116 -407 573 0
-47 443 561 0
338 496 -511 0
-18 250 334 0
31 70 -524 0
-134 204 341 0
43 -44 -65 0
355 400 -460 0
-173 -223 -547 0
-316 377 490 0
-99 -258 377 0
62 -178 597 0
-144 -214 556 0
299 444 482 0
-202 207 -239 0
3 298 -365 0
131 -485 523 0
80 366 471 0
-101 261 -434 0
220 -513 -535 0
-13 -125 -334 0
-307 -343 386 0
-38 362 548 0
-345 370 -508 0
-295 -517 524 0
-30 282 347 0
-92 389 525 0
-113 573 596 0
11 88 -415 0
28 -316 -368 0
-221 229 347 0
-369 429 -540 0
206 439 580 0
-92 177 -398 0
-190 263 536 0
115 420 -550 0
27 -324 543 0
281 -437 -465 0
45 -383 429 0
28 -256 -337 0
9 107 144 0
48 99 157 0
-350 -357 -466 0
-151 -259 -553 0
-36 395 -544 0
-27 40 -492 0
45 -245 -313 0
-300 -302 -379 0
-81 285 307 0
-117 254 -255 0
1 275 -559 0
-41 96 -417 0
-262 -423 531 0
78 -80 -592 0
200 374 -383 0
-237 -345 -503 0
-10 482 496 0
-133 -271 -349 0
-99 -356 445 0
-8 -288 513 0
21 -156 -322 0
32 -401 -458 0
144 220 -239 0
-97 207 -352 0
-199 239 598 0
-172 -229 -383 0
-257 307 -387 0
7 169 -277 0
-57 277 -536 0
238 339 -379 0
13 -64 -88 0
-194 289 -345 0
-110 128 525 0
-268 396 576 0
-463 -567 576 0
-32 -394 -526 0
5 -103 -422 0
135 -161 -553 0
297 424 -538 0
-23 279 -486 0
58 164 546 0
320 399 -402 0
-269 -368 -441 0
-96 -156 234 0
-381 -493 520 0
287 397 577 0
336 -403 -534 0
276 310 -468 0
32 222 -456 0
80 -96 -278 0
-31 328 581 0
-323 -387 444 0
143 -446 -450 0
125 -137 402 0
20 -228 445 0
23 -301 -497 0
75 -233 342 0
-18 325 -497 0
41 -239 -342 0
65 348 589 0
-59 261 263 0
4 -163 386 0
-80 -122 511 0
-48 434 -550 0
109 373 -600 0
-10 -193 584 0
67 174 -484 0
-3 -169 -442 0
-81 421 590 0
-82 90 529 0
119 -135 -518 0
-142 -153 256 0
51 263 -276 0
-233 345 536 0
6 229 -236 0
-70 154 475 0
46 98 -537 0
170 -502 564 0
26 133 488 0
-42 247 352 0
78 -208 -483 0
96 136 578 0
23 -62 412 0
5 -467 494 0
34 263 367 0
185 301 450 0
-66 501 -591 0
69 263 -478 0
-280 -333 520 0
-88 -256 -435 0
-33 82 588 0
-234 -405 -559 0
-49 -155 -508 0
277 -381 -529 0
-26 27 -402 0
-157 -323 530 0
72 -102 327 0
-103 -286 514 0
199 -400 470 0
-152 -199 202 0
188 382 587 0
-181 477 -532 0
-299 -376 -380 0
-85 247 -411 0
-158 416 573 0
-284 -320 528 0
131 -465 479 0
-341 372 485 0
-3 315 410 0
-71 77 320 0
-146 -360 -543 0
138 -186 -541 0
-203 410 534 0
-15 -310 -364 0
11 -50 143 0
-54 60 -427 0
207 584 599 0
