c Phase 3 random 3-SAT negative control
c seed=31043
c ratio=4.26
c variant=uniform
c expected=TO_VALIDATE
p cnf 800 3408
-358 -387 659 0
-285 -541 -614 0
-270 403 -730 0
123 -526 -689 0
96 152 -577 0
-27 301 706 0
349 -593 715 0
7 -265 421 0
202 -541 -590 0
-175 635 676 0
575 -597 767 0
-240 564 -632 0
409 -549 606 0
-213 309 518 0
126 271 547 0
292 305 636 0
162 -426 745 0
31 -194 -684 0
43 206 581 0
-188 -206 -463 0
-93 312 -642 0
59 382 681 0
-235 646 -681 0
-124 -300 500 0
-179 216 798 0
44 -301 -302 0
-343 573 756 0
-408 653 -730 0
19 71 368 0
-16 -250 -554 0
23 -83 319 0
-83 -722 780 0
345 -521 -703 0
-45 456 -617 0
416 540 579 0
-67 -165 -715 0
94 375 -717 0
379 729 783 0
-59 -236 -529 0
-33 290 -673 0
350 -442 676 0
-546 -636 715 0
51 -427 -611 0
-111 223 -366 0
-85 355 -755 0
505 -535 641 0
121 401 -529 0
-80 -644 -716 0
51 617 744 0
35 329 -537 0
109 -295 -740 0
1 -285 -624 0
356 402 -727 0
235 493 559 0
-76 120 -317 0
5 -22 242 0
-576 -706 -767 0
56 190 238 0
-222 -495 794 0
-67 -133 396 0
11 -406 594 0
-347 428 489 0
348 528 -577 0
395 -563 761 0
446 -737 763 0
-460 501 798 0
-36 -41 248 0
26 40 -741 0
126 187 313 0
-34 -46 629 0
397 -477 -669 0
39 -132 -293 0
442 -645 -723 0
291 315 -424 0
28 -392 -701 0
99 127 -511 0
-237 -565 -697 0
-139 -359 723 0
564 -670 -795 0
55 90 529 0
96 -244 771 0
138 -453 -717 0
672 766 787 0
62 -370 707 0
38 -565 -702 0
40 376 754 0
216 -307 -782 0
-183 -485 -576 0
-291 300 609 0
22 329 575 0
111 -652 711 0
217 -292 -442 0
-61 461 -470 0
634 706 -793 0
-107 120 -781 0
-429 -434 798 0
-104 -158 -776 0
90 94 -289 0
171 -651 -670 0
-78 130 765 0
-423 476 496 0
-251 -578 -715 0
102 364 723 0
-131 536 -707 0
65 271 431 0
-68 -175 -339 0
454 -626 669 0
-79 191 745 0
-425 -427 454 0
-365 567 -706 0
-17 -414 545 0
64 -363 -799 0
109 437 571 0
-115 197 763 0
288 -298 -451 0
-43 305 545 0
11 133 -477 0
193 239 560 0
140 452 -773 0
-27 404 674 0
52 82 -501 0
88 95 189 0
-89 160 552 0
-494 585 -782 0
-133 682 -784 0
55 216 -635 0
-82 216 -643 0
588 642 -768 0
232 -273 -300 0
-227 -239 -462 0
105 188 -241 0
112 -210 525 0
-69 219 -418 0
-383 -611 655 0
394 402 774 0
322 666 692 0
514 531 -606 0
154 231 -715 0
252 -580 793 0
48 296 746 0
15 40 67 0
566 -768 -783 0
37 -267 721 0
-126 -538 -629 0
-143 592 702 0
213 506 -630 0
-287 -382 648 0
-491 598 -753 0
-497 -558 626 0
-355 486 534 0
-417 -668 -774 0
-73 -162 549 0
-64 -542 -596 0
140 -287 -297 0
-277 -529 651 0
-114 719 732 0
-314 374 788 0
-213 468 -472 0
-42 218 -240 0
-91 263 -748 0
377 -651 800 0
82 316 -446 0
164 244 -293 0
92 -231 422 0
368 476 -735 0
-220 516 -590 0
-73 -194 246 0
460 -555 -621 0
-37 -259 513 0
-452 -454 -563 0
331 -401 -701 0
-174 -564 618 0
396 427 568 0
-290 -304 -397 0
-64 308 573 0
428 666 -715 0
-242 681 -704 0
109 428 -601 0
363 523 672 0
-365 -466 542 0
381 396 -501 0
82 97 -296 0
310 -589 714 0
475 -553 -741 0
-477 654 797 0
31 241 -774 0
-198 338 623 0
-293 316 -487 0
-65 -487 599 0
441 467 -641 0
-114 -117 -683 0
-9 119 726 0
203 295 -676 0
430 648 -662 0
-643 697 699 0
-149 562 -681 0
-26 111 713 0
-490 -640 -698 0
-78 -318 643 0
350 -529 -590 0
-31 -625 629 0
1 -389 -755 0
-201 -697 713 0
266 383 -534 0
219 -450 -572 0
347 -357 -649 0
26 39 110 0
-218 393 -701 0
107 -666 -791 0
-298 -412 603 0
347 -442 678 0
20 -337 496 0
-72 514 579 0
-218 595 -721 0
9 -125 431 0
-104 272 643 0
66 -142 -595 0
64 -114 774 0
-53 327 342 0
-160 397 542 0
85 175 343 0
380 442 763 0
115 235 -702 0
-83 -198 244 0
84 114 162 0
290 -441 -725 0
196 378 -787 0
-242 246 572 0
-399 404 598 0
528 -573 642 0
-239 -544 779 0
149 218 282 0
242 -358 684 0
-419 -443 -752 0
-320 587 -651 0
-60 568 -671 0
64 743 -759 0
162 189 213 0
-11 -392 -565 0
-328 416 587 0
209 251 585 0
35 -336 725 0
53 -490 -710 0
245 -603 626 0
-271 537 -663 0
-140 194 768 0
-382 -433 744 0
-151 -606 755 0
181 483 -800 0
19 -502 -690 0
249 521 -564 0
-23 -75 789 0
-43 197 -469 0
-44 157 -387 0
22 -205 539 0
116 -133 735 0
-172 -387 708 0
161 270 693 0
-447 -583 687 0
-99 -316 369 0
-418 -433 -547 0
196 -476 -767 0
187 400 427 0
172 675 -687 0
-201 635 643 0
-304 -464 608 0
300 -673 754 0
-121 -454 460 0
-108 -535 -612 0
-472 608 767 0
118 505 -646 0
434 -736 -748 0
-288 573 -662 0
238 372 -457 0
250 -317 485 0
255 426 550 0
-407 537 -687 0
208 711 -784 0
96 265 794 0
-170 347 -746 0
-182 233 725 0
367 -400 673 0
-236 -449 780 0
-19 -486 -657 0
619 726 -756 0
205 415 -425 0
122 251 794 0
8 -358 -663 0
-1 151 666 0
-346 661 711 0
143 -154 161 0
260 -421 -471 0
318 -634 659 0
-42 -282 354 0
-245 485 562 0
180 -291 529 0
-17 195 -415 0
-122 -248 511 0
-88 139 274 0
154 549 593 0
16 332 532 0
135 -245 357 0
-89 674 -732 0
33 36 227 0
-339 -479 -640 0
-195 -310 -567 0
264 -300 669 0
-365 -673 725 0
-601 653 761 0
-526 -646 744 0
-36 237 -397 0
-42 -262 619 0
-124 499 560 0
162 -256 -730 0
97 -246 -328 0
155 406 -428 0
-249 -413 -444 0
439 -483 646 0
140 -284 -328 0
128 428 439 0
125 439 617 0
-227 -492 542 0
452 -481 -634 0
360 374 439 0
-112 344 -775 0
323 434 690 0
564 658 731 0
274 -342 621 0
8 526 658 0
42 -144 -733 0
130 -137 -448 0
97 140 533 0
-171 -259 -739 0
458 634 -640 0
-64 -502 -765 0
-50 212 -600 0
1 -594 624 0
-401 -641 675 0
-574 618 -752 0
-39 -594 -784 0
663 -723 -742 0
251 -407 -696 0
-319 346 521 0
-240 -562 -612 0
32 297 -774 0
408 -592 -756 0
-291 -424 -787 0
-38 -366 748 0
34 85 -108 0
-18 -563 577 0
-86 121 230 0
-63 574 729 0
-1 277 -798 0
-478 -495 513 0
-55 380 -676 0
-25 -138 461 0
7 -91 523 0
-485 -614 634 0
-178 -444 -764 0
131 135 -506 0
-151 -497 632 0
-251 584 587 0
161 266 -553 0
281 502 -712 0
593 -648 -747 0
450 610 659 0
-62 -616 744 0
-214 413 675 0
-203 -332 626 0
135 -516 603 0
454 650 -778 0
226 -290 308 0
52 -530 783 0
195 -732 -767 0
37 -302 -597 0
-160 -339 -655 0
260 522 -572 0
-214 441 747 0
49 -208 -418 0
-69 296 515 0
60 431 -498 0
-37 -186 379 0
-198 221 728 0
119 -288 540 0
47 -652 -705 0
100 207 -799 0
-384 -504 -552 0
-105 -653 764 0
-15 54 177 0
-360 -684 794 0
356 -659 697 0
203 -454 620 0
-183 -365 578 0
-232 -398 541 0
-111 259 728 0
-122 -501 529 0
-350 -426 -465 0
-233 411 -656 0
86 357 -616 0
51 -275 -783 0
-64 122 -289 0
195 266 -543 0
130 -272 -428 0
-26 61 -301 0
49 -567 -646 0
-43 -94 -721 0
199 -278 544 0
46 -470 705 0
-56 -547 567 0
-197 351 764 0
-97 390 -693 0
-164 -586 633 0
-406 542 -620 0
-98 345 531 0
33 -273 693 0
-296 -432 -762 0
16 -508 -618 0
-257 -351 -710 0
-166 169 388 0
421 -707 -795 0
42 295 718 0
339 -505 738 0
-20 58 -288 0
-250 310 -719 0
123 -155 -434 0
223 455 -539 0
315 429 641 0
41 373 592 0
-67 -371 -701 0
-119 -551 777 0
20 -411 453 0
-133 -311 584 0
61 315 -693 0
41 -279 -357 0
-34 194 478 0
239 -297 -775 0
-84 100 -732 0
399 565 728 0
-241 -344 -790 0
-26 66 -453 0
-172 205 -430 0
-84 471 500 0
-82 -221 253 0
-287 560 -587 0
99 157 231 0
74 415 750 0
142 563 -639 0
169 -527 528 0
-231 538 721 0
-353 -475 600 0
97 648 -736 0
-50 -194 768 0
-322 -364 553 0
-197 -206 220 0
-164 168 506 0
-40 77 -788 0
-377 -589 -616 0
-46 179 523 0
-186 -699 -782 0
70 219 -496 0
431 494 729 0
3 -220 -779 0
473 521 532 0
29 -439 -539 0
503 -611 761 0
108 -512 567 0
-395 -481 695 0
166 396 -746 0
-138 430 467 0
-447 -752 -756 0
-148 741 775 0
-61 314 592 0
65 562 666 0
114 -404 -533 0
-1 -367 -411 0
-160 264 -788 0
-629 703 738 0
-243 314 521 0
-295 -628 -764 0
14 576 -780 0
-104 427 644 0
91 492 -598 0
33 -412 -697 0
65 -140 -207 0
391 -711 -784 0
455 -628 -701 0
-311 -449 729 0
128 -196 -288 0
245 298 -378 0
-436 -438 -596 0
-134 582 -714 0
-28 -197 712 0
185 -353 -546 0
-22 415 677 0
-215 -226 -591 0
-186 -360 -380 0
53 -64 -614 0
-184 599 649 0
-281 -407 -659 0
-242 -338 476 0
-130 555 -598 0
-126 779 798 0
130 299 532 0
-304 325 769 0
-124 -286 -589 0
-10 -286 -449 0
-73 -283 -574 0
-336 591 645 0
40 60 79 0
-335 -542 754 0
330 659 -726 0
222 -338 657 0
-9 185 -515 0
-155 358 -790 0
167 -192 -762 0
-400 588 -658 0
125 -161 -768 0
421 -468 539 0
166 251 -315 0
669 680 -780 0
155 307 -687 0
213 -567 -683 0
167 -634 680 0
532 -645 664 0
-1 264 -578 0
-140 165 401 0
464 -472 -587 0
-173 241 428 0
314 -549 553 0
109 625 776 0
123 -615 710 0
-142 -218 776 0
436 -658 -691 0
-553 -583 -705 0
585 -604 -713 0
-283 -294 319 0
-123 151 763 0
183 684 -708 0
-143 169 -468 0
-211 220 -374 0
572 586 -680 0
207 630 -646 0
90 -291 581 0
-123 -212 407 0
-603 -613 -655 0
-175 427 710 0
-392 -432 462 0
25 -42 303 0
266 347 -593 0
558 564 761 0
359 533 586 0
141 -364 -651 0
-111 387 -389 0
362 716 734 0
56 779 799 0
330 -567 738 0
237 596 -641 0
244 481 -645 0
-57 -682 -715 0
-138 -196 719 0
-124 -304 -600 0
-84 -253 446 0
183 618 -742 0
-25 -395 -642 0
-107 474 745 0
41 571 721 0
33 -471 -515 0
321 -379 -593 0
45 -282 693 0
73 -326 329 0
254 -283 -489 0
-257 350 -496 0
369 514 -674 0
-278 -759 785 0
435 -677 682 0
-233 586 595 0
435 572 709 0
-307 -587 -761 0
3 -122 354 0
-235 -445 531 0
218 -302 -449 0
323 364 462 0
128 205 426 0
118 -394 -438 0
7 422 -616 0
-528 544 704 0
110 -300 -594 0
70 -273 -588 0
115 -662 736 0
122 453 -484 0
194 -381 678 0
-28 196 462 0
16 -57 -168 0
-1 165 173 0
-346 -498 -501 0
-617 -644 715 0
-302 478 -696 0
-346 566 -658 0
-43 -66 -640 0
154 -486 613 0
327 546 -715 0
-9 37 -447 0
-692 768 -791 0
305 583 -788 0
-309 360 720 0
141 -501 -502 0
336 409 -751 0
-209 -329 -428 0
-323 687 -758 0
158 716 -758 0
-291 317 -470 0
35 498 -676 0
238 341 -534 0
-366 570 -693 0
-195 344 452 0
425 -543 -719 0
291 553 -593 0
46 422 471 0
-247 302 -752 0
618 -702 733 0
13 497 -506 0
713 -734 -748 0
95 -220 238 0
-13 510 770 0
-322 555 -559 0
-593 619 682 0
277 -462 474 0
144 -211 -316 0
-164 269 -617 0
-193 666 789 0
220 -463 556 0
116 716 -788 0
352 513 560 0
-175 -184 -221 0
-156 -187 542 0
221 -331 -443 0
544 680 -798 0
275 363 -437 0
-93 -227 705 0
94 -582 622 0
1 56 -175 0
-370 440 605 0
-444 -635 673 0
252 307 -472 0
328 -395 -771 0
-570 -577 -686 0
-536 -650 -741 0
201 209 -308 0
-431 -597 -743 0
-147 -351 -665 0
-86 338 524 0
-161 -457 788 0
70 -384 -598 0
35 550 567 0
37 596 -772 0
366 -393 -508 0
-226 318 459 0
-44 354 -791 0
-64 424 502 0
-75 -275 -510 0
26 -235 -786 0
-240 389 -580 0
-7 -731 799 0
-59 95 -360 0
107 -152 -796 0
-169 193 292 0
-285 435 763 0
-76 565 617 0
-4 -606 768 0
-68 201 358 0
91 -379 -735 0
-106 -312 -722 0
384 748 785 0
-54 450 766 0
225 -364 376 0
6 268 -346 0
-59 -242 -375 0
18 255 -787 0
-44 -345 -442 0
370 -452 -721 0
289 384 -575 0
204 -304 776 0
-29 68 718 0
-136 191 -272 0
102 583 -770 0
-259 -509 639 0
69 469 543 0
-140 406 619 0
-64 -209 322 0
294 588 -687 0
-35 208 234 0
-62 475 -694 0
202 624 -754 0
-133 -577 -778 0
-46 155 228 0
-235 367 405 0
-90 -556 -746 0
4 -24 -55 0
144 -385 -590 0
-188 -211 483 0
-518 -697 766 0
-137 -393 785 0
-39 497 -646 0
-268 467 509 0
-514 -625 692 0
-13 400 755 0
166 245 -515 0
90 322 705 0
-266 -452 -546 0
-170 189 -707 0
-216 697 720 0
274 -300 360 0
208 -627 741 0
-32 241 -332 0
177 640 -771 0
115 306 503 0
-58 105 482 0
687 716 765 0
-62 -711 -718 0
-56 234 -636 0
-122 -714 785 0
159 226 -240 0
304 407 -547 0
-54 334 -771 0
-284 -588 613 0
373 -445 705 0
-646 670 741 0
-38 -448 -788 0
388 511 -797 0
487 536 761 0
-172 -205 381 0
262 -485 697 0
185 219 654 0
96 -258 -520 0
278 308 -470 0
424 -572 -710 0
332 413 -775 0
179 245 -274 0
52 444 656 0
24 -196 716 0
269 375 688 0
117 -511 586 0
128 258 580 0
120 -536 623 0
-227 360 -367 0
-319 -415 -790 0
82 -519 785 0
-149 252 -662 0
-125 731 -798 0
132 299 400 0
-160 -184 -265 0
-136 -350 471 0
237 426 -762 0
218 746 -775 0
440 479 -609 0
267 -336 -486 0
172 -358 -721 0
11 -64 756 0
117 -284 -626 0
-242 434 749 0
-78 158 547 0
-169 -268 718 0
23 99 553 0
229 356 709 0
-55 -84 -767 0
143 -638 -754 0
129 -270 599 0
109 -533 559 0
480 653 -772 0
248 620 -699 0
-119 145 -555 0
-79 610 637 0
226 554 724 0
-359 -566 651 0
-131 483 -694 0
260 314 654 0
-457 -537 -774 0
-36 -482 711 0
458 490 -661 0
-270 323 539 0
-368 -395 746 0
-69 -372 726 0
232 507 642 0
-160 319 450 0
327 549 618 0
-272 365 553 0
-240 -582 780 0
260 -263 294 0
71 201 -612 0
-31 -436 457 0
-62 -129 784 0
458 -676 -732 0
-216 585 -719 0
-27 347 -742 0
-599 -694 718 0
464 562 761 0
-1 375 -751 0
-165 580 742 0
-263 308 -401 0
-644 737 749 0
-373 424 -549 0
-128 687 -793 0
279 482 619 0
-301 -504 -611 0
465 -516 -657 0
264 -298 -784 0
161 -298 -550 0
15 -483 -683 0
7 -69 463 0
-182 420 722 0
639 649 -737 0
-341 -467 -634 0
-346 489 583 0
-186 349 -654 0
-452 457 566 0
-53 279 615 0
233 -353 -363 0
130 389 581 0
229 680 732 0
-178 293 799 0
216 -315 732 0
-62 167 442 0
-36 -71 424 0
18 -227 762 0
45 -218 -609 0
-70 -89 -747 0
126 252 -756 0
-235 -507 546 0
-335 468 -477 0
246 306 380 0
54 250 -641 0
-80 405 -622 0
-109 151 556 0
41 -399 730 0
74 -415 513 0
24 -172 602 0
121 -270 632 0
-278 505 -553 0
-66 371 -758 0
102 318 -402 0
235 454 543 0
225 -422 791 0
130 442 745 0
231 232 -694 0
-59 -436 -445 0
-216 -225 -767 0
-98 -431 -731 0
-333 365 -527 0
-45 -604 619 0
-52 -302 -381 0
165 -316 -351 0
-500 603 -711 0
444 -546 557 0
265 -658 -684 0
96 -245 796 0
141 -408 508 0
208 -499 -572 0
139 -180 279 0
-337 -611 786 0
111 -157 -725 0
-153 -302 -655 0
-340 396 -486 0
-409 -466 -660 0
101 132 -640 0
-33 261 -664 0
-314 618 702 0
124 -146 233 0
32 130 -350 0
-26 -288 340 0
-113 -636 -693 0
514 -535 -679 0
351 597 -780 0
138 -205 -295 0
264 316 -576 0
257 368 425 0
403 -487 734 0
177 562 698 0
206 532 -699 0
-77 -368 -612 0
-146 363 -372 0
96 -263 -794 0
-12 -472 701 0
406 -646 -729 0
-475 -579 764 0
21 -178 364 0
332 -376 419 0
-189 331 -699 0
-296 -611 -630 0
-25 -367 -600 0
145 -498 781 0
-43 413 -776 0
-383 -656 690 0
-422 713 -788 0
315 342 -589 0
69 -558 -706 0
186 -553 -635 0
-25 275 -375 0
-42 106 -436 0
190 410 -475 0
-132 -479 789 0
-439 535 -541 0
314 375 -547 0
-125 208 625 0
-50 -504 789 0
310 -322 -669 0
4 118 -560 0
382 -386 658 0
101 -194 -516 0
676 -741 -757 0
-99 121 251 0
-322 -444 -798 0
-295 581 699 0
120 528 635 0
-371 -703 -769 0
96 -563 572 0
360 -362 608 0
127 757 793 0
304 -355 -404 0
46 -157 274 0
-60 193 664 0
-201 396 476 0
-402 603 784 0
317 403 739 0
218 -424 -616 0
112 246 442 0
-5 -110 588 0
270 274 665 0
-274 -322 348 0
133 -234 489 0
-61 -268 -370 0
-295 -325 -659 0
219 362 -551 0
433 440 570 0
-150 448 -787 0
20 26 -120 0
-211 441 680 0
72 499 510 0
121 -562 682 0
176 580 -624 0
70 -165 -724 0
-196 465 -485 0
492 -559 -598 0
1 -255 -672 0
-179 -246 -689 0
1 -492 -588 0
-112 206 573 0
80 669 750 0
-93 193 303 0
240 -594 -616 0
-268 -334 426 0
16 -292 -337 0
-71 -270 -299 0
12 311 -495 0
10 494 581 0
41 329 -394 0
-99 -295 333 0
95 -468 580 0
140 668 753 0
-88 189 694 0
-92 231 -398 0
117 465 646 0
-25 208 330 0
-74 595 697 0
-211 -463 -665 0
-198 -372 -709 0
375 382 683 0
-28 99 591 0
-152 -353 -517 0
-204 693 -703 0
135 -508 -613 0
-261 423 784 0
-64 371 460 0
-310 -388 -521 0
-43 -127 -787 0
-22 171 -220 0
275 362 -700 0
48 246 310 0
-451 -529 533 0
-207 453 580 0
-121 319 707 0
240 -452 -585 0
-100 -446 779 0
-404 545 773 0
322 -447 -799 0
-57 -116 667 0
196 230 270 0
-268 599 -609 0
-371 -483 687 0
-73 193 542 0
293 515 569 0
30 -357 -563 0
236 -447 455 0
-348 480 752 0
351 457 -716 0
-339 480 -797 0
351 573 665 0
119 -740 795 0
634 704 787 0
-135 159 325 0
-4 418 -774 0
-303 514 604 0
77 -442 -499 0
84 332 -722 0
31 132 391 0
-482 -598 -617 0
44 -442 -467 0
-299 717 -794 0
185 594 607 0
374 497 -625 0
63 -183 646 0
-246 -419 720 0
-85 -160 172 0
57 499 602 0
-263 314 -506 0
-495 -587 786 0
-152 217 589 0
-338 503 -770 0
256 344 547 0
-228 288 709 0
139 295 -579 0
-467 -608 672 0
187 697 736 0
99 -179 659 0
266 -427 666 0
339 -761 -773 0
185 450 -711 0
141 449 691 0
547 667 779 0
24 -97 -160 0
-21 710 762 0
-127 245 -345 0
-233 -258 444 0
-308 -393 -492 0
82 -409 -749 0
-81 117 401 0
-328 -363 -754 0
43 463 -629 0
-78 293 -515 0
-64 759 -798 0
256 400 640 0
-307 532 -682 0
276 -352 -513 0
85 -141 -624 0
-87 -579 -763 0
85 230 547 0
199 207 637 0
84 295 300 0
307 -353 774 0
86 475 -647 0
-54 144 -767 0
-163 -289 -789 0
87 -231 -395 0
-33 -363 482 0
81 153 -248 0
128 -237 -777 0
-415 514 -679 0
23 -181 -197 0
224 -427 -514 0
-177 -436 -570 0
290 -581 681 0
289 -361 491 0
56 188 -446 0
-270 -298 733 0
137 -291 603 0
-124 -246 -394 0
-289 332 761 0
127 -641 -716 0
13 197 777 0
169 -171 476 0
145 364 -415 0
248 -377 -547 0
86 384 630 0
462 560 -794 0
26 288 -302 0
73 346 -600 0
-57 -263 -324 0
-48 290 479 0
-138 -287 -797 0
135 -284 -331 0
292 -422 -640 0
118 441 669 0
-75 -250 371 0
-312 397 594 0
-561 -562 -713 0
108 -272 768 0
339 474 -533 0
-3 -418 461 0
163 410 -575 0
199 208 -663 0
520 541 -765 0
-457 495 -767 0
-111 -178 -641 0
56 -62 130 0
-436 -540 -736 0
445 -455 621 0
-393 -426 -590 0
-160 441 743 0
116 -442 -597 0
77 -234 593 0
412 -588 782 0
-145 -247 -560 0
-1 87 -408 0
110 368 -455 0
35 -80 291 0
-63 342 590 0
533 644 653 0
494 595 -717 0
-599 762 794 0
-76 -205 -422 0
440 -484 -754 0
72 786 -788 0
-298 550 620 0
-166 221 265 0
-57 -226 -680 0
584 616 677 0
-123 289 -363 0
-467 700 -772 0
-66 654 773 0
-160 236 -399 0
280 -368 487 0
-23 734 768 0
406 441 512 0
-272 -443 -450 0
74 485 552 0
-82 -208 -753 0
330 704 776 0
169 -264 275 0
129 623 683 0
-173 304 -525 0
278 380 -581 0
-269 -506 -562 0
-268 367 451 0
149 448 620 0
-120 391 421 0
-259 326 -506 0
48 70 467 0
-423 668 677 0
-27 190 574 0
19 -169 -301 0
-279 -293 357 0
126 -537 591 0
-55 246 -497 0
161 407 -724 0
364 402 -487 0
94 -373 -470 0
49 102 -497 0
252 -443 563 0
-56 409 602 0
316 347 -520 0
56 189 592 0
57 -278 530 0
-376 415 548 0
85 259 495 0
-340 -369 783 0
249 -334 -683 0
416 -508 -613 0
166 -312 611 0
122 -201 359 0
-46 358 365 0
-235 -291 756 0
254 543 -562 0
67 -190 799 0
-164 -217 -487 0
367 -395 -753 0
-154 -433 -523 0
-119 -176 242 0
-109 504 794 0
-16 24 -67 0
-66 107 -751 0
-254 589 -718 0
-520 -572 635 0
-310 -611 -751 0
-22 396 -668 0
222 -291 -649 0
136 -210 547 0
-722 -760 772 0
-98 604 760 0
27 -47 208 0
437 -503 -559 0
-42 -224 -260 0
4 24 687 0
3 125 -559 0
137 221 389 0
140 -224 527 0
451 -543 -546 0
125 453 732 0
-99 -320 -488 0
-150 281 -656 0
-48 -684 686 0
-193 440 -618 0
-199 -564 -665 0
414 -474 551 0
-68 -381 -383 0
18 -423 676 0
-44 107 -563 0
-174 245 406 0
-318 524 573 0
134 -135 -191 0
-449 551 -688 0
-69 -269 -747 0
214 -396 -458 0
-270 360 -739 0
257 -518 564 0
-369 741 -778 0
49 209 763 0
-54 -134 -220 0
82 632 -781 0
31 234 -265 0
-265 270 -772 0
28 -239 -245 0
-359 -366 753 0
-460 656 -777 0
284 -549 -791 0
159 446 728 0
-379 -394 656 0
276 -579 -748 0
285 -379 403 0
-672 -692 -715 0
-1 116 -229 0
-80 562 -778 0
597 656 -677 0
133 176 -412 0
-268 -461 -496 0
10 149 390 0
126 334 549 0
-67 -152 483 0
1 -18 -527 0
427 -498 -547 0
-65 401 -409 0
-159 -261 -717 0
204 591 635 0
163 212 763 0
-192 740 742 0
497 -560 745 0
-350 -550 674 0
221 752 772 0
383 -662 -706 0
-154 -262 -365 0
53 286 428 0
204 -517 -601 0
-78 -530 573 0
-272 -672 -751 0
-314 -672 -788 0
320 -626 793 0
-122 185 255 0
31 -41 -567 0
182 -386 519 0
-90 483 757 0
163 360 -386 0
-13 -271 366 0
458 -478 -788 0
-158 186 617 0
-632 675 776 0
14 400 410 0
95 364 -623 0
473 -568 615 0
19 152 -392 0
-478 -654 -664 0
8 333 590 0
-171 -178 -535 0
16 118 -664 0
148 -472 618 0
77 362 499 0
-187 -340 569 0
-85 189 269 0
-295 427 -550 0
246 -757 -764 0
374 -542 748 0
211 422 -461 0
-55 126 696 0
-471 579 -729 0
35 93 605 0
-393 -751 -752 0
84 -375 690 0
-474 -494 -790 0
-176 375 -446 0
-253 352 -547 0
-276 605 781 0
123 -187 228 0
119 -517 -729 0
-87 527 632 0
-96 -234 406 0
-88 529 603 0
-220 610 -702 0
57 623 -655 0
-5 -59 -526 0
-190 274 -630 0
-214 324 451 0
-248 686 -723 0
-237 -698 768 0
-156 -538 -710 0
-201 -392 -621 0
280 388 431 0
10 -87 -182 0
88 182 184 0
229 238 490 0
-347 503 -515 0
-353 481 488 0
269 623 -675 0
-52 604 -735 0
117 -259 382 0
268 -283 516 0
31 -214 -637 0
-227 -561 -624 0
-203 397 -660 0
104 385 652 0
52 -159 -528 0
69 288 -379 0
496 -645 -707 0
79 112 381 0
-399 -497 570 0
143 223 -620 0
296 526 750 0
-35 -576 -591 0
247 -274 -325 0
-98 -448 -750 0
-5 210 -372 0
-234 550 -795 0
47 -196 -627 0
-493 519 -591 0
372 -574 -657 0
23 -555 -633 0
150 -197 751 0
-228 352 683 0
22 309 754 0
242 313 -462 0
56 -168 740 0
84 -573 -778 0
20 534 558 0
356 -550 -737 0
166 -515 643 0
355 515 -745 0
265 -434 473 0
320 378 -441 0
-122 213 -336 0
122 -509 736 0
-387 -392 -772 0
175 -192 -610 0
-458 469 741 0
-71 149 -478 0
-199 223 -786 0
153 -362 -378 0
-2 134 -188 0
-489 576 -661 0
-125 -239 436 0
-160 348 431 0
-103 -111 292 0
411 -492 -494 0
-203 -696 722 0
94 149 600 0
-161 330 697 0
286 -529 -545 0
49 -368 631 0
-352 586 -636 0
567 676 773 0
-445 -512 707 0
390 522 580 0
349 -707 788 0
443 517 -553 0
23 407 -595 0
-171 -206 -449 0
223 -585 -634 0
-507 -588 -714 0
-468 -558 586 0
-80 136 -517 0
-213 261 544 0
-71 -424 -607 0
469 546 -737 0
10 317 360 0
477 479 776 0
393 -476 -691 0
-533 -564 -679 0
-361 362 -736 0
-162 676 -795 0
-28 77 410 0
55 -549 794 0
-159 389 594 0
-19 54 -152 0
-490 -641 -734 0
514 739 -747 0
77 -430 614 0
193 -374 -484 0
311 465 -558 0
-59 -432 529 0
-40 -618 727 0
5 455 -469 0
-210 -393 -643 0
-70 -642 734 0
-37 102 -308 0
213 -466 -760 0
155 634 -635 0
3 -244 -786 0
-91 -140 -357 0
-329 344 -633 0
425 464 552 0
-499 581 669 0
-351 -372 -785 0
-32 183 -365 0
376 625 750 0
-283 673 745 0
110 226 -393 0
-374 479 -500 0
-131 208 385 0
-13 -306 632 0
71 -310 -624 0
27 -107 792 0
-334 629 729 0
-119 -345 -416 0
115 -186 -722 0
-89 -314 440 0
-85 -666 742 0
47 -159 -699 0
-197 -260 -554 0
97 -625 -676 0
515 -552 -735 0
-63 -342 -347 0
-18 -543 623 0
-17 -308 -320 0
-258 -271 -366 0
314 -761 -778 0
-273 278 -431 0
538 734 740 0
-315 365 -487 0
-352 357 392 0
-182 -285 687 0
-360 631 711 0
-30 309 385 0
-287 -330 -489 0
-568 597 -638 0
318 535 591 0
-289 -429 785 0
-513 515 685 0
114 140 418 0
-159 304 715 0
-380 592 -632 0
29 78 524 0
368 -372 -530 0
374 419 -753 0
24 195 343 0
-36 -69 332 0
191 196 670 0
96 -219 -331 0
223 -330 604 0
-95 263 -321 0
22 712 -772 0
39 -451 766 0
-77 -179 733 0
-446 -555 598 0
213 -634 -744 0
-393 677 -680 0
-54 -215 -739 0
-233 -269 -278 0
274 -370 590 0
97 701 797 0
-62 -199 503 0
245 -732 -765 0
-669 734 745 0
208 281 -365 0
-12 20 496 0
599 772 -796 0
3 -113 549 0
31 -688 750 0
-152 302 -418 0
-133 -548 792 0
-116 -304 604 0
-249 -330 -579 0
35 446 -487 0
161 -548 788 0
-20 -123 348 0
232 -287 406 0
-8 -702 -732 0
-165 496 -620 0
382 652 -698 0
16 -308 -614 0
95 -374 688 0
153 603 658 0
226 -452 -512 0
-135 219 -482 0
-140 461 579 0
-82 114 350 0
-205 670 742 0
8 -195 464 0
-113 -195 -391 0
-57 128 414 0
-128 -228 441 0
-160 -321 531 0
-71 696 780 0
-304 759 -791 0
-27 299 736 0
289 588 654 0
-99 -266 482 0
84 118 -520 0
168 -494 639 0
69 101 -298 0
-307 469 557 0
288 753 766 0
93 325 -543 0
359 -732 -741 0
64 211 521 0
128 615 753 0
-479 510 673 0
142 -246 393 0
607 634 -674 0
-34 68 -120 0
128 -508 -702 0
-434 531 -738 0
140 -300 -584 0
-431 791 -797 0
-309 569 -776 0
-107 204 517 0
143 -156 800 0
-266 -438 525 0
-126 232 -418 0
255 -474 -669 0
205 408 460 0
-216 -267 546 0
311 610 742 0
-162 224 -466 0
123 -177 666 0
200 -529 -683 0
33 -175 -796 0
-10 181 -478 0
-100 136 -753 0
-140 -701 800 0
554 598 673 0
129 -707 -790 0
62 170 -359 0
-248 -337 640 0
24 150 559 0
-43 367 612 0
162 234 424 0
239 314 -785 0
67 74 88 0
122 614 -699 0
562 -761 -798 0
249 260 -783 0
22 -418 531 0
-189 -421 608 0
347 -440 653 0
-16 -32 59 0
-634 -755 -757 0
-49 85 440 0
312 -529 597 0
-225 258 593 0
125 164 612 0
395 -579 -645 0
513 -634 781 0
-116 573 -580 0
-187 284 -788 0
65 354 481 0
355 445 -716 0
334 647 744 0
61 273 389 0
79 -387 -794 0
64 -169 552 0
-347 415 691 0
612 -691 707 0
255 259 -754 0
267 300 -569 0
-293 -524 724 0
-41 260 717 0
-204 -779 799 0
195 -559 720 0
142 -211 -514 0
78 362 383 0
-186 -234 -495 0
-38 713 722 0
140 -523 627 0
-84 -109 140 0
194 414 725 0
-139 -264 -702 0
172 388 461 0
23 170 -601 0
-217 -226 -342 0
157 220 -258 0
24 -510 543 0
-468 560 617 0
-172 -511 765 0
668 709 -764 0
-256 258 -330 0
-28 36 608 0
40 268 269 0
-325 672 -705 0
176 663 -706 0
296 315 321 0
-99 -218 -499 0
391 -578 651 0
122 320 -446 0
-56 -381 618 0
423 -554 -723 0
-150 279 -333 0
-133 196 501 0
-7 -527 -722 0
37 -527 -613 0
532 -604 703 0
138 -141 -711 0
-392 477 -800 0
27 -302 517 0
-229 -415 -646 0
213 536 718 0
-1 -447 628 0
-204 -246 -391 0
-146 -291 629 0
-159 368 798 0
229 336 -485 0
349 -432 500 0
-115 116 366 0
288 335 610 0
-74 -387 719 0
-460 723 -740 0
-67 -172 -682 0
105 511 590 0
412 -471 -651 0
-176 -408 -419 0
-36 -230 546 0
58 -62 -692 0
-262 -321 -404 0
-167 -513 -672 0
-138 318 706 0
-344 463 -603 0
452 463 -538 0
-147 529 -556 0
418 494 -572 0
-90 258 -652 0
-392 -475 588 0
336 558 646 0
270 286 404 0
396 675 -686 0
98 -103 -455 0
236 -359 444 0
58 -624 -651 0
639 731 741 0
-22 -146 -590 0
-93 -601 -740 0
151 394 658 0
497 -641 -675 0
-245 338 -355 0
-238 251 674 0
184 -437 543 0
-108 716 -731 0
-334 -428 517 0
-201 571 -721 0
-103 -667 -800 0
-125 -203 -426 0
-50 670 -756 0
382 -436 -799 0
-415 541 -612 0
345 -380 501 0
226 310 392 0
299 720 -744 0
-300 435 -716 0
326 454 695 0
469 -537 584 0
259 -263 538 0
9 -246 -537 0
-79 403 595 0
275 320 669 0
-195 290 467 0
222 -473 631 0
-531 538 699 0
198 474 497 0
208 -330 -492 0
-95 261 688 0
-54 562 -601 0
-8 -614 -677 0
-71 407 673 0
532 -761 -780 0
-522 568 629 0
-379 -479 634 0
-162 552 -584 0
-129 192 -546 0
381 -483 719 0
-528 754 797 0
191 752 -771 0
36 107 -657 0
-4 480 -717 0
282 -469 599 0
-692 -734 761 0
420 -425 -664 0
-471 563 714 0
181 -427 532 0
265 669 759 0
-46 112 -612 0
-3 -144 -622 0
27 420 490 0
-255 405 414 0
-78 -532 688 0
-62 -577 667 0
-549 679 765 0
242 -272 790 0
56 -367 -765 0
159 281 563 0
183 -381 678 0
5 183 -484 0
16 122 568 0
-255 -745 776 0
-113 -260 -500 0
-43 -118 -517 0
-1 -323 751 0
-53 193 406 0
-446 -504 -728 0
131 -552 -722 0
474 -483 -536 0
-390 639 739 0
-261 -294 -345 0
279 346 560 0
489 534 585 0
340 384 711 0
-164 -373 -449 0
124 252 553 0
269 377 675 0
331 -648 -797 0
-188 413 -623 0
-424 573 734 0
16 -512 -641 0
1 84 -792 0
-204 -547 -627 0
302 345 452 0
-141 -263 -698 0
70 -314 -379 0
-177 227 -236 0
-67 -364 657 0
25 -286 621 0
322 -340 349 0
286 -644 -652 0
-38 -414 -427 0
130 -181 784 0
-90 527 -547 0
-242 -261 733 0
15 -219 -486 0
327 -450 723 0
121 125 -424 0
274 637 -798 0
-49 401 -573 0
-307 628 649 0
-29 402 -711 0
-44 -93 -209 0
-406 522 -561 0
-270 -447 704 0
70 173 748 0
489 -551 740 0
-257 -458 -779 0
399 600 708 0
-150 -179 349 0
-508 -664 -679 0
-378 498 766 0
428 666 755 0
156 -194 -536 0
3 -62 384 0
-177 246 788 0
-243 554 -679 0
14 -126 726 0
246 -302 -685 0
-282 -576 766 0
445 498 -732 0
178 -444 -446 0
191 217 748 0
209 397 -603 0
-145 627 -723 0
-139 -341 647 0
-32 34 441 0
447 -667 770 0
225 600 698 0
-348 -462 732 0
249 370 -610 0
208 -393 -660 0
321 -372 782 0
33 -49 -247 0
25 -191 -714 0
147 -218 -679 0
161 254 452 0
206 389 671 0
-80 296 -476 0
-275 535 727 0
-218 477 611 0
-105 613 760 0
-543 558 736 0
-355 484 522 0
27 -64 -127 0
121 -402 611 0
-359 -534 754 0
199 332 -538 0
-393 610 -623 0
-569 -642 -729 0
-97 -262 764 0
-48 -248 355 0
208 -248 -604 0
377 -412 -693 0
78 397 787 0
-152 287 715 0
-362 -579 -793 0
41 394 -433 0
300 -341 423 0
-74 669 -800 0
164 -382 -701 0
-2 649 -786 0
-1 -318 408 0
198 247 -435 0
473 -527 792 0
-198 271 361 0
124 481 -799 0
247 -633 780 0
20 114 342 0
87 -172 642 0
63 -139 -577 0
354 -355 465 0
411 436 461 0
-179 -379 -685 0
-433 577 -742 0
-45 370 726 0
-139 495 -688 0
9 674 -770 0
20 382 506 0
-10 552 796 0
87 139 -346 0
88 135 730 0
-96 554 -696 0
510 -589 -756 0
243 278 510 0
-236 -481 745 0
-7 25 -725 0
-103 203 349 0
-298 452 773 0
88 497 561 0
-436 -541 622 0
-231 -269 400 0
437 -725 756 0
-251 -384 602 0
101 615 679 0
-324 368 -797 0
76 -600 -689 0
431 -606 697 0
-180 -294 -407 0
-497 527 589 0
-133 -183 518 0
-103 -191 496 0
397 709 -725 0
-444 564 702 0
274 -456 -522 0
220 380 -476 0
303 -412 -539 0
88 -163 -541 0
-263 -519 550 0
-174 -191 -747 0
-342 480 561 0
89 308 -679 0
-129 -473 -694 0
229 528 623 0
-119 -382 649 0
116 466 -580 0
118 255 351 0
8 -527 604 0
361 573 627 0
-382 519 -686 0
113 343 787 0
-31 -110 -201 0
357 547 639 0
355 -381 591 0
-169 352 477 0
-116 -414 668 0
94 -240 350 0
615 -650 800 0
-451 480 674 0
173 295 647 0
344 -644 -744 0
-144 -637 -687 0
-256 -328 -419 0
-264 -534 704 0
466 619 786 0
-176 -567 668 0
-407 494 -780 0
-85 -292 646 0
27 -311 -617 0
-264 -706 -743 0
71 460 -711 0
-230 643 791 0
321 740 788 0
-584 -612 686 0
43 -150 440 0
-91 581 -637 0
362 443 -508 0
-14 -518 719 0
-13 102 -658 0
-186 -504 542 0
148 -577 744 0
580 -729 -756 0
159 620 -791 0
135 -255 748 0
76 436 -781 0
267 430 449 0
-158 488 -766 0
335 -383 582 0
640 -707 735 0
-130 368 647 0
87 229 -509 0
124 -564 686 0
13 -670 683 0
-232 -524 772 0
-187 -350 516 0
-423 548 -745 0
74 -162 746 0
247 250 778 0
91 587 631 0
122 140 -524 0
519 -572 674 0
-334 381 554 0
-211 488 768 0
-542 -617 765 0
-96 -590 629 0
116 -608 677 0
372 -528 -749 0
-114 -166 454 0
84 210 798 0
-542 657 712 0
-162 308 637 0
50 644 -674 0
-613 678 745 0
-410 489 736 0
-155 -274 -492 0
-221 -587 -673 0
-231 289 -476 0
-120 -522 -547 0
377 485 -682 0
80 -135 623 0
471 530 654 0
-226 -264 -346 0
-184 -316 -620 0
129 -195 -242 0
305 574 620 0
147 305 -773 0
-262 -532 603 0
449 605 -658 0
259 -383 -782 0
146 -464 606 0
406 -489 512 0
-613 621 678 0
-132 -497 694 0
-164 547 -739 0
-125 -510 -603 0
83 -132 -146 0
264 -366 643 0
10 -273 -640 0
-44 226 -229 0
508 -565 784 0
29 237 414 0
-100 -729 751 0
112 -373 -375 0
-222 409 -579 0
433 529 -637 0
230 -483 494 0
147 174 553 0
-29 251 -346 0
327 -345 786 0
-235 360 783 0
38 222 282 0
541 598 -759 0
297 414 -593 0
-37 97 -479 0
134 241 -382 0
-113 -346 -758 0
168 -730 763 0
-65 353 -427 0
4 263 -283 0
29 -72 -781 0
53 412 449 0
522 -684 760 0
248 506 -702 0
-530 631 -711 0
34 163 329 0
-9 241 -417 0
344 718 -767 0
-441 552 -636 0
4 -566 710 0
111 375 -380 0
-269 308 -488 0
206 -450 760 0
34 -74 -489 0
14 277 480 0
-21 425 656 0
-161 -422 778 0
11 213 -402 0
88 -226 -232 0
397 459 603 0
111 -159 -374 0
283 399 -566 0
-13 74 609 0
192 627 -663 0
-228 522 627 0
-227 -504 -666 0
-346 -619 -765 0
523 -524 -692 0
-68 301 -630 0
154 705 -733 0
-234 -283 767 0
-41 69 383 0
429 -471 -559 0
52 127 -234 0
-183 -445 637 0
41 -183 -510 0
-83 -476 754 0
-86 388 392 0
203 747 767 0
283 452 722 0
-701 766 -782 0
411 502 787 0
106 -418 -507 0
-56 -183 581 0
-312 664 -764 0
-114 440 660 0
18 483 -763 0
-108 626 -728 0
-214 487 620 0
68 371 -547 0
234 567 600 0
-78 294 -337 0
299 -309 -527 0
-14 -187 -373 0
297 -704 -736 0
-283 360 476 0
415 -658 799 0
251 616 -634 0
-203 -374 -695 0
518 -691 -717 0
420 719 -767 0
177 -314 -665 0
219 -302 -665 0
284 -400 480 0
-54 -218 484 0
555 661 752 0
-75 -361 -682 0
-7 -396 -756 0
-220 -416 -465 0
-473 -637 745 0
306 -389 763 0
270 -290 778 0
52 -370 -732 0
76 400 -658 0
306 -578 660 0
-45 261 -707 0
524 -777 791 0
-355 -379 491 0
-149 -419 -626 0
-189 -758 772 0
134 517 -623 0
156 634 -709 0
-14 143 -711 0
100 -107 -300 0
51 -78 357 0
-73 177 -565 0
305 -365 -657 0
213 282 392 0
-260 408 791 0
-574 682 -713 0
53 527 -747 0
-173 259 -541 0
129 -570 -754 0
10 372 -438 0
-6 -78 -686 0
169 -262 280 0
-143 191 -476 0
-188 272 -417 0
257 -271 -490 0
420 -571 -628 0
41 -299 697 0
349 408 -701 0
3 214 -703 0
323 -446 493 0
87 -718 -772 0
22 145 544 0
-131 172 489 0
185 680 779 0
-285 -302 -470 0
-367 763 784 0
-11 126 693 0
-335 -357 -412 0
-147 200 -667 0
-221 656 -771 0
176 -198 -395 0
-82 -106 220 0
296 452 491 0
-608 -663 777 0
163 599 -701 0
-208 502 759 0
-414 -434 485 0
-221 -536 -724 0
-341 -428 640 0
-150 286 381 0
-46 -126 -535 0
-45 -511 535 0
-63 373 -410 0
-78 -294 -749 0
176 -247 -418 0
58 101 -726 0
18 -507 728 0
108 -497 -585 0
363 710 774 0
-191 -690 696 0
208 391 518 0
-215 369 -445 0
-117 123 531 0
-167 216 -553 0
118 -178 -270 0
-1 82 554 0
-310 435 776 0
12 -361 698 0
61 -110 -773 0
166 215 -526 0
647 743 -774 0
-337 455 481 0
248 -575 799 0
-97 -318 -542 0
161 -213 -554 0
-30 334 -554 0
116 -617 -796 0
194 -307 -433 0
-102 -176 796 0
-316 383 -681 0
228 -470 667 0
83 185 -727 0
60 243 -637 0
-6 -170 550 0
311 -608 694 0
-113 -581 724 0
239 763 -783 0
258 -350 733 0
-68 409 -678 0
-140 586 -708 0
-90 -248 381 0
98 215 -505 0
317 413 502 0
-10 -458 625 0
175 -257 573 0
200 383 -581 0
-90 119 -781 0
-198 -556 -725 0
-200 373 737 0
535 622 702 0
198 574 727 0
-112 365 -522 0
135 337 -680 0
-276 294 -449 0
-142 199 498 0
467 -488 -622 0
316 -604 779 0
-114 249 357 0
-73 -298 -413 0
-133 -512 -620 0
116 -415 759 0
-390 773 797 0
-267 346 -432 0
229 -474 -680 0
319 -493 -719 0
92 338 567 0
578 590 720 0
-50 -369 -759 0
-27 -312 -333 0
297 390 -590 0
397 636 774 0
-91 -144 -193 0
-331 345 665 0
-91 398 -567 0
187 686 782 0
-6 -505 -663 0
-63 226 718 0
-191 -316 658 0
-55 -80 214 0
31 -58 400 0
-170 645 -675 0
154 -704 768 0
615 652 749 0
111 129 -140 0
-425 -495 -656 0
-181 503 -602 0
235 -383 -743 0
142 439 -591 0
276 -344 -788 0
47 293 378 0
-103 -574 697 0
238 426 -612 0
113 -241 435 0
-350 -565 571 0
24 401 -687 0
157 -222 385 0
-165 344 654 0
155 -241 257 0
-133 301 -562 0
169 553 643 0
-111 -395 683 0
-282 376 -786 0
246 592 -727 0
273 444 -685 0
-145 -196 363 0
-497 631 644 0
-13 314 742 0
-204 -296 742 0
-292 -411 -488 0
307 -588 -591 0
-23 228 720 0
16 329 -463 0
376 -737 750 0
483 498 -725 0
-37 78 523 0
48 92 -464 0
-155 -456 -685 0
-143 -266 554 0
-121 -323 -439 0
440 -442 454 0
313 336 542 0
-119 -560 727 0
-285 497 -747 0
348 370 -734 0
446 497 -746 0
-31 -81 455 0
134 351 -620 0
-578 654 753 0
162 604 -681 0
-484 486 795 0
-15 -153 296 0
-320 363 573 0
-90 -197 799 0
372 -384 -429 0
-35 -93 162 0
-81 -463 -678 0
269 -302 783 0
-146 -288 731 0
29 639 -643 0
328 -435 441 0
-24 -45 765 0
56 534 722 0
-554 -668 -774 0
11 -187 -265 0
102 -140 778 0
-290 -326 -757 0
-275 -547 -631 0
570 -625 -775 0
-206 -407 -718 0
-54 675 -721 0
-162 444 -702 0
232 484 -757 0
377 626 -782 0
446 571 740 0
6 340 436 0
441 -511 -664 0
348 615 706 0
-311 -465 466 0
-386 503 -776 0
288 -535 638 0
-6 204 233 0
86 -390 476 0
193 -566 708 0
173 200 464 0
-140 313 345 0
-67 -465 467 0
-374 -587 614 0
-432 465 -716 0
138 -159 303 0
-40 -455 -638 0
161 358 691 0
-103 -138 433 0
278 -295 635 0
-539 598 -774 0
162 347 -620 0
-211 -628 -775 0
144 -204 650 0
185 620 798 0
419 447 -626 0
86 -165 418 0
215 236 441 0
59 475 792 0
-362 471 717 0
-139 -619 634 0
205 309 613 0
-147 697 772 0
-145 -203 -354 0
128 148 209 0
-106 -591 682 0
-427 430 557 0
-241 -274 -554 0
-10 -185 -782 0
192 -374 -378 0
163 -291 588 0
-10 -420 -689 0
-4 449 652 0
116 -433 -733 0
-149 -361 -769 0
-126 -160 -520 0
26 -383 -440 0
-184 -250 -422 0
-164 -232 345 0
326 643 -734 0
-208 -448 -718 0
-127 537 565 0
-489 493 -732 0
-20 -181 -779 0
276 -357 411 0
300 312 629 0
-66 -93 -563 0
-239 -433 504 0
15 -78 -362 0
-39 224 501 0
472 731 767 0
-45 -99 111 0
273 387 -750 0
311 407 -790 0
112 -143 369 0
-49 186 367 0
-140 232 -400 0
-98 308 739 0
-111 -319 598 0
-160 -188 -237 0
301 742 758 0
675 709 716 0
72 212 369 0
163 324 -670 0
33 142 -401 0
99 -158 -706 0
-307 -543 684 0
-161 428 -716 0
134 -428 760 0
-162 392 600 0
-186 382 585 0
240 -463 -697 0
-47 179 -737 0
96 144 -591 0
281 -534 698 0
179 604 -629 0
504 709 757 0
-435 472 -560 0
208 614 692 0
-20 289 684 0
232 -377 558 0
-127 634 -713 0
90 -369 392 0
-77 -95 707 0
70 -166 -352 0
289 562 775 0
451 476 481 0
-589 -638 787 0
703 746 780 0
133 439 -713 0
-8 -214 -689 0
-95 -333 -469 0
495 508 -641 0
-258 -267 492 0
329 -491 -651 0
-288 357 -436 0
104 193 337 0
-213 -225 357 0
218 582 -623 0
364 -465 -588 0
193 377 509 0
-69 -104 258 0
230 -672 727 0
-274 -570 -653 0
450 532 -716 0
-411 550 773 0
-97 700 -748 0
183 -194 -497 0
-487 628 -781 0
54 -117 -456 0
122 225 -760 0
546 590 -708 0
-100 -634 -701 0
-229 -324 -526 0
210 -264 302 0
211 574 595 0
-447 477 -699 0
-130 -272 453 0
-419 501 734 0
348 -541 570 0
346 515 711 0
27 169 -785 0
-446 541 634 0
89 -273 -539 0
-238 -300 -533 0
-165 551 563 0
33 449 -769 0
310 541 -748 0
-18 221 497 0
21 -146 734 0
-20 -185 -260 0
-277 699 742 0
388 661 742 0
251 -324 723 0
-54 85 -386 0
-321 -698 759 0
45 -207 212 0
323 351 -738 0
-42 501 -597 0
-255 483 -680 0
59 145 578 0
-185 563 615 0
310 382 495 0
43 685 796 0
-123 709 -754 0
583 -585 699 0
-214 219 784 0
273 292 443 0
-179 -512 553 0
161 -579 595 0
198 -477 519 0
-160 -256 -309 0
-300 -408 759 0
38 -166 -527 0
94 267 338 0
239 -374 523 0
124 319 -328 0
-555 559 698 0
41 82 217 0
150 536 579 0
59 262 564 0
347 -537 -677 0
-346 498 618 0
-287 -368 731 0
-235 369 655 0
291 -379 794 0
93 -306 -667 0
349 -606 -743 0
-96 662 743 0
-78 367 -505 0
-306 -313 751 0
25 -82 -249 0
430 -590 -659 0
-50 356 -360 0
206 -218 619 0
-5 -53 168 0
-177 443 787 0
-82 -272 580 0
342 447 -496 0
23 -184 -511 0
-29 326 -414 0
133 -394 -794 0
-94 149 -245 0
-505 -660 767 0
-200 223 381 0
72 -440 718 0
81 147 395 0
-61 -132 673 0
-82 -349 -676 0
55 116 -413 0
417 437 761 0
-123 424 -498 0
-154 -469 -799 0
-32 501 563 0
530 -671 -751 0
486 714 -790 0
44 409 -704 0
207 -581 -614 0
518 561 639 0
-355 670 -771 0
86 -354 605 0
88 177 -340 0
-457 -680 684 0
-386 594 598 0
-75 -454 535 0
-108 163 -417 0
114 -270 -410 0
-221 324 -409 0
-140 241 539 0
188 297 552 0
-59 -233 -679 0
198 -255 374 0
-22 -558 -647 0
-29 -226 -707 0
-128 382 585 0
-393 -604 -714 0
-15 -269 286 0
68 125 354 0
456 513 -599 0
312 326 565 0
5 -249 -597 0
-595 -653 670 0
46 -182 -482 0
-366 -724 -768 0
463 -650 734 0
-283 322 354 0
221 -227 -763 0
-129 315 652 0
-63 247 -565 0
205 552 -568 0
-7 -46 241 0
-378 -753 789 0
75 -299 -708 0
24 -54 -235 0
-5 75 -269 0
210 562 615 0
155 -210 270 0
38 558 703 0
-38 -208 687 0
222 438 477 0
-424 572 -599 0
-20 -626 -738 0
253 268 -668 0
192 237 -347 0
61 -432 657 0
520 526 -591 0
1 339 -661 0
-287 322 671 0
-80 -347 -554 0
-170 -240 -575 0
-373 683 769 0
280 353 490 0
-420 459 -477 0
-15 533 706 0
191 -206 -273 0
187 -326 513 0
57 -694 773 0
304 -333 456 0
-440 -493 707 0
10 24 -32 0
32 -150 -322 0
-38 -123 146 0
-67 131 -235 0
-116 167 -504 0
415 -665 749 0
338 666 780 0
426 476 -700 0
27 -296 543 0
-535 637 -736 0
-339 363 472 0
-79 111 -295 0
-214 229 -450 0
-143 -148 -682 0
40 348 727 0
-383 -531 -584 0
-297 358 744 0
227 261 -738 0
220 364 534 0
197 306 528 0
109 -638 -689 0
-385 -601 -668 0
34 -527 -598 0
-83 315 -507 0
370 682 773 0
38 100 151 0
-507 718 -728 0
315 379 573 0
-247 594 -632 0
-121 583 -799 0
568 654 733 0
90 456 -654 0
-370 -423 548 0
-16 338 -620 0
-30 -48 285 0
62 541 -678 0
-490 -712 -783 0
-102 -249 474 0
-397 -442 713 0
-212 398 -455 0
356 759 781 0
236 262 754 0
154 230 -352 0
-56 204 432 0
-136 316 625 0
174 581 -763 0
131 -138 -210 0
-144 -567 628 0
220 -243 280 0
-190 600 -636 0
-98 138 194 0
-219 -694 -752 0
-178 -315 646 0
54 -488 -723 0
94 331 -783 0
295 -501 546 0
43 269 634 0
-92 393 -605 0
25 -450 713 0
307 467 -521 0
-154 -610 741 0
134 388 776 0
18 564 673 0
-9 633 693 0
-14 -699 -784 0
213 551 -568 0
-218 -275 648 0
-92 357 -631 0
278 -600 -743 0
29 76 706 0
48 -182 522 0
58 749 762 0
272 -418 542 0
-265 353 481 0
-356 373 -799 0
-508 681 734 0
324 -612 625 0
-306 -557 -610 0
422 -453 721 0
-17 606 -651 0
-219 -479 -779 0
210 678 -789 0
294 458 798 0
-334 -686 745 0
-59 -236 780 0
164 472 669 0
-509 726 790 0
-175 288 -492 0
209 262 -550 0
-237 -274 538 0
-17 -153 -274 0
-198 -486 -733 0
12 198 784 0
-193 575 -642 0
-164 -305 -355 0
162 663 -718 0
247 547 -651 0
-78 139 -552 0
402 407 709 0
201 294 -422 0
247 400 708 0
-119 -165 -718 0
72 -288 432 0
377 417 -506 0
18 515 -530 0
-154 302 -403 0
330 -531 589 0
-38 -506 -532 0
373 377 657 0
-284 -293 411 0
94 -393 408 0
1 -68 -204 0
434 -522 715 0
334 351 -648 0
99 135 329 0
28 -407 -435 0
-435 559 673 0
-120 305 -771 0
-198 514 701 0
222 -404 -569 0
165 287 403 0
-252 515 -714 0
-289 -586 690 0
79 -151 -354 0
-162 390 449 0
-23 449 -555 0
247 -353 645 0
-27 691 -708 0
119 242 435 0
15 -47 -486 0
480 -707 714 0
-65 -265 307 0
271 361 -734 0
350 672 -718 0
-134 -497 744 0
269 350 603 0
-73 -81 187 0
305 -377 -465 0
-206 239 490 0
-714 756 759 0
61 -350 521 0
78 -509 759 0
-73 -141 157 0
437 -500 -627 0
68 240 297 0
-164 482 -549 0
-113 473 -691 0
85 -184 264 0
-116 -396 -477 0
-208 320 452 0
-22 -57 -650 0
-297 -617 -787 0
496 -662 663 0
-165 -517 -737 0
-140 -352 366 0
99 344 -427 0
222 -411 655 0
74 -564 -663 0
316 518 -569 0
390 484 -546 0
44 -116 484 0
274 419 564 0
-298 -349 -727 0
-193 489 558 0
-42 -96 456 0
197 594 751 0
232 -448 -455 0
143 384 -665 0
408 -470 798 0
-120 -510 -783 0
74 -488 765 0
273 532 -744 0
91 517 550 0
-137 -215 613 0
614 648 684 0
175 -481 647 0
442 -472 610 0
10 77 259 0
-82 -301 638 0
161 -417 729 0
73 210 422 0
-147 -231 -596 0
616 662 713 0
-223 546 -782 0
17 97 -301 0
23 266 -297 0
298 -682 -728 0
-78 -92 -616 0
295 384 410 0
589 655 742 0
310 -318 -694 0
359 410 -469 0
224 453 510 0
50 256 -636 0
96 -252 591 0
32 -363 -709 0
22 532 703 0
-88 198 -456 0
174 367 -509 0
-241 411 -717 0
-269 381 -756 0
564 641 -749 0
-484 -506 -634 0
-126 -144 -158 0
97 -516 -769 0
-32 577 619 0
-235 334 429 0
-8 -233 -716 0
-130 -131 689 0
100 489 -655 0
-3 164 -391 0
-314 -380 -425 0
-167 180 -279 0
-382 736 -785 0
46 73 -261 0
276 407 -641 0
-369 590 -730 0
45 -229 485 0
-179 212 -615 0
519 -611 688 0
72 -234 -461 0
395 -661 -668 0
-43 -71 486 0
130 -171 -439 0
228 -248 438 0
609 -635 -693 0
37 571 743 0
270 -522 -589 0
-125 -231 705 0
223 563 -633 0
-107 -326 -456 0
77 -600 698 0
176 -407 -433 0
82 -135 -440 0
-649 -737 -766 0
-147 -248 -526 0
179 -377 -745 0
-231 -257 503 0
149 -707 -715 0
-285 -344 -410 0
-87 319 579 0
-45 -234 433 0
711 -726 792 0
-66 270 737 0
-31 -235 382 0
53 -502 797 0
217 531 -631 0
-237 464 558 0
-127 -534 781 0
-317 330 -422 0
122 -220 428 0
-552 -605 -656 0
-133 -323 408 0
137 174 434 0
414 -428 -452 0
-193 -543 -797 0
-295 -563 590 0
258 -348 775 0
464 643 708 0
-135 298 750 0
81 327 554 0
-50 -517 724 0
-101 203 -369 0
35 -621 652 0
-3 -575 771 0
188 -326 624 0
-124 -315 -778 0
100 177 471 0
397 704 777 0
-25 376 593 0
87 538 763 0
-63 -245 308 0
105 -129 644 0
-155 -647 659 0
428 -534 752 0
492 -573 -603 0
-273 581 -742 0
-125 254 443 0
307 369 -569 0
50 -572 -722 0
-260 -749 783 0
-348 383 460 0
442 485 594 0
20 -288 -696 0
161 -228 345 0
-129 -613 641 0
3 295 -343 0
-20 -307 779 0
-311 -607 682 0
83 508 706 0
332 -655 -687 0
-172 -485 532 0
-11 734 792 0
189 395 642 0
73 92 -102 0
90 209 -233 0
156 316 -337 0
368 -741 -751 0
-167 -272 -735 0
515 -521 -749 0
182 500 512 0
209 -613 -698 0
21 -607 639 0
-145 623 -689 0
-194 283 -605 0
-107 138 654 0
-570 594 -671 0
207 -362 435 0
7 25 383 0
-75 -272 392 0
-74 -270 -533 0
-100 -178 -546 0
350 560 -674 0
-44 550 -768 0
-506 560 699 0
-167 359 604 0
214 290 769 0
-160 -624 666 0
132 -237 -508 0
266 603 727 0
166 452 -737 0
-2 201 -630 0
65 -222 253 0
126 -145 -298 0
686 701 709 0
18 -103 527 0
42 289 642 0
-343 -407 700 0
-32 -119 698 0
-27 -467 -507 0
56 203 648 0
60 -419 -479 0
105 558 744 0
-27 72 -280 0
158 -480 729 0
153 237 369 0
-112 167 318 0
405 764 -791 0
79 -290 -571 0
-483 586 -661 0
67 415 -465 0
-54 -401 -461 0
-154 -430 575 0
-143 -280 -650 0
111 386 734 0
-388 -612 -717 0
-472 -540 -723 0
-250 -453 724 0
121 458 -665 0
-524 592 -619 0
435 489 -524 0
-111 -331 -792 0
-175 221 -673 0
27 550 -685 0
105 -207 -800 0
193 496 -656 0
276 -445 -609 0
-327 551 793 0
-251 505 700 0
86 129 -255 0
104 335 721 0
-160 -498 578 0
-353 -728 784 0
266 -450 597 0
501 -583 693 0
163 -280 420 0
271 346 761 0
409 -491 766 0
135 564 -610 0
-8 187 532 0
-445 -588 615 0
38 -246 508 0
94 -441 593 0
149 584 672 0
-28 -96 -208 0
-173 -331 -560 0
-139 338 764 0
160 -197 741 0
-3 144 232 0
155 325 -605 0
-284 427 -493 0
-29 -472 -617 0
149 -422 -762 0
107 -602 623 0
71 399 -792 0
-349 -643 -720 0
143 -357 639 0
-29 657 743 0
-326 -328 -624 0
-523 637 -764 0
-300 -435 -632 0
142 -205 668 0
-385 489 725 0
82 283 -449 0
-143 282 -401 0
-405 418 -474 0
-211 -221 754 0
69 -352 -399 0
82 -257 -577 0
388 -696 -775 0
-176 511 587 0
38 -327 -662 0
40 309 717 0
-2 509 -744 0
199 560 -605 0
216 -527 699 0
46 711 798 0
72 -193 -784 0
301 580 -665 0
-495 -774 -786 0
60 -500 -562 0
235 430 716 0
20 -109 617 0
89 273 -722 0
-124 -313 -566 0
-326 353 517 0
-276 436 517 0
-198 355 481 0
-485 676 764 0
377 -488 614 0
-292 -457 -589 0
320 595 -738 0
418 -560 -608 0
-341 -431 647 0
186 -666 681 0
352 -464 -712 0
-212 332 -523 0
-438 439 609 0
123 -140 219 0
286 559 -596 0
-500 -637 676 0
-15 64 -298 0
360 -664 -692 0
-306 557 -603 0
429 -430 -629 0
502 -559 705 0
-363 565 681 0
142 279 397 0
-364 688 -795 0
-465 -590 597 0
137 -741 -775 0
-196 -388 -620 0
-376 396 643 0
-169 -224 563 0
-58 -455 473 0
-189 516 -588 0
76 223 648 0
-49 -535 -621 0
-206 -344 560 0
273 -731 -800 0
-98 211 -792 0
54 130 645 0
40 -391 472 0
-100 417 710 0
-243 -312 602 0
598 769 -799 0
-313 385 696 0
230 266 -378 0
-388 403 781 0
56 -371 -564 0
108 -335 348 0
-353 558 -711 0
263 561 -677 0
325 -459 -757 0
319 464 -682 0
129 -167 -379 0
-124 540 -559 0
-14 589 -713 0
75 177 478 0
20 322 324 0
326 419 667 0
-445 -621 739 0
40 575 684 0
-13 276 -338 0
-73 -115 696 0
-9 -346 578 0
-244 321 -512 0
-41 576 -662 0
-261 486 535 0
-265 -384 -538 0
-242 468 568 0
-245 -274 -552 0
98 -633 -780 0
164 566 -620 0
184 -313 383 0
248 -441 -581 0
321 426 568 0
-194 -536 775 0
41 252 526 0
231 -412 590 0
-98 358 399 0
36 -239 -339 0
-128 -308 765 0
345 501 522 0
-255 676 677 0
-357 -788 798 0
201 -550 770 0
-121 -123 453 0
374 626 -689 0
4 -191 -322 0
226 -698 767 0
-141 -233 573 0
-268 758 791 0
-250 553 685 0
-416 429 461 0
140 169 448 0
209 499 -744 0
241 639 750 0
368 404 -559 0
-98 -499 -634 0
37 -551 648 0
-252 -554 656 0
75 135 667 0
98 -107 742 0
-76 527 -638 0
-266 439 459 0
-58 -225 280 0
389 -553 772 0
434 -545 729 0
394 473 -532 0
178 202 271 0
495 -571 781 0
-296 444 504 0
215 -482 -566 0
220 -598 -621 0
160 -281 398 0
-234 348 436 0
14 -505 537 0
94 295 -476 0
183 -365 -621 0
-16 -573 759 0
-117 -369 591 0
288 -478 -493 0
-134 306 567 0
91 111 -506 0
291 310 550 0
84 279 -790 0
-288 404 451 0
-166 404 576 0
396 -418 691 0
-73 146 -758 0
83 -223 -329 0
-137 176 -514 0
-264 -297 680 0
-11 -265 -314 0
-151 547 -587 0
343 503 -519 0
43 -145 -195 0
120 -281 -578 0
378 -615 -616 0
-64 -181 -623 0
-12 -484 684 0
125 -284 738 0
-32 -231 313 0
-325 -380 -677 0
381 -737 -798 0
-131 201 -582 0
34 -80 -675 0
-179 -243 -385 0
-115 669 755 0
-64 399 -572 0
-485 -694 700 0
-4 474 486 0
137 -139 -204 0
566 -661 -676 0
-83 -149 762 0
82 -255 -459 0
-33 -420 -638 0
73 95 375 0
103 234 617 0
-99 -112 633 0
105 533 -740 0
73 690 -752 0
133 252 391 0
72 151 253 0
-129 -664 745 0
-61 246 -737 0
502 -535 -584 0
-69 -217 378 0
122 476 623 0
226 239 -541 0
77 243 424 0
-182 -394 779 0
37 -346 -627 0
-406 -539 -628 0
-57 -193 -766 0
-102 391 -515 0
308 -356 471 0
-43 59 797 0
-77 217 -685 0
329 -445 661 0
-471 688 781 0
172 -465 -747 0
-98 -133 -665 0
467 -724 736 0
-561 -662 780 0
-39 534 -667 0
-110 -222 331 0
376 -527 -709 0
-330 362 786 0
-208 -427 450 0
148 281 -706 0
-458 631 -796 0
-57 164 216 0
717 -752 776 0
292 -587 790 0
-210 -579 -594 0
-406 -457 -733 0
-261 -403 423 0
69 218 476 0
-170 -723 -730 0
-130 -178 -370 0
62 608 703 0
488 679 -776 0
681 730 -745 0
129 254 -626 0
239 262 725 0
-34 -86 270 0
-305 -337 -732 0
-268 -704 -731 0
66 449 -580 0
-184 -185 606 0
93 -222 381 0
-27 94 -155 0
82 -629 -670 0
-167 294 -647 0
-43 -94 132 0
-147 782 -795 0
-163 472 -775 0
-5 -206 714 0
45 172 699 0
-99 261 -265 0
48 532 713 0
156 165 -231 0
-82 -342 -659 0
-304 657 -741 0
69 249 590 0
58 125 325 0
273 619 -701 0
97 -254 -605 0
129 -552 741 0
40 -260 507 0
572 -743 -748 0
-236 322 543 0
-31 57 499 0
-45 138 -593 0
-252 416 450 0
-191 255 604 0
-394 461 609 0
-43 -324 -615 0
152 314 332 0
-149 -358 734 0
17 139 590 0
-50 -600 603 0
263 418 587 0
526 527 -789 0
-95 383 800 0
445 -528 712 0
66 558 649 0
303 -624 667 0
352 -625 654 0
191 -240 -458 0
41 350 -683 0
-58 -453 602 0
-194 -693 -712 0
60 -84 -206 0
545 -556 559 0
314 -412 -511 0
14 511 -583 0
-190 -600 -722 0
-376 -458 -587 0
-163 413 550 0
35 -123 321 0
341 -355 582 0
67 306 648 0
292 -578 611 0
82 183 -633 0
234 457 -485 0
-131 -439 699 0
-133 -663 -778 0
-83 -287 -647 0
135 -235 -612 0
-11 411 531 0
216 422 714 0
80 600 636 0
135 206 737 0
260 475 -726 0
118 409 -552 0
-2 -291 -352 0
408 527 603 0
-334 366 -428 0
-162 -544 656 0
76 176 -595 0
-243 499 -642 0
66 340 -667 0
-258 428 -446 0
-23 -449 -744 0
-74 227 530 0
290 -661 -791 0
387 -395 747 0
39 -188 -219 0
295 455 651 0
-155 -258 623 0
-126 235 -400 0
225 300 768 0
231 516 589 0
175 -295 -768 0
38 400 -473 0
-72 -383 -404 0
-623 -671 -751 0
349 -561 -586 0
-90 -640 699 0
219 233 454 0
-138 -365 641 0
-176 360 -696 0
-102 679 -756 0
210 -427 -742 0
77 583 678 0
-74 650 711 0
-103 640 -765 0
-313 -572 611 0
32 105 684 0
-144 -202 797 0
-37 180 591 0
43 -197 692 0
163 244 428 0
-45 -142 -158 0
-129 -333 641 0
-469 516 576 0
18 631 -737 0
-15 -410 -723 0
-39 -176 726 0
-294 701 -744 0
-28 575 696 0
-321 611 624 0
272 -677 681 0
-28 -413 -539 0
-326 627 672 0
-156 195 506 0
-551 -586 -784 0
141 460 -597 0
166 397 -685 0
434 629 -784 0
129 -726 752 0
147 -168 -605 0
171 -637 -659 0
-70 151 -433 0
158 606 685 0
335 -477 646 0
-383 -394 -620 0
70 -265 -327 0
-305 311 -604 0
-316 -435 -521 0
165 -189 -303 0
-51 197 356 0
124 -468 -685 0
-289 -292 -761 0
362 -387 675 0
106 -519 -796 0
-229 336 682 0
-320 519 -617 0
53 -125 570 0
426 428 -441 0
252 -703 -738 0
282 335 652 0
47 -563 -579 0
-21 374 -502 0
-2 300 531 0
11 -533 -784 0
-556 662 742 0
579 -681 -682 0
-47 -348 -704 0
-12 85 786 0
-26 409 -737 0
-596 -618 -692 0
121 -215 414 0
267 613 -698 0
-171 -267 -292 0
-171 297 -436 0
-191 485 645 0
209 -413 -743 0
122 420 784 0
-346 -427 -712 0
124 -227 649 0
-99 -122 405 0
-208 -427 632 0
-205 -718 768 0
358 413 611 0
435 618 -685 0
-244 -443 -708 0
-51 -144 765 0
103 306 -750 0
-222 -242 573 0
164 216 -686 0
-113 305 -707 0
103 204 -506 0
-62 478 -485 0
121 -617 785 0
298 626 -674 0
-239 -471 474 0
17 -166 -740 0
97 265 -382 0
-306 -652 -713 0
-38 305 669 0
146 -569 -748 0
332 -484 763 0
-91 -453 752 0
-159 513 -549 0
386 -600 -613 0
-130 -216 -390 0
182 -237 -488 0
217 -391 -669 0
-221 299 -767 0
-184 -523 616 0
-499 -576 741 0
-266 -527 -789 0
-281 -477 544 0
134 -174 688 0
-139 425 781 0
-34 85 199 0
-16 -300 -393 0
-529 -549 618 0
-72 205 -254 0
205 399 480 0
60 -79 616 0
-195 206 384 0
93 563 637 0
608 637 719 0
547 -684 -785 0
-474 -541 719 0
-47 76 -374 0
-71 -563 -653 0
-5 225 632 0
-362 -601 698 0
2 -96 -728 0
-362 -759 798 0
-53 -141 156 0
27 429 -737 0
375 -664 -748 0
-297 328 -624 0
163 -406 623 0
21 -119 -250 0
-185 265 -725 0
208 -434 -498 0
-275 -356 568 0
235 517 -723 0
135 289 495 0
-203 -769 -792 0
8 -316 538 0
36 165 -604 0
268 604 -768 0
-451 512 -594 0
-42 -594 609 0
-66 254 550 0
246 658 -770 0
-79 320 340 0
-219 -251 598 0
47 579 -721 0
-167 -575 -596 0
95 207 -325 0
103 213 -392 0
67 -314 -353 0
179 537 -712 0
-567 -639 655 0
-575 671 725 0
-399 -661 762 0
-314 454 545 0
-128 -227 -508 0
-58 438 681 0
-20 -374 686 0
138 322 567 0
-276 -318 -570 0
-352 -568 -793 0
62 77 -378 0
-158 245 719 0
-334 -564 -588 0
-306 -466 793 0
-372 -589 -741 0
-21 267 -570 0
-204 259 576 0
146 -336 -614 0
618 -619 676 0
-297 -512 572 0
58 67 -516 0
37 -122 766 0
-5 -167 544 0
7 152 399 0
-54 -338 540 0
-1 -43 -138 0
191 -372 746 0
-694 725 -784 0
-97 -477 530 0
-130 356 373 0
185 265 -587 0
-34 216 625 0
-211 461 -484 0
-136 -163 -283 0
-361 -598 729 0
-352 -535 744 0
