c Phase 3 random 3-SAT negative control
c seed=31044
c ratio=4.26
c variant=planted_sat
c expected=SATISFIABLE
p cnf 800 3408
-28 769 774 0
197 -365 639 0
18 24 -392 0
10 -557 -582 0
480 -681 -749 0
-332 469 -540 0
386 -461 713 0
-153 -219 679 0
-45 276 687 0
-60 -211 -763 0
622 688 773 0
148 -551 590 0
210 345 -546 0
432 -661 749 0
-42 -216 376 0
160 -331 774 0
60 237 -322 0
-180 327 -632 0
56 -81 -321 0
-585 757 -797 0
-13 -133 449 0
-182 -346 -784 0
106 -202 -516 0
40 -187 -287 0
-398 417 -547 0
229 -353 474 0
217 -625 626 0
121 493 -569 0
1 -229 525 0
294 -491 624 0
-81 450 -685 0
-416 -578 -764 0
409 -542 -648 0
-250 -374 486 0
161 229 674 0
-175 -467 729 0
-83 526 -603 0
114 -638 748 0
-157 -179 -288 0
254 399 554 0
-610 -670 -702 0
-238 260 756 0
-64 -284 310 0
-61 -406 442 0
-74 -531 -695 0
-38 -371 666 0
-663 -721 -735 0
152 -393 671 0
-159 281 693 0
-97 291 547 0
-125 -519 681 0
137 312 716 0
357 549 764 0
-50 -192 479 0
14 142 338 0
64 -72 -341 0
-31 -314 -780 0
-261 363 -616 0
170 184 698 0
260 -375 -760 0
-258 341 372 0
-91 -93 519 0
419 -624 -799 0
-40 321 -725 0
-77 306 668 0
429 494 704 0
-161 -198 340 0
-576 587 -793 0
-129 -188 -402 0
-591 -604 609 0
-15 161 -794 0
30 -176 413 0
-247 592 621 0
-438 -649 690 0
106 550 798 0
-42 -672 701 0
-387 -474 -646 0
208 -306 -560 0
69 -332 571 0
127 309 316 0
-183 244 -519 0
-431 466 -504 0
434 -472 590 0
-11 -44 -632 0
102 -433 671 0
270 -726 729 0
151 403 -709 0
-13 731 785 0
293 313 -474 0
15 -63 724 0
164 -241 753 0
-195 -576 641 0
-24 -322 627 0
146 -382 -429 0
64 355 -562 0
463 692 -755 0
-102 154 176 0
182 -460 580 0
-280 -412 -517 0
-220 371 -712 0
-65 -66 505 0
-263 483 692 0
316 -609 -679 0
409 -509 -765 0
102 200 755 0
136 257 528 0
-31 -582 -722 0
-283 -542 797 0
-14 145 299 0
136 337 772 0
190 377 -614 0
337 389 -432 0
143 -327 -732 0
-305 534 -705 0
519 -675 -745 0
-381 -431 610 0
-185 -583 -686 0
17 419 588 0
-18 -387 651 0
-56 169 560 0
133 571 644 0
-186 -233 772 0
-305 -307 378 0
100 315 -428 0
23 285 401 0
-221 -355 794 0
-53 -368 -552 0
123 -153 -440 0
310 614 -649 0
37 363 655 0
-226 -470 -478 0
377 -618 -744 0
-43 220 -286 0
-176 -248 -798 0
52 -267 -533 0
-22 -25 -686 0
198 415 475 0
-219 -223 -303 0
-181 373 592 0
302 561 653 0
309 443 507 0
254 -371 -624 0
-323 -448 -514 0
-40 -391 -540 0
80 -231 583 0
-482 614 -635 0
-70 -142 -326 0
273 433 -441 0
523 531 -610 0
152 576 741 0
170 207 -693 0
-8 -206 579 0
-419 -565 749 0
-104 393 -594 0
-85 -276 -695 0
263 380 789 0
-241 -460 -560 0
-283 -511 762 0
-43 -293 635 0
530 674 -758 0
-42 -141 465 0
-376 -540 721 0
3 228 330 0
239 285 525 0
1 64 269 0
2 -79 694 0
-233 317 -421 0
-269 445 629 0
315 563 645 0
205 -626 643 0
-175 337 -798 0
-163 -468 -548 0
-230 236 420 0
50 71 -331 0
-113 142 475 0
193 -513 -700 0
447 -581 -734 0
61 280 569 0
-214 -401 419 0
-163 -220 -270 0
-240 -467 -680 0
331 465 -674 0
124 600 -751 0
330 -339 659 0
-136 -454 -748 0
721 -724 -773 0
-502 -648 680 0
-218 328 434 0
-194 -391 -547 0
-236 358 -606 0
-189 -610 758 0
156 -184 -724 0
-131 395 -478 0
-146 307 -408 0
301 368 570 0
-162 -189 -661 0
-4 -96 613 0
173 -345 595 0
59 169 -225 0
170 -219 -430 0
253 -277 779 0
128 -452 -467 0
70 -158 591 0
14 -68 361 0
-121 315 -389 0
-42 -390 -534 0
425 -514 605 0
52 584 -775 0
-2 549 -695 0
-484 627 635 0
-113 146 -165 0
-138 -250 -798 0
-55 197 -202 0
357 -449 641 0
-255 -296 589 0
-97 116 693 0
187 513 800 0
24 -257 679 0
-123 363 -459 0
33 -490 565 0
-347 464 -756 0
-162 273 -650 0
-265 428 705 0
100 -151 -493 0
181 -467 -525 0
-46 -247 -544 0
39 162 -765 0
67 -381 -554 0
539 -563 -682 0
194 -572 756 0
459 548 -774 0
-513 -544 723 0
-232 -373 -522 0
51 -367 468 0
618 629 760 0
58 -71 584 0
-84 188 -585 0
-124 -183 -641 0
-279 283 -540 0
-92 -305 336 0
-43 -64 334 0
94 -316 -674 0
-67 611 -707 0
-266 603 -690 0
100 -234 -595 0
-149 -423 428 0
-205 471 -621 0
-46 -405 -623 0
-512 687 -769 0
364 578 -770 0
11 -137 -347 0
605 -661 704 0
212 593 -734 0
242 -636 715 0
-164 402 -487 0
-34 162 624 0
-16 288 762 0
-283 -468 -520 0
-73 -535 741 0
120 349 487 0
350 706 729 0
2 302 -476 0
-47 -287 381 0
-69 323 -552 0
216 -570 789 0
493 521 733 0
-87 -315 543 0
-216 -482 622 0
8 -43 -617 0
-211 453 -604 0
-172 490 -708 0
-289 556 -799 0
-57 490 -746 0
-144 -295 -421 0
251 -456 764 0
-135 -679 -782 0
484 524 781 0
14 -239 -328 0
210 -431 -577 0
23 -68 -113 0
110 548 -647 0
218 308 -610 0
-445 -570 573 0
-255 642 739 0
-231 240 559 0
-150 343 -650 0
-203 520 -762 0
111 -410 -633 0
-347 518 644 0
222 258 758 0
-267 277 -749 0
-283 -353 653 0
-43 272 -664 0
-139 236 -706 0
-549 711 -752 0
-365 -631 743 0
-31 226 -601 0
585 707 -748 0
28 158 -780 0
-202 362 -468 0
11 -192 -792 0
-423 -607 -751 0
87 -498 -635 0
-227 640 786 0
-508 549 600 0
452 -555 787 0
-21 -152 685 0
207 318 419 0
-424 646 724 0
159 -618 694 0
-34 479 -487 0
140 381 454 0
-125 571 -641 0
-433 472 506 0
-188 297 767 0
-268 751 789 0
-55 130 -750 0
263 -775 -796 0
-38 -275 771 0
21 485 607 0
175 443 -548 0
350 390 713 0
-51 509 -713 0
108 316 -375 0
74 -154 -739 0
-355 -392 -420 0
-274 -385 610 0
-304 465 -731 0
-100 254 477 0
-124 -658 781 0
429 -625 -626 0
348 -507 556 0
173 -480 587 0
-136 -358 -633 0
86 -282 477 0
-72 -500 -645 0
76 -103 -701 0
-636 -736 -778 0
-69 -404 487 0
396 561 668 0
165 -181 -355 0
-222 -349 359 0
-77 -262 644 0
-452 -470 564 0
-422 569 -782 0
-157 -218 481 0
-69 214 -505 0
79 -160 -584 0
373 -699 761 0
98 -580 -762 0
465 503 595 0
578 -593 617 0
-200 -515 741 0
-226 492 -769 0
163 -185 503 0
163 -505 733 0
-427 -625 -669 0
559 609 790 0
188 412 604 0
396 676 700 0
-163 -433 464 0
-163 526 -614 0
12 -479 746 0
-60 294 570 0
427 -588 657 0
-11 -196 -210 0
-516 578 646 0
-388 -583 796 0
-118 -490 -736 0
-274 -790 796 0
-228 463 -651 0
-595 -656 799 0
33 -159 754 0
49 -373 -547 0
86 319 -664 0
481 494 585 0
-100 194 577 0
654 752 768 0
-50 681 719 0
-20 -28 -775 0
-47 -170 -319 0
45 483 669 0
166 -443 -474 0
400 -472 -490 0
-366 -440 591 0
-87 718 738 0
259 721 -739 0
508 -592 768 0
-495 535 -612 0
238 -546 -673 0
-34 112 173 0
69 -130 370 0
-34 -109 -138 0
-187 332 560 0
259 557 693 0
-146 215 721 0
84 239 284 0
46 -516 681 0
-107 255 339 0
58 445 -529 0
571 -736 -763 0
-36 74 -226 0
192 -318 -699 0
-167 -559 -592 0
89 327 436 0
-83 605 -719 0
-485 539 541 0
310 -429 -782 0
47 62 296 0
-54 691 -699 0
42 -73 -144 0
121 199 -253 0
-43 195 -371 0
-61 -413 621 0
-75 -158 753 0
-32 301 469 0
335 -356 790 0
178 232 460 0
235 -470 573 0
-142 594 -699 0
151 -580 -627 0
31 -476 478 0
-9 -486 721 0
-257 -364 -446 0
151 -391 -608 0
34 -113 -438 0
-369 -561 -678 0
-400 638 727 0
570 -589 743 0
43 566 -675 0
-147 310 792 0
-43 456 -749 0
344 -641 706 0
26 -287 -624 0
-302 390 -625 0
-270 -307 -632 0
-19 268 -460 0
-60 289 314 0
-99 343 -387 0
473 -615 627 0
62 -122 -625 0
-433 482 572 0
-22 76 -730 0
133 -344 -521 0
320 -457 557 0
-185 -366 -394 0
208 -716 -737 0
180 538 761 0
133 605 -744 0
25 287 739 0
44 192 -252 0
-61 -220 786 0
-43 274 800 0
178 -239 -704 0
-166 468 564 0
204 -406 415 0
334 -369 -429 0
18 361 480 0
22 229 658 0
629 739 772 0
116 618 663 0
-417 429 515 0
-203 555 778 0
168 -352 -659 0
-231 -642 -784 0
39 45 -76 0
-123 255 540 0
185 436 -490 0
191 -310 707 0
7 -455 688 0
-390 -644 765 0
108 -251 -605 0
-199 -711 792 0
79 -206 -293 0
-156 -407 -791 0
-34 334 780 0
181 -605 694 0
-234 -243 -368 0
-126 512 794 0
106 386 652 0
313 521 -646 0
315 -436 -539 0
-49 -162 438 0
374 -455 541 0
130 -345 722 0
150 -576 630 0
147 249 701 0
274 -690 -699 0
-2 138 -664 0
16 94 499 0
246 383 406 0
87 261 -331 0
-545 601 -738 0
-60 -132 -157 0
-87 -351 -716 0
-320 -389 457 0
272 578 767 0
417 -445 -776 0
-5 -221 -309 0
42 -293 563 0
-218 219 -392 0
-217 -346 508 0
394 476 -589 0
265 -583 607 0
-399 761 -793 0
44 -314 362 0
87 -131 -258 0
-107 -458 715 0
122 129 615 0
-487 590 -678 0
-38 151 540 0
-345 354 -652 0
500 -520 791 0
26 -286 462 0
415 680 -696 0
15 172 -295 0
32 -225 416 0
-95 419 491 0
-175 -500 -677 0
154 527 -578 0
-178 243 -760 0
-386 445 -499 0
-255 -673 -689 0
304 596 -616 0
-194 -301 -600 0
-30 307 551 0
206 -539 577 0
-324 -726 727 0
173 230 -286 0
-176 -461 524 0
-389 -596 -686 0
-117 -425 517 0
-550 645 -789 0
138 200 -762 0
598 717 -783 0
-82 -641 776 0
117 -658 746 0
269 -398 -470 0
-98 -621 676 0
-107 421 -472 0
-299 -381 496 0
181 -207 -620 0
-105 174 -290 0
104 130 -612 0
-178 -537 655 0
654 717 771 0
293 385 426 0
214 244 653 0
204 -527 -770 0
145 -213 -752 0
30 -167 439 0
475 633 -784 0
-87 286 -344 0
298 579 633 0
-638 714 -762 0
-513 584 748 0
-182 543 763 0
-258 345 402 0
-116 -210 -431 0
-105 -324 615 0
318 -462 759 0
-212 466 -643 0
185 -619 631 0
-107 -538 726 0
232 -597 707 0
148 -492 -501 0
-247 -299 -499 0
-1 387 -694 0
447 -453 -522 0
-203 -225 722 0
12 171 765 0
227 -652 683 0
1 -65 -654 0
-89 -428 555 0
363 -379 -783 0
-88 372 -780 0
-477 -651 -683 0
-113 -383 745 0
535 659 -780 0
328 -612 739 0
104 -254 -727 0
263 -266 -461 0
92 461 -589 0
-11 -212 -689 0
33 -45 -724 0
-280 -444 492 0
-70 209 -534 0
311 515 -561 0
249 333 703 0
-520 -601 637 0
-194 509 -735 0
-225 256 -565 0
476 505 -692 0
246 381 704 0
-11 -125 429 0
29 35 175 0
139 669 -789 0
-34 58 498 0
-304 -723 779 0
469 -551 -698 0
-180 -225 660 0
-501 -633 -663 0
-171 544 618 0
-22 135 -674 0
490 -524 -758 0
106 -233 -446 0
-262 -305 -398 0
-164 362 -464 0
-511 -672 675 0
-517 -600 -737 0
136 -289 370 0
337 -368 -624 0
-87 119 480 0
213 -236 -728 0
87 -378 -397 0
52 -214 -616 0
77 762 -768 0
-206 -316 761 0
5 123 226 0
160 411 -514 0
-197 202 584 0
315 547 548 0
173 -366 679 0
234 321 -497 0
-160 205 465 0
-148 322 627 0
192 -331 -798 0
129 -505 629 0
-44 299 -646 0
88 -266 757 0
497 -673 -777 0
-88 517 637 0
-55 -295 -598 0
-234 341 563 0
-129 173 -475 0
199 -231 577 0
66 -179 394 0
-227 443 464 0
420 -564 640 0
-534 -694 -796 0
644 -735 -754 0
-302 760 -764 0
-79 -547 -621 0
290 -710 -792 0
701 -735 -753 0
-257 400 -734 0
-34 -368 487 0
122 -305 -634 0
217 -287 -627 0
75 218 721 0
-121 430 -589 0
-334 -361 -701 0
322 353 -430 0
-134 649 681 0
85 134 245 0
-452 -485 600 0
127 -256 436 0
-356 -545 610 0
-165 643 726 0
-129 -433 -619 0
135 396 710 0
-40 395 -649 0
-340 -701 732 0
-550 -688 783 0
101 287 -652 0
56 -118 777 0
-592 599 -770 0
29 -39 -652 0
-89 382 585 0
429 -623 -767 0
255 412 -738 0
-152 304 765 0
140 -380 531 0
-138 514 -798 0
46 168 -309 0
-166 -240 554 0
-16 269 -332 0
34 -352 686 0
-75 -494 -576 0
194 -335 499 0
106 634 -661 0
-274 -324 733 0
17 -536 -609 0
-392 -570 -614 0
-3 -228 -389 0
128 -374 435 0
236 -508 -705 0
481 -592 -706 0
94 -487 652 0
19 124 601 0
-620 652 -726 0
-52 165 465 0
-215 416 -641 0
-289 -338 -457 0
-304 -419 455 0
-106 338 794 0
127 -232 286 0
77 397 723 0
-224 673 -760 0
-226 267 711 0
-28 757 795 0
50 625 -734 0
-77 96 -786 0
-101 666 -668 0
247 -391 -783 0
-405 -610 642 0
362 -426 698 0
402 -674 -767 0
-300 342 -519 0
-527 607 687 0
418 512 -689 0
192 -357 769 0
-525 558 -567 0
-582 609 -780 0
-586 653 -664 0
455 542 694 0
-7 -274 -336 0
-36 399 429 0
-307 375 -645 0
-183 -349 -602 0
-30 -398 -602 0
684 709 -789 0
-110 385 -569 0
-150 -275 -467 0
-388 -624 -691 0
74 -86 660 0
-66 205 375 0
460 -525 -550 0
391 642 684 0
-632 -713 -724 0
-179 329 692 0
67 190 -307 0
-96 -299 -703 0
4 84 -479 0
304 362 767 0
86 -109 -233 0
354 -647 -689 0
-348 698 759 0
-146 203 -523 0
184 -571 781 0
106 366 447 0
153 341 644 0
334 673 682 0
55 388 -505 0
213 373 729 0
-113 -148 -586 0
-380 -433 -635 0
36 -68 -436 0
134 286 -718 0
-105 -118 -330 0
-288 426 -769 0
178 572 -624 0
175 -653 -777 0
-464 -581 723 0
-355 -711 728 0
-139 -227 313 0
-115 188 -509 0
11 255 -726 0
-68 252 658 0
-473 -652 736 0
577 618 761 0
-382 -612 647 0
-76 579 -598 0
382 -751 -760 0
-85 -113 657 0
-25 498 -623 0
-89 -98 161 0
262 324 -684 0
-525 -557 561 0
461 570 684 0
510 664 792 0
20 229 -456 0
500 -550 739 0
17 -467 -490 0
109 306 -316 0
178 -206 378 0
328 437 -487 0
-8 -597 782 0
389 714 -727 0
-78 83 -212 0
-29 -165 202 0
-177 261 -695 0
270 548 765 0
299 593 -769 0
40 166 329 0
-401 415 -650 0
395 -413 472 0
-75 -217 -497 0
148 -457 -484 0
-22 292 -761 0
-201 -613 -791 0
306 -531 -755 0
-17 214 -759 0
231 387 723 0
175 216 -237 0
66 -75 -238 0
-43 -392 609 0
193 718 731 0
-331 493 760 0
110 -164 175 0
154 -203 360 0
542 -712 -799 0
-530 -650 716 0
292 -313 546 0
178 -511 703 0
354 -440 -486 0
-270 -304 -782 0
-181 -349 476 0
-449 595 -750 0
-10 -138 362 0
195 209 -792 0
-65 -95 -673 0
224 589 604 0
-48 72 -618 0
-392 444 597 0
-256 390 697 0
129 -273 735 0
-46 111 -309 0
-411 -488 -494 0
-293 -381 -493 0
547 -626 -799 0
340 -725 -783 0
-145 -192 -612 0
-151 165 -319 0
194 -331 486 0
238 -258 497 0
697 706 -738 0
-283 293 492 0
142 483 -560 0
-49 -187 389 0
12 194 367 0
271 550 -601 0
280 -630 751 0
453 503 753 0
-12 -533 798 0
235 -404 -438 0
-156 -328 412 0
81 -642 -781 0
-175 347 -537 0
-309 418 -513 0
-259 -276 298 0
293 -365 -471 0
-139 -140 312 0
-183 -281 523 0
134 197 -454 0
-256 441 735 0
-409 -681 -773 0
-85 -402 -766 0
180 -215 -354 0
64 -280 470 0
-5 -177 -217 0
-183 410 -482 0
34 174 543 0
144 -595 793 0
-27 54 724 0
345 539 -566 0
334 522 -600 0
-144 -660 -757 0
-318 -459 474 0
58 301 -443 0
-13 -57 668 0
-316 592 -797 0
349 -443 -767 0
236 -241 315 0
81 375 433 0
304 -545 -742 0
440 617 691 0
147 -208 -770 0
-174 -274 586 0
153 -189 673 0
155 238 725 0
139 -299 721 0
208 -471 -768 0
507 771 793 0
-458 -625 -738 0
452 488 -653 0
59 -117 133 0
59 -465 520 0
312 520 -628 0
-27 396 741 0
-189 598 -741 0
36 -131 -228 0
-448 -530 -759 0
102 -213 551 0
-203 285 -509 0
-123 -442 755 0
330 366 -703 0
-400 -426 641 0
-362 -522 583 0
-233 -252 -441 0
203 325 -584 0
-258 676 -789 0
-27 477 692 0
-25 494 595 0
-78 -682 -742 0
348 369 -722 0
85 382 568 0
301 646 724 0
100 441 688 0
-516 548 572 0
-387 388 -489 0
2 642 681 0
-126 -165 -570 0
-43 131 428 0
129 -182 -542 0
478 653 -659 0
31 -72 360 0
43 489 535 0
-98 445 -760 0
-172 272 -291 0
40 106 703 0
145 -233 -498 0
-29 52 589 0
353 -410 -523 0
-41 241 -685 0
164 -195 -485 0
-143 442 632 0
261 580 592 0
75 119 -519 0
112 -511 -612 0
109 540 736 0
-74 100 265 0
56 572 -699 0
438 -547 773 0
-158 238 -361 0
21 -411 -740 0
133 275 -307 0
-5 -76 -749 0
39 213 -262 0
132 208 281 0
166 201 663 0
-143 -422 -589 0
172 -565 657 0
-112 -514 -535 0
403 -547 -761 0
210 -441 554 0
168 -332 -651 0
60 624 -666 0
-263 470 -644 0
86 -90 -297 0
14 -159 -222 0
32 241 -560 0
221 594 -609 0
-124 -282 372 0
23 -307 722 0
-289 -620 690 0
-266 -710 736 0
492 -660 -705 0
-17 274 612 0
320 -325 762 0
-531 645 -780 0
-132 447 608 0
-160 572 -592 0
75 -172 681 0
396 -539 580 0
16 -153 -484 0
-184 -514 590 0
-123 290 -641 0
-264 395 -700 0
11 375 -390 0
-355 379 725 0
364 -460 568 0
18 -689 -729 0
-76 280 556 0
366 376 -610 0
179 300 -449 0
-131 298 380 0
-90 -718 739 0
-528 -760 -772 0
-406 676 796 0
528 -545 641 0
-138 -154 440 0
-269 626 -748 0
-133 351 -556 0
85 -336 547 0
90 384 -410 0
128 144 440 0
264 -298 784 0
209 -249 -668 0
201 -559 -565 0
162 465 655 0
553 -755 -771 0
-198 -273 407 0
-34 537 -698 0
-217 470 -646 0
-212 -258 -413 0
402 631 -634 0
-287 433 626 0
-29 200 486 0
14 -50 -161 0
-74 -408 -575 0
-269 -354 -416 0
530 -576 748 0
-641 700 722 0
210 -319 -628 0
-618 -703 -704 0
318 320 -495 0
477 714 733 0
-373 -670 -704 0
302 -434 -623 0
-296 -306 -772 0
-318 400 662 0
73 -506 -721 0
-1 -163 616 0
136 185 -515 0
-22 147 641 0
-85 -120 -655 0
-12 235 -786 0
-357 -507 -722 0
111 129 -634 0
-89 318 -508 0
-114 251 -425 0
-94 107 151 0
18 413 -660 0
171 542 -556 0
104 -166 289 0
109 -393 -634 0
208 -376 -688 0
75 138 -704 0
-126 259 -578 0
-129 580 716 0
51 -590 -724 0
145 -256 -769 0
239 770 784 0
-76 -214 460 0
38 -87 -184 0
500 -512 742 0
271 671 784 0
17 75 432 0
115 361 -728 0
-73 -130 -408 0
-2 526 -598 0
-222 225 -647 0
295 -447 -550 0
-18 518 -553 0
-36 154 -787 0
120 -496 -586 0
317 372 770 0
454 711 725 0
114 211 -577 0
-370 489 563 0
38 131 338 0
168 -384 -727 0
103 510 701 0
87 -189 -203 0
131 451 654 0
94 -113 -562 0
-220 622 -744 0
405 469 -503 0
382 597 643 0
253 -513 -558 0
-71 -362 -576 0
646 683 -722 0
392 -606 689 0
-594 697 -735 0
158 449 674 0
-72 -538 -761 0
284 -759 776 0
-289 459 651 0
-167 -245 383 0
208 264 377 0
-594 -681 -740 0
275 564 -670 0
7 10 -32 0
-39 -61 -796 0
34 -103 640 0
-275 440 -798 0
-441 -504 -757 0
125 -195 799 0
-144 178 619 0
14 -569 -615 0
-97 463 776 0
450 592 -664 0
-117 -295 -641 0
-132 -221 352 0
-133 445 493 0
-435 538 766 0
-107 -179 215 0
12 -353 444 0
-1 -31 390 0
-55 349 -735 0
199 -342 456 0
-214 250 -711 0
180 -635 -773 0
296 440 528 0
-220 444 -739 0
355 -444 638 0
286 -492 -517 0
89 473 524 0
172 -187 708 0
444 450 -567 0
-597 602 777 0
390 558 573 0
267 375 622 0
587 598 -713 0
164 -556 699 0
-270 -587 -674 0
117 330 -688 0
-95 608 -620 0
177 301 455 0
-615 737 -740 0
-314 449 560 0
-4 -378 -706 0
292 425 610 0
-14 -48 -348 0
162 258 463 0
-8 54 -655 0
-138 -474 660 0
18 -233 -649 0
-34 -387 -799 0
2 144 242 0
149 199 423 0
31 -208 -299 0
-19 55 -167 0
5 69 -406 0
-223 -234 548 0
143 -299 684 0
19 -191 -367 0
-101 -122 582 0
-209 -458 758 0
36 207 -459 0
7 -381 697 0
73 494 -697 0
71 275 -399 0
28 187 -234 0
61 -537 753 0
643 -764 -797 0
290 -305 -603 0
-2 -44 -286 0
-492 -516 636 0
-15 28 -730 0
-154 621 720 0
-171 385 -501 0
-44 -433 -729 0
-356 -522 794 0
108 252 -613 0
-7 10 -160 0
-67 -284 680 0
-237 477 -585 0
323 -511 -588 0
119 -403 694 0
393 676 736 0
-378 -603 676 0
-158 -198 665 0
-365 -511 767 0
-73 -313 393 0
-278 -634 676 0
204 -424 729 0
-41 -642 744 0
388 403 697 0
-159 264 -475 0
256 -521 -783 0
-107 328 680 0
-391 -547 -747 0
-564 -583 -748 0
118 280 781 0
-358 383 -635 0
215 259 657 0
7 -424 -714 0
86 -556 -646 0
362 505 -760 0
219 -473 600 0
462 -634 679 0
179 -318 -711 0
237 -714 731 0
-15 153 182 0
31 388 -468 0
-155 240 455 0
-253 -648 704 0
-663 716 -723 0
-66 116 429 0
-311 -314 -461 0
63 -308 709 0
374 484 -719 0
-243 549 -690 0
77 -259 -508 0
101 -167 756 0
-202 583 -778 0
89 -126 -385 0
-138 -397 537 0
346 380 707 0
-143 159 -206 0
-269 -431 476 0
-28 -226 362 0
-278 -432 792 0
-312 446 -559 0
379 -562 568 0
-383 -450 672 0
-25 -126 367 0
338 -472 -588 0
157 -669 -670 0
257 503 -556 0
-17 366 -632 0
-209 271 -354 0
77 -212 -221 0
595 -602 635 0
9 55 -406 0
-99 300 -629 0
307 -509 514 0
-152 -478 -768 0
297 -372 -533 0
146 293 528 0
-166 -360 395 0
129 -339 604 0
-86 205 232 0
-80 302 555 0
188 306 734 0
-424 -477 -483 0
-561 -689 -695 0
-134 630 -698 0
-494 -718 766 0
-187 -293 662 0
-206 -255 628 0
-376 -383 -686 0
252 -476 -566 0
652 689 -704 0
-178 -373 -547 0
-114 525 715 0
289 -325 -581 0
-176 -288 666 0
60 116 447 0
-222 333 530 0
321 326 -620 0
47 -290 -630 0
-107 737 780 0
-96 136 -684 0
-344 577 -702 0
-64 187 -190 0
155 -203 382 0
242 -584 780 0
155 360 -484 0
198 315 -560 0
-428 631 758 0
-166 474 -777 0
-107 114 362 0
205 -509 -636 0
-49 84 349 0
-387 636 795 0
369 529 -544 0
226 273 750 0
419 573 790 0
93 -577 -736 0
-84 -465 -712 0
295 374 727 0
-251 372 450 0
-127 -224 435 0
44 584 -643 0
91 -593 -646 0
-9 -304 -560 0
136 -626 676 0
105 -124 -183 0
145 -369 561 0
-169 325 781 0
72 -101 -768 0
-340 611 -675 0
344 349 442 0
262 471 -477 0
-428 564 -721 0
-269 529 670 0
-99 331 442 0
-25 -170 -696 0
14 210 628 0
228 -435 666 0
-176 481 499 0
-570 -592 625 0
71 594 796 0
51 106 -597 0
306 326 -623 0
116 -394 -711 0
-41 298 777 0
519 -559 642 0
-549 694 -799 0
114 -146 -288 0
-11 37 -621 0
-231 -252 -268 0
-180 212 382 0
-223 568 639 0
-263 -384 -477 0
-356 388 -590 0
446 477 -566 0
3 111 581 0
-28 -218 247 0
151 -170 468 0
-110 -378 463 0
-185 221 -587 0
-270 -619 640 0
-69 109 -332 0
-441 -461 -706 0
206 412 741 0
257 -371 541 0
208 285 313 0
-167 -319 -457 0
-117 -425 -714 0
429 -459 -778 0
113 -223 641 0
-33 -503 528 0
544 688 -793 0
-218 400 -759 0
135 -301 663 0
-68 233 -637 0
64 550 -597 0
116 232 484 0
-42 60 -617 0
220 327 -730 0
99 -426 668 0
-260 -473 -518 0
-390 -397 675 0
-164 -610 747 0
597 -718 795 0
-1 633 -799 0
52 -108 -171 0
-236 695 -735 0
207 217 -250 0
-306 -498 -750 0
167 -602 658 0
181 316 -794 0
257 -327 544 0
-238 712 -766 0
267 -455 791 0
-15 305 436 0
52 454 -705 0
-69 144 -420 0
677 735 747 0
-584 -624 -663 0
-18 105 -692 0
479 604 -678 0
41 353 -363 0
-232 -264 -595 0
160 569 -691 0
51 276 -784 0
-465 473 -484 0
334 377 587 0
-40 155 762 0
-15 -507 662 0
77 -386 394 0
639 -678 -733 0
-270 -426 -750 0
-18 -154 319 0
151 -343 739 0
-19 -364 550 0
505 -668 -720 0
157 -244 -485 0
4 -503 -655 0
43 -259 -299 0
-206 -480 727 0
53 179 772 0
-463 -627 724 0
24 261 -618 0
99 -244 -421 0
167 -385 752 0
-146 -288 769 0
-28 135 -186 0
-148 203 655 0
-25 604 -691 0
-490 -614 -719 0
147 220 636 0
462 -500 -657 0
-437 515 -548 0
336 -739 -748 0
598 -611 -766 0
183 -670 -755 0
60 77 -463 0
22 612 654 0
-211 245 -646 0
-27 -404 -470 0
153 189 -622 0
101 -511 -629 0
345 -436 -625 0
83 -137 163 0
-190 400 -465 0
394 -484 -506 0
-453 636 -693 0
199 -413 -755 0
-526 575 588 0
-108 -268 -723 0
16 -146 -471 0
386 -419 590 0
22 -509 -537 0
113 -137 -448 0
55 -134 -452 0
-33 -413 693 0
254 -672 774 0
362 553 731 0
-49 330 614 0
-108 446 -757 0
427 606 -669 0
-326 450 785 0
84 172 577 0
-25 -295 697 0
160 165 441 0
22 -123 632 0
190 409 527 0
126 196 216 0
320 -574 -626 0
182 545 -638 0
28 264 -658 0
-62 -236 557 0
121 201 377 0
-515 662 -686 0
-98 -275 277 0
269 -311 519 0
231 434 548 0
-136 185 790 0
-317 -380 543 0
87 145 -185 0
195 638 -730 0
108 281 584 0
-296 320 -375 0
-110 -297 -377 0
-373 -413 631 0
-193 256 -468 0
151 395 -681 0
-314 -614 733 0
82 163 749 0
-357 536 759 0
-53 -305 551 0
45 544 646 0
-387 559 675 0
142 -228 285 0
54 -188 310 0
-59 519 -578 0
-282 -474 514 0
-82 -349 -734 0
-591 658 -751 0
114 312 519 0
-330 -541 -577 0
-132 316 -659 0
-116 -532 -754 0
62 -184 -778 0
407 543 -657 0
181 498 -719 0
43 242 -402 0
-497 -539 541 0
271 402 596 0
262 405 490 0
427 496 711 0
-66 -455 -539 0
-154 -267 -318 0
121 241 662 0
-260 476 -618 0
-388 -473 -752 0
-263 677 -711 0
1 -521 618 0
-94 -101 230 0
307 333 -588 0
-207 344 621 0
161 -169 741 0
-380 -761 -770 0
137 -147 385 0
-10 -206 382 0
200 412 433 0
8 487 738 0
31 738 796 0
279 -354 789 0
-532 -610 677 0
116 -209 -597 0
209 416 -563 0
-160 -176 508 0
-143 349 479 0
-204 -529 542 0
-340 498 -556 0
257 393 -433 0
-157 -234 710 0
387 473 687 0
-17 685 716 0
-113 -126 220 0
279 -296 -444 0
83 -376 -618 0
546 -624 -748 0
-335 -561 785 0
115 239 -278 0
21 411 -755 0
274 447 -646 0
-177 221 286 0
454 521 549 0
309 -528 791 0
-102 -115 800 0
-55 585 -745 0
-37 -468 -589 0
336 -402 -626 0
177 363 -784 0
203 -299 -417 0
-235 -539 585 0
-38 652 -751 0
142 381 540 0
234 -429 558 0
22 -269 275 0
133 -375 -582 0
137 -178 691 0
139 390 -764 0
-114 -140 309 0
498 594 794 0
31 -427 -700 0
-310 -546 570 0
-161 230 -761 0
123 146 -277 0
-58 -437 -653 0
-315 699 -797 0
-113 -217 775 0
-46 239 -707 0
-28 -202 375 0
152 300 363 0
-73 540 -583 0
-195 542 -703 0
42 -563 568 0
172 193 434 0
-355 -410 -527 0
-103 309 763 0
228 -747 758 0
59 298 -582 0
527 672 724 0
-370 498 752 0
38 73 -421 0
-210 -329 -664 0
-201 527 -718 0
-88 -359 -483 0
-50 52 756 0
-114 567 620 0
425 -609 -733 0
217 587 -723 0
204 -332 452 0
-204 497 644 0
10 -109 -170 0
265 -560 573 0
-131 210 367 0
-62 -383 426 0
-176 -414 -537 0
72 699 -753 0
130 -503 -625 0
-64 86 -393 0
87 249 510 0
39 119 -155 0
-122 -315 -796 0
325 -427 -680 0
-37 -709 -753 0
182 324 -462 0
351 -367 -589 0
387 -450 694 0
-78 506 -549 0
-242 329 345 0
333 -398 563 0
-410 411 -503 0
50 -167 -488 0
-42 217 -233 0
483 -572 -754 0
-71 219 -318 0
-171 382 512 0
-91 -178 447 0
-80 -220 -513 0
-324 406 -626 0
-63 -167 767 0
356 -543 670 0
-200 -244 678 0
135 250 758 0
-344 375 775 0
-62 366 -604 0
253 285 -325 0
-107 702 -705 0
-280 -304 -395 0
132 -243 672 0
-236 491 728 0
-364 -625 785 0
-367 -573 660 0
-124 318 422 0
568 750 -774 0
21 -130 204 0
-281 426 -783 0
-288 687 688 0
20 -199 -670 0
-74 -415 -536 0
21 -100 -381 0
-12 92 408 0
40 -83 520 0
236 -305 745 0
-62 -413 -796 0
91 -216 670 0
-562 -607 -763 0
491 -602 622 0
311 501 677 0
304 357 -597 0
227 531 -634 0
320 -479 -494 0
141 167 -216 0
167 218 742 0
253 274 -545 0
16 -136 549 0
150 -352 -654 0
-310 -415 -520 0
-142 -337 485 0
52 89 -657 0
-245 520 -649 0
-278 410 -776 0
-292 -444 484 0
-412 466 692 0
-269 504 714 0
263 698 759 0
-78 -171 -694 0
-35 -61 218 0
-112 175 -648 0
129 -280 485 0
-222 482 -499 0
-166 467 -519 0
472 -577 -599 0
160 -464 -557 0
-182 -461 768 0
-239 469 -736 0
-140 640 -673 0
290 602 -690 0
-66 -471 709 0
100 -218 -509 0
422 582 711 0
44 58 87 0
-299 -567 791 0
-9 -454 777 0
134 -235 -623 0
-214 412 476 0
-93 181 230 0
3 -295 -332 0
494 601 780 0
159 -350 366 0
102 -566 -747 0
-451 500 -715 0
47 134 -469 0
-63 -623 686 0
-5 -116 515 0
53 -468 513 0
29 454 -589 0
-220 -227 -279 0
31 -350 -795 0
-108 519 -625 0
31 345 721 0
422 518 -550 0
-204 -394 479 0
-37 634 -780 0
442 508 -784 0
-101 -236 583 0
-255 -405 699 0
-98 156 -595 0
-72 -414 -521 0
514 644 717 0
-126 156 -331 0
403 -461 -574 0
220 277 700 0
150 -468 725 0
-240 -307 458 0
-418 -463 509 0
-235 -658 774 0
68 -101 -737 0
198 -659 -676 0
25 -518 665 0
-70 -116 180 0
-185 530 -746 0
150 568 690 0
237 -498 -723 0
8 123 -163 0
154 373 -434 0
147 -335 -393 0
-218 -515 668 0
108 -115 555 0
11 250 748 0
310 348 -712 0
99 -245 -323 0
-346 -740 -787 0
162 -434 769 0
-250 404 718 0
-74 -121 -550 0
181 -270 563 0
-566 621 770 0
-131 285 -331 0
-153 -404 748 0
146 -339 564 0
87 -309 -422 0
213 637 738 0
-202 618 749 0
572 -613 -738 0
125 257 526 0
-300 -390 -595 0
315 -565 -567 0
161 243 -519 0
-478 -567 764 0
189 251 479 0
246 -360 751 0
-264 437 648 0
-113 361 415 0
-61 -401 -454 0
140 -434 544 0
41 63 776 0
112 -389 -635 0
97 186 -292 0
95 -139 224 0
-230 -761 771 0
706 712 749 0
9 79 642 0
-9 -570 792 0
-398 -598 -639 0
216 -604 701 0
-379 -628 676 0
229 231 -280 0
-448 -462 730 0
-143 -196 712 0
-88 -493 -783 0
197 203 552 0
94 154 169 0
153 -257 -379 0
-216 246 -722 0
52 -245 602 0
-584 -718 -778 0
-84 246 640 0
-64 702 -786 0
-150 181 195 0
544 686 -689 0
10 -22 29 0
-19 -618 -766 0
-108 -288 400 0
422 439 -731 0
-219 459 -651 0
-237 -283 292 0
-158 415 748 0
342 -466 703 0
232 425 -751 0
-386 -464 -477 0
-155 -467 651 0
18 220 532 0
-51 -327 598 0
72 -322 -696 0
-19 -56 697 0
68 88 699 0
-350 -666 735 0
252 325 -673 0
88 112 -291 0
-179 251 486 0
279 372 465 0
186 -339 557 0
-41 -565 -709 0
-162 -214 508 0
-41 131 383 0
-175 270 -388 0
-274 461 -732 0
73 -202 -467 0
-157 662 -794 0
-274 -549 717 0
-387 -504 752 0
100 367 637 0
102 405 775 0
148 -301 -486 0
18 482 -618 0
14 278 -533 0
3 -541 555 0
36 598 -798 0
18 -469 -619 0
-403 -405 766 0
146 379 -775 0
605 -733 -749 0
-212 501 -760 0
236 253 792 0
-202 -408 600 0
-324 -430 -655 0
128 145 678 0
-18 695 -778 0
454 572 783 0
257 628 -755 0
328 -732 -769 0
21 23 -736 0
-420 -481 535 0
246 -372 781 0
72 280 -459 0
55 -174 -747 0
507 567 743 0
-329 -519 599 0
-31 -59 147 0
175 431 584 0
43 121 220 0
330 477 720 0
-330 -535 668 0
-318 769 795 0
-339 -432 746 0
-109 -131 -574 0
66 -226 419 0
183 -216 -760 0
-47 -332 -341 0
352 -517 -524 0
151 156 -696 0
197 -411 781 0
-227 517 683 0
281 491 716 0
193 498 -551 0
-77 -143 -513 0
-31 51 -515 0
-7 270 286 0
311 443 457 0
-145 -243 -547 0
522 590 780 0
355 595 -786 0
-117 -187 -322 0
159 300 417 0
-207 -326 683 0
306 403 414 0
251 -385 -709 0
-59 -215 580 0
358 -460 779 0
255 367 -592 0
192 -542 -729 0
667 669 716 0
99 -431 673 0
-337 367 376 0
-197 670 -797 0
19 -608 657 0
290 636 -712 0
-53 -621 -790 0
200 452 -565 0
-2 371 -687 0
-11 206 -499 0
-178 -482 -614 0
248 -378 598 0
351 486 -603 0
168 -444 -579 0
73 -106 -467 0
68 -330 -697 0
-158 -379 486 0
28 374 -572 0
203 234 -432 0
-100 601 -755 0
-152 229 697 0
343 581 -782 0
-318 606 -727 0
387 489 595 0
190 327 -750 0
85 313 342 0
-37 426 -609 0
-184 -427 455 0
-22 419 -579 0
-35 382 545 0
-317 638 -797 0
-397 763 -781 0
-162 491 -787 0
-514 -548 656 0
111 191 242 0
-29 -54 516 0
-308 327 464 0
-136 -222 751 0
-61 356 659 0
-29 -248 -659 0
115 -368 453 0
342 -579 643 0
-100 214 747 0
-643 703 790 0
-6 458 -481 0
615 -630 692 0
-180 472 684 0
35 259 675 0
191 -274 757 0
321 -580 653 0
-288 -721 -739 0
78 237 -359 0
174 263 -602 0
-340 571 743 0
57 161 -368 0
74 -469 -480 0
375 -502 518 0
80 206 672 0
-259 -699 -751 0
77 477 678 0
-1 431 582 0
26 630 -689 0
63 271 485 0
-407 663 680 0
-105 137 655 0
117 -462 610 0
-11 -113 -179 0
-77 -409 770 0
241 392 534 0
-385 580 630 0
-3 -566 -738 0
65 489 -543 0
588 663 -779 0
335 -487 561 0
-481 536 635 0
-227 -284 -690 0
231 -256 -797 0
85 -291 -414 0
-235 630 -738 0
-78 -455 -790 0
63 -530 797 0
-257 -565 743 0
-77 181 -341 0
-29 59 132 0
189 -199 -601 0
385 -585 795 0
-3 382 761 0
-23 -53 775 0
-167 -513 -675 0
304 593 -642 0
-289 -291 -457 0
423 -603 -708 0
-134 -451 -556 0
-411 418 -800 0
-234 -323 -391 0
-138 -431 -718 0
397 515 -631 0
-348 -371 481 0
141 -362 -541 0
-30 237 -634 0
79 -119 314 0
-265 -415 -607 0
-92 -556 -669 0
397 -461 591 0
-95 170 415 0
-267 512 -618 0
-338 -522 -789 0
-112 490 661 0
139 413 726 0
-42 243 -497 0
371 521 611 0
95 -387 666 0
-389 428 490 0
16 -660 715 0
151 -467 489 0
-36 -156 -495 0
-122 236 458 0
-212 372 749 0
353 565 -593 0
540 749 -794 0
-447 678 -709 0
409 416 -758 0
-167 -392 557 0
200 -283 -451 0
-40 294 518 0
157 374 670 0
165 -336 -659 0
-158 -433 718 0
-408 593 -620 0
-99 -103 -251 0
-193 -546 -662 0
-283 468 706 0
-190 487 -770 0
-163 320 330 0
-385 497 687 0
350 367 714 0
38 -601 -767 0
22 393 -427 0
-226 319 392 0
43 -405 -772 0
420 456 504 0
-269 -332 -715 0
549 650 -695 0
-118 -452 725 0
32 -407 586 0
-377 -534 629 0
99 542 583 0
-338 -509 630 0
130 -220 652 0
48 -269 376 0
-11 -410 472 0
42 -97 189 0
-117 -189 -241 0
-156 -220 -412 0
204 -284 -785 0
-133 -190 278 0
-75 -161 -404 0
-322 371 -445 0
-161 -170 -256 0
465 -482 -733 0
-65 564 -725 0
313 536 620 0
1 185 711 0
-249 -380 -448 0
-19 445 610 0
-57 -259 640 0
-174 212 320 0
172 383 -455 0
-1 -5 -183 0
91 -319 -461 0
-267 298 -633 0
196 -489 -730 0
301 509 -769 0
348 395 -579 0
-36 -126 -359 0
515 551 620 0
-67 139 709 0
175 -752 -769 0
-650 681 782 0
-234 519 757 0
192 219 -695 0
-246 -576 669 0
-204 -390 -740 0
467 481 -736 0
265 -291 -630 0
-116 124 -546 0
304 -323 -375 0
593 -607 766 0
460 584 -730 0
62 -424 747 0
209 -614 -685 0
-64 294 451 0
-150 250 337 0
-232 -252 547 0
309 487 507 0
-32 167 -170 0
99 -149 255 0
-227 -558 764 0
141 -381 712 0
-138 154 -283 0
341 597 -739 0
-34 314 -790 0
-94 402 792 0
-373 463 -565 0
306 327 -545 0
165 -465 690 0
101 572 725 0
239 -566 -637 0
-65 69 276 0
-142 474 -519 0
222 476 714 0
15 364 366 0
9 -512 -595 0
69 95 -778 0
241 -408 790 0
-569 655 -697 0
-283 491 778 0
10 -218 648 0
47 132 -404 0
-277 -474 -606 0
-14 -490 -732 0
-644 646 790 0
397 644 -652 0
152 254 543 0
-184 -451 549 0
-232 -598 622 0
-246 523 666 0
-64 -277 -404 0
-56 -332 -611 0
449 730 -755 0
-400 771 -772 0
-439 682 -797 0
495 -569 -690 0
299 -561 -685 0
37 -105 633 0
426 515 -731 0
-424 -619 -766 0
-48 101 -550 0
8 181 698 0
-185 -375 378 0
111 -591 757 0
106 -615 776 0
23 597 -708 0
480 751 775 0
-63 -702 -741 0
-279 -319 -696 0
16 -516 645 0
24 99 386 0
148 665 747 0
220 314 -578 0
-206 -535 -612 0
467 -566 628 0
-145 470 664 0
189 215 -729 0
-264 543 -687 0
-32 -153 -178 0
-112 121 241 0
16 49 -177 0
211 471 714 0
160 291 -662 0
316 -353 625 0
-607 765 794 0
-82 -214 -721 0
-196 -411 -596 0
-56 -460 -691 0
-117 -136 -733 0
-483 701 777 0
-78 -296 604 0
-416 455 -580 0
302 523 -669 0
-126 181 -367 0
-30 -93 -453 0
-712 732 -757 0
-170 -281 670 0
-118 410 500 0
13 -350 368 0
305 310 625 0
61 254 668 0
-345 -439 799 0
459 634 -668 0
61 -563 613 0
307 361 -698 0
-9 -119 633 0
322 -483 765 0
-10 55 261 0
-132 412 463 0
-15 329 -468 0
356 533 -708 0
390 -594 -665 0
-525 591 744 0
-44 419 438 0
-4 311 376 0
80 -527 -566 0
-85 261 -380 0
196 -625 782 0
42 -604 774 0
-41 -419 654 0
-195 -213 442 0
-88 739 -749 0
251 555 -687 0
176 399 786 0
-220 -475 780 0
-446 -473 -529 0
-217 286 -683 0
169 558 -614 0
165 371 634 0
-284 -324 -521 0
-1 92 -289 0
-189 -247 -661 0
-451 -536 -782 0
-103 -344 -530 0
-486 -508 789 0
210 307 585 0
80 137 394 0
578 698 724 0
291 555 -596 0
131 -393 474 0
-275 -565 624 0
-143 -386 -597 0
-92 -221 -647 0
257 -445 -579 0
217 485 -674 0
-534 -778 789 0
-194 375 -543 0
-546 700 735 0
-27 121 -571 0
50 -82 659 0
166 427 743 0
355 -379 -690 0
-186 248 362 0
4 -661 -666 0
380 -631 -745 0
200 -718 748 0
75 317 678 0
29 509 630 0
80 -109 596 0
-61 214 562 0
138 552 -702 0
-146 -186 -294 0
-20 -236 -647 0
497 -558 774 0
-268 332 -693 0
-352 -542 612 0
-37 126 276 0
-242 245 -667 0
41 -517 720 0
-12 590 716 0
285 409 779 0
-120 -690 -796 0
-378 -697 -724 0
83 300 580 0
169 -338 521 0
-216 447 638 0
-19 -219 771 0
-180 273 -399 0
-205 -626 -789 0
190 362 594 0
139 -409 -711 0
-6 182 -727 0
187 -326 -374 0
34 -186 467 0
-225 -467 -693 0
-62 -149 501 0
16 -118 514 0
41 53 408 0
-616 689 701 0
171 -509 -775 0
-173 -266 -452 0
-331 404 482 0
-335 584 -774 0
135 573 -654 0
95 153 -415 0
120 -510 642 0
-148 221 -643 0
-336 356 -501 0
-109 -200 -466 0
394 -532 749 0
378 592 623 0
-82 -204 -341 0
-6 -29 314 0
169 -310 406 0
400 -469 -506 0
-139 317 -681 0
-231 -465 545 0
321 557 586 0
432 -512 -522 0
125 -325 -714 0
-17 229 634 0
253 -499 770 0
-122 -616 -623 0
222 636 -671 0
-385 463 651 0
-373 -394 -706 0
220 330 -429 0
-22 314 512 0
-179 241 -270 0
-32 300 -639 0
107 -210 790 0
10 -81 -761 0
-200 382 704 0
-36 503 -567 0
-182 289 528 0
125 -560 604 0
196 633 -652 0
434 -624 -797 0
96 208 700 0
303 395 -737 0
-53 -131 350 0
241 -544 696 0
387 581 -618 0
-397 -417 580 0
2 -95 -139 0
179 207 238 0
-157 -332 568 0
184 509 -637 0
118 320 497 0
-105 -674 678 0
24 217 -295 0
-152 -499 792 0
-63 549 -595 0
-153 474 555 0
-275 405 -563 0
109 349 -789 0
-560 571 789 0
364 368 687 0
490 -557 -796 0
-368 395 -741 0
-115 -208 -410 0
-233 335 -786 0
169 235 481 0
-548 -609 756 0
420 -640 -745 0
-131 -316 -319 0
-290 369 -407 0
283 -680 -737 0
351 -670 751 0
664 767 -776 0
-514 -518 704 0
7 208 603 0
-415 -596 -746 0
-152 399 711 0
49 201 444 0
-250 337 -733 0
158 448 627 0
126 -307 -426 0
68 -385 -682 0
-125 529 761 0
-360 -394 -707 0
-62 -530 720 0
-15 -65 -595 0
208 314 771 0
184 -554 604 0
221 -366 501 0
40 355 -373 0
-104 119 785 0
20 -271 -633 0
-47 -222 379 0
326 547 555 0
-30 148 -361 0
-9 637 703 0
299 373 -769 0
-77 465 -613 0
-257 666 781 0
204 -210 325 0
184 406 -440 0
-195 -636 742 0
115 478 573 0
153 705 725 0
103 -192 -577 0
430 623 795 0
-94 652 -669 0
317 659 -689 0
-401 677 756 0
-368 526 -582 0
76 -98 -472 0
-383 451 -536 0
1 481 -557 0
26 -529 765 0
-167 513 -710 0
483 -502 -759 0
-109 -177 514 0
134 608 -732 0
-249 -343 419 0
-113 379 -698 0
-695 -717 791 0
-340 -421 668 0
-310 589 616 0
94 -325 629 0
52 213 720 0
269 580 -775 0
122 162 279 0
-485 -627 -738 0
-47 -202 737 0
139 147 201 0
-235 619 -775 0
295 529 675 0
-391 393 635 0
-489 -555 -764 0
-4 235 519 0
-445 -553 -611 0
66 -247 -337 0
-6 414 -676 0
-155 -306 406 0
189 -219 516 0
-236 368 -753 0
-186 -358 590 0
-569 608 736 0
-196 -561 -593 0
542 558 719 0
271 313 -329 0
-335 -608 642 0
65 188 633 0
-113 -465 684 0
78 -421 594 0
-188 321 428 0
-168 -341 688 0
2 351 698 0
271 -333 -718 0
17 -78 -576 0
-486 -563 600 0
126 212 540 0
288 390 413 0
234 -568 -787 0
272 -380 -449 0
-309 584 798 0
-346 561 698 0
-295 -727 735 0
62 81 -342 0
-133 -662 -710 0
-6 134 285 0
191 -772 794 0
11 83 -523 0
-490 740 742 0
-273 533 -570 0
-82 -255 498 0
401 -502 -691 0
-482 -497 -709 0
204 283 400 0
208 -425 -560 0
-112 249 459 0
-4 -119 -200 0
186 -432 645 0
-65 539 661 0
141 -608 671 0
530 -667 -791 0
-326 793 -794 0
245 692 726 0
166 203 -271 0
-75 -205 -601 0
-86 -192 454 0
473 594 -781 0
159 163 687 0
-260 -312 -536 0
529 -567 688 0
-563 -729 749 0
326 378 440 0
-133 -461 -641 0
-453 518 -573 0
-125 250 704 0
-24 -524 -647 0
146 308 596 0
-384 -453 540 0
-376 -452 726 0
227 -240 -361 0
-319 436 -799 0
262 546 681 0
-220 -222 -499 0
-222 -517 626 0
379 397 472 0
540 -656 717 0
-318 441 592 0
-184 -548 766 0
359 589 -644 0
-69 -311 -789 0
-175 232 738 0
296 -313 499 0
-4 -66 -153 0
-40 76 348 0
-116 -294 -457 0
-397 -468 -690 0
-32 -130 -287 0
-158 -267 441 0
431 487 -543 0
122 -598 678 0
99 -450 -717 0
629 666 -725 0
-484 612 751 0
-60 269 492 0
-168 -440 -472 0
-400 -422 489 0
58 293 -426 0
-180 223 -731 0
-278 302 528 0
-384 567 -707 0
58 -153 719 0
-451 -683 -735 0
325 478 720 0
162 335 518 0
109 -741 790 0
-246 -467 -765 0
-220 -365 385 0
62 246 638 0
-4 302 540 0
-392 -505 685 0
-407 -455 551 0
-27 -35 -551 0
561 647 -689 0
21 -324 558 0
-188 -408 464 0
-46 347 -358 0
-45 -312 754 0
759 -770 796 0
356 -368 782 0
106 156 605 0
286 299 699 0
-135 -406 475 0
-120 -188 261 0
430 560 -759 0
-49 -400 706 0
-298 658 -768 0
215 -655 701 0
457 526 -677 0
-189 320 -507 0
360 532 -660 0
-383 -539 -734 0
-471 584 605 0
-581 -726 -767 0
-165 -283 723 0
127 -149 252 0
-157 410 -739 0
135 424 674 0
421 -470 499 0
-43 -96 -446 0
-99 -220 -794 0
-94 -430 516 0
-284 -318 -405 0
337 389 790 0
67 -375 568 0
-143 -507 -661 0
511 543 588 0
-183 -418 -488 0
305 331 -681 0
168 760 788 0
-11 -105 227 0
-45 264 270 0
-98 452 530 0
148 -281 -767 0
191 384 -556 0
25 487 -626 0
-409 -423 -793 0
-182 -335 -551 0
175 451 657 0
118 -355 -779 0
-404 -512 567 0
-30 -409 -622 0
396 -459 772 0
-147 -166 -460 0
183 -190 -639 0
61 483 -648 0
53 -63 -798 0
-136 -707 -752 0
-177 186 277 0
-180 181 627 0
-279 475 -616 0
-254 266 -782 0
-80 -199 258 0
-417 677 -735 0
187 262 -550 0
-411 456 -526 0
-455 499 693 0
294 342 624 0
45 -454 -619 0
-82 92 -270 0
-644 745 761 0
32 -356 610 0
-236 -352 -680 0
190 -492 621 0
-76 -426 -597 0
13 111 -222 0
-642 -775 789 0
-398 477 -525 0
68 121 -615 0
258 -445 -491 0
-121 653 716 0
-252 372 -431 0
-246 259 -263 0
102 263 -629 0
-352 579 -685 0
-356 -414 -511 0
116 302 521 0
367 -546 -591 0
703 -741 762 0
-287 -289 -689 0
-51 72 491 0
77 -161 -772 0
-93 204 -503 0
58 -262 364 0
62 -64 -597 0
249 250 482 0
172 -450 742 0
-275 -540 549 0
195 -203 204 0
61 -314 -682 0
-262 -556 -602 0
446 582 657 0
-7 104 671 0
374 596 712 0
-27 -400 621 0
-166 187 297 0
161 -410 748 0
134 -387 -440 0
303 -359 636 0
161 -270 -352 0
-20 -66 511 0
-85 -631 -752 0
32 519 747 0
-26 448 534 0
10 -11 -331 0
-244 -528 -704 0
-233 -607 620 0
-103 383 -471 0
100 109 -575 0
-210 398 -470 0
406 599 620 0
257 -319 772 0
220 527 -751 0
52 171 527 0
-50 154 491 0
377 529 -669 0
-316 595 628 0
155 361 537 0
-673 688 -794 0
405 -498 606 0
55 -518 691 0
95 422 467 0
254 602 760 0
38 -109 -587 0
269 -591 600 0
-390 -684 765 0
-441 -528 729 0
-204 -303 553 0
-86 464 504 0
186 -649 753 0
148 -592 774 0
346 617 -797 0
-373 -462 679 0
25 491 785 0
-410 -565 697 0
442 -517 -715 0
-27 -533 -603 0
-307 462 621 0
-81 -505 -800 0
369 612 760 0
56 609 620 0
76 145 -498 0
-27 -223 -273 0
-310 -540 -613 0
287 -504 -609 0
-63 -632 -777 0
29 -684 -776 0
-150 320 374 0
599 625 -702 0
435 -630 -633 0
-276 -290 489 0
363 -515 -739 0
-146 -171 666 0
-165 251 579 0
-160 -163 -497 0
-111 -349 -540 0
275 698 -766 0
-15 251 646 0
389 634 724 0
-231 424 -565 0
-91 -711 747 0
81 -377 -776 0
172 539 604 0
-98 -137 682 0
-162 205 -600 0
-14 -115 -785 0
-114 409 545 0
346 -412 623 0
216 380 -669 0
379 -467 736 0
138 414 -657 0
-506 -585 686 0
-170 552 565 0
-65 -269 -466 0
344 417 -574 0
79 289 -731 0
-159 -160 570 0
152 -257 781 0
-75 454 -726 0
-79 373 661 0
19 -65 239 0
342 -516 -647 0
117 130 -763 0
152 255 592 0
8 -367 739 0
294 -421 687 0
-24 379 629 0
-511 651 738 0
-702 703 -751 0
-130 -217 311 0
26 228 -728 0
316 509 -749 0
410 -469 -566 0
55 -106 750 0
-514 -588 623 0
13 242 344 0
-106 171 -260 0
-515 -707 720 0
-576 -585 -742 0
256 330 725 0
-76 -141 -590 0
384 688 -761 0
-31 172 597 0
-195 -442 717 0
-461 -588 705 0
-106 -140 -321 0
-43 -569 773 0
-621 -626 -630 0
-177 257 462 0
289 427 494 0
-232 505 622 0
-37 -474 724 0
295 -358 -560 0
219 -512 -774 0
168 -172 773 0
-214 -399 573 0
48 661 -674 0
-402 468 666 0
-432 -439 -491 0
-137 -665 764 0
110 -560 -639 0
68 620 -795 0
-128 315 526 0
-148 -264 -511 0
-23 -453 798 0
-191 -576 -660 0
-14 -156 191 0
426 -639 -743 0
73 -406 -697 0
-48 -388 -708 0
-94 352 444 0
-164 -412 -623 0
20 297 -778 0
99 231 -292 0
198 689 723 0
12 -567 -584 0
231 240 -265 0
-45 463 -767 0
70 -218 396 0
-48 215 -581 0
109 407 715 0
291 -325 -328 0
63 -548 -713 0
-48 -692 -707 0
-293 -426 774 0
195 489 532 0
-280 -473 626 0
22 529 -626 0
249 423 606 0
-460 -520 790 0
-377 -399 432 0
15 -216 -403 0
112 -207 436 0
-153 -392 -413 0
163 497 539 0
389 598 749 0
427 545 686 0
-12 72 -126 0
45 77 247 0
-1 -539 722 0
-107 178 -616 0
-194 331 362 0
-118 -421 -474 0
125 277 529 0
196 -562 -631 0
192 -202 637 0
-367 -539 -763 0
111 118 644 0
149 325 347 0
-190 -237 363 0
552 -591 700 0
236 -475 739 0
-19 640 725 0
-32 215 572 0
227 -425 563 0
68 102 -341 0
-179 -256 642 0
-239 -263 -334 0
-222 -463 -527 0
361 -435 -659 0
-212 -469 -600 0
-143 238 528 0
-47 396 -679 0
444 603 -768 0
282 322 763 0
143 -355 -374 0
233 -392 763 0
-168 487 -513 0
443 -736 775 0
523 -680 -716 0
-80 -281 -613 0
-4 126 -294 0
-59 270 528 0
132 169 -727 0
-113 369 754 0
21 685 -704 0
-188 -564 574 0
50 -138 -574 0
-244 -342 -586 0
18 -107 -363 0
-350 437 -594 0
-92 -294 -736 0
81 197 570 0
445 -533 -778 0
336 -418 -649 0
26 -239 -709 0
-6 -366 -485 0
-202 388 -547 0
175 641 -705 0
322 385 -563 0
289 -433 -639 0
-55 603 -670 0
196 391 -783 0
203 -214 -790 0
-83 367 700 0
-284 408 -528 0
19 -552 760 0
-63 676 -690 0
-260 -463 733 0
232 -304 -732 0
-38 424 -727 0
60 66 -240 0
158 366 -518 0
496 749 -800 0
459 480 516 0
212 237 -413 0
308 544 -592 0
-424 -537 -798 0
84 228 763 0
-86 -282 -507 0
-64 -329 -620 0
25 299 -491 0
46 -691 -760 0
-52 171 -330 0
204 387 -444 0
-47 -292 645 0
191 -321 -554 0
408 468 -618 0
-196 320 -580 0
190 -457 -534 0
335 421 483 0
357 -443 556 0
40 -144 392 0
338 -445 -493 0
245 355 -632 0
282 -652 -682 0
227 292 667 0
-145 201 353 0
-290 -457 -470 0
171 -242 -715 0
-105 109 572 0
514 589 680 0
-212 354 449 0
226 304 -720 0
454 569 614 0
91 -508 674 0
302 -397 594 0
-426 -602 -746 0
-525 -532 -747 0
-105 184 699 0
-170 -174 -460 0
-129 -201 641 0
179 -334 -531 0
24 77 189 0
15 -235 -798 0
-621 -654 -780 0
-145 227 -400 0
490 -541 593 0
-36 264 793 0
-196 263 564 0
27 -98 -344 0
16 -17 -69 0
123 585 -771 0
-37 -470 544 0
-59 -251 769 0
677 728 -736 0
58 -335 -502 0
258 -431 702 0
-45 -48 -429 0
8 -46 -155 0
-216 -234 652 0
83 573 576 0
-20 -262 -756 0
315 455 -736 0
-60 -251 378 0
-120 162 210 0
-215 -425 -717 0
94 -525 641 0
198 387 636 0
-300 -386 -414 0
66 -282 372 0
-398 -671 -799 0
316 -637 -790 0
44 -98 -230 0
-154 230 693 0
-245 316 774 0
-51 -73 481 0
333 -512 -610 0
275 -406 -688 0
-108 -137 -471 0
116 549 -746 0
-275 -466 -789 0
240 -289 335 0
232 253 370 0
22 114 793 0
-51 549 -725 0
259 -305 -339 0
371 629 -704 0
-372 -705 795 0
-267 304 609 0
-116 419 446 0
188 266 -469 0
-107 -492 -741 0
13 81 283 0
63 -287 -502 0
201 -330 -352 0
169 278 -293 0
660 -779 791 0
58 423 -505 0
-367 -371 -527 0
-585 -647 -742 0
-32 -61 449 0
-50 -371 -781 0
-31 137 345 0
-197 536 -715 0
325 -454 794 0
-111 535 576 0
-22 -477 508 0
-634 -666 -706 0
-184 533 638 0
-508 574 619 0
-339 -406 -657 0
114 -187 706 0
129 -402 620 0
-41 -130 619 0
72 108 672 0
-149 586 -617 0
100 714 -763 0
-26 -329 -517 0
-465 475 -730 0
51 195 -465 0
547 580 614 0
572 -612 -730 0
50 -764 799 0
-240 540 -730 0
-124 289 -586 0
-68 326 436 0
-151 -341 -657 0
-336 465 503 0
-7 -250 577 0
-273 -422 -520 0
-147 -149 -240 0
-81 305 536 0
276 457 -700 0
-75 -234 -720 0
-26 635 798 0
53 -108 -800 0
395 -577 672 0
142 -432 779 0
268 663 699 0
528 -609 -633 0
226 287 -683 0
-76 -528 -604 0
-267 269 -376 0
-465 758 766 0
-9 -448 -625 0
338 -466 -560 0
-47 162 -742 0
305 328 -611 0
-235 612 -712 0
-184 -499 -773 0
-188 -196 515 0
-454 604 -736 0
81 -203 -300 0
152 660 677 0
-82 533 737 0
-271 -283 358 0
-51 731 789 0
-59 752 777 0
-122 -475 -678 0
-33 669 -739 0
-46 449 589 0
-346 396 416 0
132 -560 796 0
56 -78 411 0
231 -576 726 0
216 -587 -632 0
306 -323 739 0
386 -511 -642 0
536 -541 -554 0
57 -233 256 0
-315 -478 489 0
378 575 685 0
89 -517 -607 0
-472 -784 -786 0
-270 280 -550 0
-118 555 618 0
-432 461 548 0
472 625 -702 0
-286 -731 738 0
-16 -210 -768 0
-135 642 770 0
-287 -437 -664 0
-73 333 367 0
-149 183 -491 0
-335 418 -508 0
-193 272 -368 0
348 496 691 0
15 -247 785 0
-116 170 -541 0
160 539 -691 0
536 -543 -700 0
575 630 -704 0
597 659 -711 0
-113 282 482 0
271 -335 -516 0
-509 -747 -797 0
-471 -571 -757 0
-128 213 -220 0
15 -256 -435 0
-464 -482 -513 0
280 318 594 0
-113 161 -364 0
-121 -215 -715 0
123 737 738 0
-169 -402 -628 0
-50 -262 -350 0
-18 -606 -758 0
64 307 -460 0
-374 465 -786 0
218 -290 419 0
-213 479 -779 0
12 42 -694 0
352 458 538 0
29 130 -317 0
117 -418 650 0
-196 539 -614 0
-113 -497 704 0
-37 -456 487 0
-72 -206 560 0
282 333 743 0
208 -724 733 0
-25 -263 -377 0
321 525 790 0
111 276 277 0
-371 -379 -675 0
129 231 -564 0
-72 -126 -361 0
-66 591 620 0
-162 -646 755 0
146 -348 -471 0
156 502 -691 0
-136 -318 445 0
93 484 -697 0
-64 -263 -380 0
261 -410 -443 0
275 591 -755 0
79 -138 765 0
107 -522 -731 0
-15 572 753 0
-242 337 -545 0
-426 465 -738 0
159 -217 -405 0
327 463 474 0
-100 -119 428 0
-216 -349 629 0
-677 714 775 0
-234 -439 -588 0
12 514 -758 0
-492 -563 -770 0
57 280 -714 0
-57 -214 -500 0
275 549 645 0
-210 -296 -299 0
-368 399 411 0
186 -446 -515 0
167 568 692 0
54 -109 -582 0
39 493 -682 0
198 -237 -413 0
-235 -255 -753 0
41 -206 243 0
21 52 -353 0
112 122 283 0
-24 -435 700 0
338 -408 530 0
-22 -332 659 0
-126 493 -573 0
43 260 649 0
152 -176 748 0
78 202 -600 0
-256 482 698 0
398 -473 780 0
-89 169 219 0
-372 -513 661 0
180 -185 604 0
149 -194 -381 0
-116 307 -751 0
105 -551 -590 0
34 -238 -561 0
102 190 238 0
-286 288 494 0
156 -566 716 0
-55 -632 -652 0
446 585 608 0
-359 -397 -634 0
-145 260 -362 0
354 -403 -561 0
-210 553 570 0
445 -539 -564 0
-191 396 538 0
-309 -314 -538 0
421 -442 528 0
61 -386 -622 0
135 -235 -449 0
103 -393 613 0
347 -475 -589 0
70 -320 348 0
-2 -147 704 0
-308 619 -743 0
228 636 728 0
-49 689 747 0
79 -151 648 0
-78 -212 -726 0
649 -741 -768 0
-35 -41 -93 0
-387 523 553 0
-216 487 554 0
-261 -403 -624 0
-102 209 -581 0
218 -390 -512 0
-162 -214 328 0
-73 359 -713 0
-369 651 773 0
-438 -524 559 0
249 523 -741 0
25 302 365 0
-97 -182 -511 0
-281 -336 642 0
-225 -248 703 0
20 -37 -75 0
59 408 -511 0
-193 -357 -617 0
-590 650 -789 0
-427 -441 -668 0
-561 -629 771 0
-183 606 678 0
-211 -612 -664 0
-337 -636 -764 0
-500 568 798 0
148 -354 -372 0
96 -158 460 0
-47 217 -720 0
477 528 -555 0
81 266 552 0
-74 329 681 0
20 113 -402 0
-192 -486 503 0
194 288 752 0
38 526 673 0
-39 -206 456 0
49 -135 -499 0
-157 231 577 0
166 -180 -584 0
-64 -156 161 0
-58 -540 630 0
1 -185 -714 0
34 -100 -705 0
-98 174 -426 0
21 432 -433 0
285 -560 748 0
-7 -464 607 0
171 254 -581 0
-17 40 -700 0
-113 -338 -471 0
427 -791 799 0
178 297 -619 0
-246 400 -649 0
-178 450 655 0
-44 -396 -788 0
-106 394 -435 0
-27 353 714 0
167 188 375 0
-9 353 -665 0
179 271 454 0
-7 -324 795 0
-403 -633 -752 0
-570 612 703 0
61 255 -336 0
-78 -338 -408 0
135 232 -613 0
27 -482 -596 0
-350 472 517 0
364 513 -660 0
-257 621 -791 0
-3 -162 -796 0
-388 543 -665 0
-206 234 -633 0
-13 40 -719 0
-5 41 -675 0
-45 54 -326 0
-36 212 -317 0
47 -108 -384 0
313 387 -455 0
471 508 586 0
-197 454 763 0
-200 -475 -517 0
100 -370 -793 0
218 -403 -501 0
-108 -210 625 0
-155 -681 799 0
335 -630 748 0
103 221 -401 0
118 -369 -443 0
-536 -673 695 0
321 402 -775 0
14 509 627 0
-260 608 745 0
430 -540 -769 0
-426 -464 -581 0
370 -426 501 0
-118 617 -756 0
500 -624 -779 0
-129 273 385 0
-101 579 638 0
77 -215 508 0
-56 -268 -751 0
-118 365 626 0
-165 -267 -300 0
-375 -547 -627 0
-212 367 766 0
99 -122 -745 0
428 -608 704 0
-134 433 644 0
175 304 -513 0
-541 783 -797 0
-39 123 -192 0
-76 -379 -428 0
-59 194 251 0
-16 79 -243 0
-54 102 793 0
-96 -190 -541 0
354 -612 719 0
-90 299 -605 0
-258 -280 -691 0
270 721 729 0
615 698 732 0
-138 -235 -691 0
-121 614 721 0
272 -449 653 0
-193 259 402 0
-57 184 -279 0
-365 446 -733 0
-71 467 675 0
487 -507 -539 0
272 505 765 0
-311 -430 734 0
37 124 -786 0
-391 555 772 0
64 356 -767 0
418 593 674 0
525 -654 -656 0
86 532 587 0
-87 124 447 0
-219 -239 686 0
-340 391 -403 0
167 -171 -582 0
32 -637 -671 0
-390 457 -575 0
-19 424 -631 0
367 -532 571 0
-61 -499 679 0
-184 423 -563 0
163 -548 775 0
171 422 595 0
32 -302 321 0
123 447 504 0
134 551 711 0
381 -598 -689 0
23 -240 663 0
247 -340 -626 0
199 546 -773 0
-373 573 610 0
-8 342 580 0
-259 309 -629 0
-482 -659 736 0
83 -212 631 0
-215 -541 -755 0
-40 181 -595 0
124 251 647 0
83 -150 644 0
122 542 680 0
-51 -133 528 0
253 423 426 0
-39 -536 -568 0
-378 -393 -582 0
45 -170 -665 0
261 -415 -673 0
406 568 -645 0
-363 548 -707 0
32 200 545 0
368 -713 722 0
-671 -775 792 0
-287 353 -548 0
-32 37 -725 0
24 58 -221 0
218 603 -663 0
-74 635 -697 0
336 -684 800 0
259 329 -541 0
77 437 -738 0
356 584 753 0
32 -143 -217 0
-42 354 -527 0
-27 143 -242 0
143 197 -292 0
301 403 503 0
-147 211 -518 0
-151 -186 544 0
81 -317 601 0
155 -437 -745 0
127 595 -692 0
-15 149 485 0
55 309 486 0
-484 532 -615 0
-223 530 -720 0
-97 -400 737 0
120 447 635 0
-22 78 204 0
346 -357 -789 0
-303 -321 -639 0
350 759 783 0
-218 596 -797 0
108 197 -366 0
413 418 766 0
71 406 -711 0
-178 -395 -630 0
185 -275 777 0
-208 376 -661 0
-203 -273 -275 0
99 -523 -602 0
-123 358 402 0
-298 -490 -787 0
-68 244 -383 0
215 -389 406 0
-241 683 708 0
265 270 363 0
-8 -350 -631 0
377 -512 -533 0
305 524 663 0
624 -658 668 0
169 -367 722 0
170 -483 -778 0
112 226 588 0
189 -453 538 0
137 -482 -593 0
21 -126 -682 0
640 -652 -687 0
-67 -370 794 0
-325 414 501 0
-249 -367 699 0
429 -449 -562 0
365 497 -759 0
-44 -231 798 0
-302 361 645 0
68 -405 -565 0
221 225 -382 0
30 221 243 0
49 239 -784 0
-68 -575 -637 0
-138 246 400 0
-103 237 674 0
-12 -385 -719 0
-524 -533 -542 0
229 -450 -666 0
-11 233 -676 0
-156 309 319 0
23 261 400 0
-456 -519 -655 0
-322 -485 624 0
-191 -210 287 0
-669 -678 -794 0
392 429 531 0
-22 306 -328 0
102 -543 737 0
202 -218 -384 0
318 359 549 0
-223 255 -556 0
-88 415 520 0
137 236 -651 0
281 402 660 0
198 468 -733 0
-509 696 -793 0
-36 -396 560 0
-244 -329 -382 0
12 254 -400 0
-648 -724 -760 0
-48 -239 405 0
319 339 -641 0
543 -670 687 0
-424 617 -773 0
-23 -325 514 0
-65 674 747 0
-539 -643 759 0
145 282 358 0
31 -298 397 0
59 458 719 0
283 304 378 0
384 -408 -561 0
300 -379 -528 0
188 -210 248 0
19 361 -714 0
98 114 690 0
-304 674 -742 0
-54 259 -766 0
204 -290 419 0
-142 281 -639 0
124 450 473 0
-5 467 782 0
-699 -739 -749 0
285 567 -592 0
-340 -621 717 0
-461 660 -756 0
3 248 -402 0
115 -497 -579 0
49 560 -724 0
52 -343 -512 0
-203 282 -313 0
120 294 319 0
-97 -278 -442 0
125 -268 -419 0
-42 -244 645 0
184 -231 717 0
-295 617 664 0
272 -435 483 0
14 152 -405 0
-257 -442 -574 0
613 -645 -671 0
-55 -251 -735 0
24 -551 -656 0
38 264 -719 0
-426 549 622 0
528 -773 -775 0
218 220 310 0
-232 -404 -763 0
-304 -369 546 0
-20 111 -564 0
273 -439 -562 0
103 -543 -772 0
-144 -355 -599 0
121 125 -539 0
-467 510 734 0
-131 371 508 0
87 -131 390 0
100 -333 529 0
-123 135 476 0
289 -395 493 0
-24 -609 616 0
301 580 748 0
-43 105 -220 0
-297 454 -627 0
301 686 -743 0
540 -665 760 0
236 579 679 0
307 -384 -681 0
-66 -215 -413 0
-52 -176 -705 0
310 363 -626 0
161 -489 741 0
374 -434 495 0
154 -160 -706 0
-173 267 435 0
359 618 732 0
-205 -513 609 0
163 -198 675 0
334 -367 -528 0
299 566 -743 0
-194 553 -731 0
79 -181 660 0
-8 -463 700 0
-65 524 -735 0
425 -505 734 0
49 214 452 0
-22 467 510 0
341 411 793 0
-60 -543 -579 0
48 124 305 0
30 -627 781 0
-303 -316 423 0
-20 385 -456 0
106 719 737 0
117 145 -248 0
-263 -518 783 0
