c Phase 3 random 3-SAT negative control
c seed=32013
c ratio=4.26
c variant=planted_sat
c expected=SATISFIABLE
p cnf 400 1704
229 -251 -281 0
-126 -257 280 0
165 293 328 0
-131 288 -330 0
71 229 341 0
51 -182 296 0
-34 -215 326 0
-33 52 -312 0
7 302 398 0
141 163 -235 0
37 237 -331 0
-278 281 -321 0
-236 -316 -381 0
44 -169 -243 0
-67 73 -156 0
-158 -161 230 0
179 -307 327 0
-94 154 209 0
10 -154 -323 0
2 228 364 0
-93 242 308 0
-36 -137 242 0
-135 181 -349 0
156 -218 -278 0
90 -188 222 0
140 231 297 0
92 -240 -332 0
-345 -350 367 0
-162 -207 -362 0
-133 237 398 0
258 275 391 0
27 -196 210 0
27 144 -180 0
92 -108 155 0
138 140 -306 0
-3 47 -216 0
-56 99 -270 0
-37 -85 -342 0
-73 100 -314 0
-66 156 388 0
75 -150 378 0
4 -29 292 0
79 119 -196 0
116 -269 -360 0
51 236 -386 0
-169 316 374 0
144 -278 380 0
55 216 -257 0
-4 -214 -385 0
-329 391 -399 0
-18 36 326 0
-1 32 315 0
-105 178 -316 0
-47 78 359 0
88 -197 -270 0
-30 -32 163 0
30 -137 -277 0
21 -120 176 0
129 162 206 0
-44 -148 313 0
-128 -290 313 0
-37 293 -320 0
-235 -355 381 0
-193 320 362 0
89 375 -398 0
-236 356 386 0
19 248 -277 0
64 180 239 0
83 -98 -251 0
-26 43 -62 0
217 241 -324 0
-70 -129 171 0
111 185 322 0
146 203 -365 0
-120 125 -240 0
-8 -48 383 0
-112 152 305 0
3 21 387 0
-68 -369 393 0
38 309 -319 0
-191 -342 384 0
-17 -116 275 0
-107 -164 -254 0
94 251 -374 0
202 235 314 0
2 188 -233 0
-9 -239 241 0
-148 -239 -390 0
-203 309 353 0
-1 -278 -389 0
-103 115 -230 0
-19 -69 -180 0
11 126 159 0
32 -203 -358 0
180 -191 322 0
-23 -54 -273 0
168 284 302 0
-69 -206 368 0
-113 -352 -390 0
53 -102 159 0
-111 234 -364 0
126 -187 -366 0
208 -278 290 0
198 302 396 0
-1 180 -321 0
138 316 393 0
46 181 -234 0
101 -279 -310 0
86 159 223 0
-63 -202 -380 0
-14 -159 356 0
158 -263 -388 0
-47 154 241 0
230 -263 371 0
123 194 399 0
-17 -76 -80 0
-71 167 -248 0
-95 263 307 0
27 202 -376 0
106 -245 -348 0
84 -268 -272 0
-27 -149 -226 0
16 -66 192 0
188 209 243 0
58 121 -122 0
-75 -345 351 0
-29 67 96 0
59 -305 394 0
-15 46 101 0
202 -271 -390 0
115 -348 372 0
265 290 298 0
-86 217 -395 0
59 264 -334 0
58 286 -396 0
-49 -91 -105 0
86 181 272 0
-267 -288 -302 0
73 253 300 0
40 68 -111 0
47 248 352 0
-166 -242 327 0
106 305 362 0
85 -100 -303 0
-34 116 264 0
2 129 137 0
-102 220 232 0
105 -272 315 0
-9 -221 -290 0
119 -143 -225 0
-12 54 -215 0
-35 -153 235 0
81 169 -242 0
-15 -267 -308 0
87 -121 168 0
-122 -305 -342 0
-38 -259 -348 0
6 119 347 0
78 -150 -177 0
349 355 369 0
97 134 -316 0
-38 -42 -346 0
-95 235 349 0
-92 236 -387 0
-12 66 255 0
7 200 306 0
-143 307 -342 0
-108 -177 -249 0
15 -155 -311 0
287 296 -371 0
-196 -347 386 0
-242 251 327 0
-113 146 229 0
120 304 -385 0
-374 -390 -391 0
32 169 -359 0
-163 -290 387 0
-119 -215 390 0
-212 -296 380 0
49 -88 296 0
38 -176 346 0
-63 106 -228 0
-1 -142 -358 0
-126 313 351 0
303 -357 379 0
-228 304 -315 0
-40 -186 -360 0
26 333 392 0
-7 29 -194 0
-6 134 -142 0
191 -197 -275 0
117 -310 -388 0
-111 183 311 0
72 -112 253 0
-95 185 -303 0
-44 -235 324 0
126 188 -265 0
271 -311 388 0
-83 -189 216 0
27 294 -386 0
28 -201 -360 0
-155 -308 377 0
40 115 -142 0
188 209 -281 0
-8 150 325 0
-15 -159 -375 0
103 -216 392 0
146 199 -293 0
-172 -178 372 0
11 -64 -224 0
56 229 -280 0
-190 -263 281 0
27 -229 322 0
87 -191 371 0
-136 142 163 0
-195 264 -383 0
65 203 -356 0
101 -182 -347 0
81 -173 -296 0
54 -59 -373 0
43 113 -174 0
87 194 272 0
-75 -130 190 0
-225 268 361 0
13 -32 -340 0
60 170 -360 0
-29 -73 384 0
-256 -328 -378 0
311 -327 -368 0
-42 202 -343 0
72 151 -377 0
178 186 -198 0
-108 247 -389 0
79 -246 306 0
71 -245 290 0
-133 249 305 0
-12 50 -130 0
179 340 -391 0
55 -156 399 0
-16 -149 -251 0
-65 -89 285 0
-20 -343 -375 0
-62 -131 334 0
-93 279 281 0
-72 133 333 0
-56 -84 -385 0
-24 191 -399 0
155 -197 308 0
11 -396 -399 0
-47 212 280 0
210 215 264 0
-42 64 122 0
77 238 392 0
57 -297 389 0
-74 119 338 0
-180 184 366 0
39 -161 224 0
63 222 -346 0
197 218 -260 0
-61 64 -232 0
127 178 342 0
35 -116 -276 0
-34 156 333 0
36 -297 385 0
59 -153 168 0
29 76 343 0
90 122 -148 0
-66 81 -279 0
-171 221 -314 0
32 97 -106 0
-225 292 -318 0
-298 -306 -313 0
-117 -229 -368 0
-85 183 356 0
-309 336 394 0
-198 -251 -279 0
-28 133 -214 0
-284 -287 361 0
55 -250 -298 0
-135 -145 -287 0
-39 -206 258 0
184 -307 367 0
42 -345 -398 0
280 -341 -359 0
-68 118 167 0
-39 -353 354 0
174 -234 -370 0
39 -43 -70 0
7 10 -95 0
264 -337 -389 0
146 -340 364 0
-151 219 -350 0
43 -55 396 0
61 -185 -383 0
115 -288 -328 0
-183 -192 -382 0
48 101 -322 0
-3 126 -331 0
61 241 -321 0
-138 180 -239 0
-24 -181 -212 0
-89 254 255 0
-37 -288 -381 0
-112 -276 -360 0
-1 -79 -115 0
36 73 -296 0
-144 171 -358 0
-87 104 311 0
-2 -171 -290 0
-90 -246 293 0
-150 -225 306 0
-103 -241 -332 0
-341 -362 392 0
-27 46 317 0
-47 -51 115 0
-22 30 256 0
121 293 -374 0
56 -92 -330 0
-149 152 -313 0
-72 -280 -282 0
-255 350 -371 0
-93 -247 -295 0
-148 -295 -337 0
-10 -107 -124 0
135 140 -335 0
-139 237 273 0
125 -169 271 0
38 71 -322 0
21 344 -362 0
166 -236 276 0
269 -300 391 0
-103 232 -275 0
-126 168 364 0
-50 -68 105 0
223 231 291 0
-118 -366 -381 0
-58 225 338 0
-46 -79 247 0
-13 50 327 0
-132 -167 -257 0
-207 224 312 0
-72 -343 -345 0
-53 -154 -385 0
-24 65 106 0
7 358 -368 0
-5 -127 -162 0
-27 -83 -388 0
143 174 370 0
-57 133 286 0
34 190 -387 0
212 359 379 0
37 291 -385 0
83 -125 -131 0
229 258 -275 0
-112 -185 -398 0
62 -145 340 0
43 -45 -196 0
-194 239 -331 0
-71 316 398 0
9 -109 -148 0
-166 280 -365 0
-185 275 -369 0
32 170 249 0
15 -28 -333 0
168 -247 292 0
113 246 273 0
145 170 -178 0
15 -39 -288 0
122 -215 -387 0
74 257 -292 0
8 -21 47 0
254 262 -394 0
2 144 273 0
196 -298 -338 0
92 -125 -242 0
-225 -230 252 0
-93 158 286 0
135 -228 268 0
108 251 368 0
-3 102 219 0
55 -104 200 0
-4 -32 -64 0
-38 -363 396 0
-272 382 -398 0
-245 325 359 0
-51 191 -192 0
88 208 302 0
-85 -122 222 0
-199 -265 -281 0
-4 185 -390 0
218 -255 328 0
-24 355 -386 0
-108 337 -389 0
-183 -237 -241 0
104 150 182 0
49 -146 203 0
71 203 304 0
27 203 -395 0
207 -327 -361 0
-38 44 379 0
-252 319 -391 0
260 280 310 0
-194 304 394 0
84 94 324 0
3 -150 -355 0
23 46 -245 0
-51 127 346 0
171 206 334 0
-95 180 -397 0
-164 -322 -334 0
-95 100 -306 0
98 229 314 0
-175 -300 389 0
-41 -183 -374 0
37 -108 -275 0
116 211 -348 0
90 -164 -172 0
157 -353 -391 0
-31 -222 -310 0
-213 -372 381 0
78 -273 274 0
62 -70 74 0
-181 -195 -355 0
174 206 296 0
59 71 -199 0
-190 -300 -384 0
-10 -96 248 0
17 32 -94 0
160 -163 374 0
-203 -232 318 0
34 -77 -319 0
60 -117 234 0
-126 -141 365 0
78 233 -241 0
60 116 -174 0
-255 -280 382 0
-9 -159 -227 0
-187 -202 383 0
92 -324 400 0
180 195 -384 0
-222 -303 344 0
-137 -300 -397 0
264 265 -398 0
261 266 -342 0
17 -100 264 0
-38 -48 196 0
-101 217 231 0
-141 -287 379 0
6 -73 193 0
63 -110 -371 0
79 -128 -251 0
137 -173 286 0
79 242 357 0
-147 164 199 0
-158 -231 392 0
45 -181 357 0
142 -360 -390 0
-142 -281 -365 0
-42 137 280 0
9 -97 -154 0
59 -327 371 0
106 -318 -359 0
59 317 -391 0
49 -101 251 0
3 -92 262 0
117 380 389 0
-94 -276 343 0
-23 -105 170 0
-130 -234 376 0
119 332 333 0
30 159 183 0
14 -310 325 0
-59 -155 209 0
127 -244 262 0
34 -162 -310 0
192 -388 397 0
-180 240 318 0
86 -278 308 0
-164 297 349 0
-48 -79 81 0
28 364 393 0
76 326 -352 0
-19 194 -266 0
221 -285 -353 0
62 -97 -105 0
98 -169 288 0
110 174 -253 0
-54 123 -379 0
246 280 -399 0
225 -332 350 0
32 -276 301 0
-147 282 383 0
8 271 -340 0
113 252 333 0
24 -293 363 0
-87 223 336 0
28 -375 -386 0
-68 -249 361 0
11 -36 -211 0
-222 241 -285 0
72 299 -331 0
-99 -130 374 0
-196 -266 -360 0
-149 193 -336 0
-5 212 394 0
-112 -138 -180 0
-43 -172 -375 0
-41 -244 277 0
-50 257 340 0
-148 -199 347 0
159 172 174 0
-252 -319 -358 0
-232 -273 -362 0
-136 -180 320 0
-214 -240 -302 0
-124 162 -382 0
80 -138 284 0
-154 -361 392 0
-13 328 378 0
14 209 -346 0
-42 -47 395 0
-224 282 -397 0
-10 -197 300 0
103 216 -218 0
80 -153 -158 0
82 -203 394 0
16 -213 284 0
-16 259 -289 0
-122 302 359 0
-12 -60 136 0
62 264 287 0
133 -239 295 0
-85 103 -371 0
-274 -280 388 0
-164 -243 314 0
-137 159 -307 0
-64 -312 -367 0
-118 254 370 0
-133 -283 -299 0
-308 -317 358 0
10 -144 248 0
-48 126 -282 0
-54 -307 316 0
158 -180 -292 0
16 -114 315 0
-177 -193 232 0
-52 251 256 0
33 -220 325 0
8 148 298 0
-107 263 385 0
109 133 172 0
-42 190 310 0
181 -183 328 0
-210 -233 369 0
23 31 -379 0
67 -179 -274 0
87 -89 -141 0
74 -216 279 0
-117 283 -325 0
-122 -223 -347 0
-13 -215 345 0
288 -334 372 0
-33 56 -115 0
67 250 384 0
9 -46 65 0
-30 56 301 0
49 129 -320 0
121 157 -353 0
-29 -206 361 0
12 -212 317 0
42 55 -201 0
-159 -160 363 0
-105 241 -247 0
46 -184 -238 0
215 230 251 0
133 -341 -381 0
-28 56 -348 0
-42 208 -272 0
-40 129 158 0
30 264 306 0
-16 93 252 0
-146 -154 255 0
-105 -290 -358 0
-17 -258 -298 0
-27 -238 311 0
174 -298 -354 0
54 -166 -359 0
95 169 398 0
-182 186 197 0
-137 164 397 0
69 -140 347 0
41 -60 -69 0
70 -147 -214 0
-144 173 -332 0
158 283 -356 0
-169 348 -377 0
-81 236 330 0
-31 -51 -242 0
-143 337 -366 0
-134 -137 -310 0
-5 60 106 0
108 -195 229 0
-58 179 197 0
-78 -142 -339 0
113 287 -358 0
233 298 -310 0
-278 326 -331 0
13 233 -374 0
-105 -109 -151 0
-131 287 -391 0
-111 139 -298 0
11 31 336 0
-36 -362 385 0
-224 231 -371 0
62 -166 -246 0
-12 96 -358 0
-122 -223 -307 0
-122 186 256 0
88 -92 -311 0
-152 -278 393 0
158 -236 -364 0
56 244 -272 0
-133 347 -376 0
95 -177 325 0
14 -104 -302 0
52 -77 267 0
65 89 118 0
-124 285 354 0
-6 141 -244 0
17 -274 369 0
206 -241 272 0
-117 -190 368 0
-249 393 394 0
80 232 -286 0
-79 -203 -334 0
124 -268 -286 0
2 -115 262 0
39 235 325 0
-57 -226 -396 0
-193 -285 -313 0
-214 235 323 0
10 -212 -229 0
4 -176 -270 0
40 -255 -313 0
-99 -111 349 0
39 213 -269 0
-36 -168 -246 0
46 275 323 0
-48 -57 221 0
192 215 -331 0
-73 -326 -374 0
-45 106 -384 0
147 -196 -320 0
294 -306 -323 0
65 -284 -361 0
-167 189 -228 0
114 -255 348 0
-49 194 291 0
34 -181 312 0
51 90 144 0
-79 219 256 0
-33 -142 -210 0
-97 -149 -188 0
-106 -171 -385 0
-123 152 319 0
37 -242 -260 0
-54 168 -362 0
-18 28 -232 0
6 -346 -348 0
-211 234 266 0
-31 349 369 0
28 127 -269 0
-25 -194 -254 0
41 -159 351 0
-92 -299 -364 0
127 -167 -260 0
62 -195 -275 0
-21 -98 223 0
72 106 274 0
57 -324 -353 0
40 -142 257 0
268 -306 325 0
-107 -127 397 0
-25 58 124 0
-283 -314 322 0
63 -121 -164 0
33 -251 361 0
14 -111 115 0
170 208 357 0
213 -253 -272 0
-265 -323 397 0
131 -362 -387 0
196 315 -354 0
146 -355 390 0
110 197 -350 0
26 170 325 0
-302 -325 -392 0
48 -139 -243 0
2 -261 378 0
12 134 -264 0
162 -172 375 0
2 121 -276 0
-130 247 -276 0
-56 -217 -393 0
-50 -223 -293 0
222 305 -389 0
-36 -157 -310 0
-96 241 335 0
170 231 -394 0
53 346 -359 0
-22 -131 -140 0
-175 -210 377 0
65 -255 -372 0
-80 263 272 0
192 249 -303 0
-217 -243 -321 0
-138 -171 378 0
129 160 -341 0
123 143 210 0
-260 -360 -377 0
103 194 -203 0
-161 259 304 0
-51 -205 -243 0
-174 -222 -233 0
66 -232 353 0
-105 -136 -309 0
-188 -210 -381 0
-70 -80 204 0
184 192 -206 0
13 -126 -185 0
90 -212 -282 0
23 173 335 0
75 -135 244 0
206 378 -390 0
88 150 181 0
76 262 -290 0
160 249 324 0
198 -264 352 0
-63 119 228 0
9 -174 392 0
-271 301 334 0
92 -185 -334 0
-36 -46 -222 0
251 323 399 0
-192 206 295 0
-145 -203 348 0
238 367 399 0
-183 185 385 0
-21 249 -273 0
12 22 400 0
180 310 339 0
152 155 -168 0
-36 211 310 0
-173 -299 332 0
-7 -149 -231 0
-370 381 383 0
-107 -378 383 0
57 -67 132 0
-17 -136 217 0
196 288 -370 0
67 -150 -202 0
71 -82 -200 0
34 -234 -265 0
-292 -334 -341 0
291 389 -390 0
82 -95 221 0
-226 261 -280 0
159 239 -282 0
163 -213 358 0
-19 339 -398 0
139 262 -357 0
-22 159 247 0
32 239 -339 0
36 300 345 0
-33 -139 -399 0
44 312 351 0
-196 202 349 0
41 -71 -132 0
-141 -181 -267 0
72 229 -394 0
-35 -74 291 0
5 12 259 0
-72 126 -257 0
201 -206 279 0
-38 -183 224 0
-84 -151 -304 0
-87 98 -349 0
112 -135 -220 0
-18 154 -377 0
-68 251 350 0
1 100 -304 0
40 -128 -305 0
-55 119 371 0
-63 -240 -311 0
85 233 -380 0
144 300 -301 0
-84 -213 -237 0
-90 97 -144 0
-71 94 -320 0
129 -143 273 0
-124 -204 356 0
-20 308 -370 0
48 -290 395 0
-168 282 -332 0
7 233 263 0
36 333 -334 0
90 261 298 0
-110 275 364 0
17 174 -294 0
-76 -226 -356 0
72 123 -244 0
-282 361 369 0
-48 -135 -296 0
2 -106 273 0
-237 -313 -390 0
2 226 305 0
-75 -269 385 0
125 187 286 0
101 -251 323 0
140 -161 -262 0
-151 222 -389 0
138 -245 260 0
62 252 394 0
-12 135 239 0
-18 80 -91 0
-205 -269 -387 0
201 256 -280 0
-18 184 -304 0
236 -254 322 0
-45 -96 134 0
94 235 -296 0
-32 143 199 0
39 -104 273 0
25 -46 240 0
13 -40 46 0
-55 -101 153 0
-16 -127 339 0
-10 257 -305 0
16 -54 -257 0
-4 -45 400 0
118 244 367 0
-33 169 -209 0
-26 -48 214 0
68 246 326 0
-55 96 129 0
-64 -89 121 0
-93 308 -337 0
13 -117 -337 0
-179 262 -358 0
1 -160 -273 0
-79 -332 -395 0
-83 -350 387 0
-82 -92 -257 0
29 152 304 0
207 290 330 0
-157 254 354 0
40 44 -94 0
-174 -267 314 0
-107 149 279 0
149 247 361 0
26 -200 -367 0
17 -27 373 0
-48 -285 346 0
-83 271 336 0
252 298 -394 0
103 -343 400 0
22 -269 -323 0
84 -124 -174 0
-159 -281 -328 0
-164 -305 -310 0
12 54 361 0
38 206 400 0
96 175 375 0
-33 -76 329 0
187 -215 366 0
-74 268 -322 0
-163 252 -313 0
-133 -271 -298 0
-40 -101 -197 0
153 262 324 0
-294 381 383 0
147 -159 322 0
4 21 102 0
-184 185 -397 0
64 138 163 0
-53 -273 373 0
-108 147 -342 0
-57 -258 -307 0
100 -274 -282 0
-179 -186 340 0
21 91 -270 0
-51 -118 314 0
16 -217 -382 0
263 -333 -345 0
-164 -213 365 0
220 275 -348 0
37 134 195 0
-17 -105 -136 0
156 -226 -350 0
-50 61 295 0
-170 272 383 0
-63 69 382 0
-6 77 -336 0
101 127 -201 0
-7 31 -249 0
-125 -151 -355 0
92 321 383 0
67 176 225 0
6 -62 -249 0
-154 -257 305 0
103 110 -368 0
66 -186 -313 0
27 324 -350 0
-14 256 336 0
-5 32 -199 0
11 183 308 0
56 -164 264 0
-126 185 319 0
75 171 -255 0
-105 167 256 0
-41 201 -327 0
-29 336 -370 0
-168 -194 -325 0
-37 90 -166 0
-11 120 -181 0
103 149 376 0
-143 297 325 0
-174 224 327 0
128 145 304 0
107 -214 -358 0
187 -246 333 0
105 -332 378 0
-8 -227 -284 0
157 -220 -256 0
-84 -130 197 0
-2 334 -389 0
40 330 362 0
36 97 377 0
-135 -176 309 0
68 103 378 0
-114 -197 277 0
10 -75 159 0
91 142 -395 0
6 171 288 0
47 -95 295 0
191 208 385 0
187 -198 -396 0
-9 -70 344 0
-4 7 -284 0
18 32 292 0
160 326 371 0
19 127 285 0
-77 -128 -302 0
-64 139 241 0
-92 111 -157 0
-53 -186 -375 0
57 67 377 0
97 -171 -376 0
-127 -251 393 0
-33 -110 -343 0
-130 -250 -357 0
38 350 354 0
67 167 -314 0
-4 45 393 0
31 -161 -383 0
260 281 -330 0
125 -165 294 0
13 45 285 0
14 49 268 0
-119 -226 386 0
14 255 -374 0
151 -278 387 0
-12 167 198 0
162 -258 -357 0
-24 -28 -47 0
50 224 -385 0
190 208 -290 0
119 -175 -224 0
-41 235 -300 0
-251 336 -398 0
27 -164 -251 0
-88 185 -232 0
131 138 -266 0
-89 -98 394 0
-108 239 -274 0
-29 188 284 0
-226 230 -351 0
-56 -219 308 0
-80 185 199 0
226 -277 286 0
-173 262 315 0
96 -161 -186 0
48 99 -301 0
-132 172 -280 0
-3 261 -315 0
35 -337 392 0
-99 177 -294 0
-1 -328 367 0
128 201 -348 0
111 -179 -319 0
-151 247 363 0
191 -202 270 0
-13 171 -307 0
-116 230 -246 0
296 -372 373 0
-5 -100 102 0
220 -351 362 0
-10 -99 -360 0
-72 236 -262 0
30 -179 238 0
129 185 -342 0
127 177 339 0
-2 -14 281 0
42 57 -187 0
65 -190 207 0
12 264 -339 0
31 -290 360 0
-261 -276 -370 0
-113 148 -153 0
-61 -218 -247 0
174 -320 -343 0
-104 -161 -292 0
-40 181 398 0
242 -289 -389 0
-128 -133 191 0
81 -119 -229 0
-72 145 -244 0
128 149 -165 0
16 -25 138 0
-102 -272 310 0
-79 -308 358 0
41 103 -132 0
119 130 136 0
76 -97 -398 0
-174 217 303 0
47 151 -382 0
-29 -133 252 0
15 -189 -301 0
75 265 -281 0
-99 -213 -309 0
209 218 -292 0
46 -262 379 0
61 -118 -168 0
33 53 -281 0
-291 300 348 0
-108 288 358 0
90 -210 318 0
-3 -148 389 0
-127 -177 -222 0
39 -85 174 0
259 264 -341 0
-54 -55 73 0
-161 -247 377 0
85 -207 -361 0
239 321 -344 0
-121 -141 -194 0
141 -182 309 0
-169 -221 248 0
20 -272 -373 0
97 -99 327 0
-227 -246 310 0
-77 234 -338 0
-53 -126 -390 0
11 135 300 0
-49 -132 -231 0
-231 279 323 0
-57 228 338 0
-117 -275 364 0
33 -268 317 0
-24 98 -206 0
62 -131 224 0
218 396 399 0
-24 -29 -390 0
-104 -223 310 0
68 387 -400 0
79 -213 -393 0
-228 289 339 0
-77 -249 -279 0
-96 -98 393 0
-231 -301 352 0
-28 63 -380 0
158 -293 -345 0
42 185 350 0
38 -349 -385 0
-105 174 357 0
9 96 -334 0
-145 -297 380 0
-135 352 384 0
52 -252 267 0
-19 -42 -342 0
-78 -93 -192 0
-82 -237 307 0
129 218 339 0
7 -33 -387 0
-33 -240 355 0
203 317 360 0
-115 287 -341 0
28 -208 329 0
-87 137 -190 0
-234 -302 382 0
-210 308 371 0
23 -43 -183 0
105 114 -182 0
-82 -225 304 0
125 201 -240 0
-149 360 372 0
-29 -265 326 0
-33 51 245 0
41 -241 378 0
70 -133 330 0
38 173 373 0
-94 -146 376 0
-82 -101 -298 0
215 316 -379 0
-135 -161 -326 0
71 -256 366 0
95 -118 -379 0
-190 224 -251 0
32 60 -220 0
60 -71 306 0
18 115 263 0
172 -202 -258 0
-42 -85 -374 0
-28 92 158 0
-77 -194 -243 0
-45 195 -308 0
8 9 -253 0
-79 -325 -398 0
-2 202 331 0
-22 -26 111 0
46 -166 196 0
63 171 -250 0
-42 74 -134 0
-31 -262 383 0
136 291 362 0
99 -171 -230 0
15 -86 93 0
-35 -59 -357 0
283 -371 -380 0
98 231 344 0
-6 -138 -393 0
60 157 190 0
-119 -170 184 0
-3 118 -211 0
-3 -186 -385 0
53 201 -325 0
59 -260 -351 0
-8 131 -238 0
-2 -139 -254 0
-263 273 288 0
93 114 -297 0
-27 83 -400 0
-74 -88 -319 0
77 -187 -300 0
91 137 310 0
-67 -122 269 0
243 -249 -396 0
-214 -249 271 0
-129 -202 -323 0
111 222 238 0
-71 110 -133 0
44 -79 -254 0
-41 59 -211 0
-28 -129 391 0
-6 -115 375 0
-23 -334 -336 0
73 -231 -300 0
-138 -211 312 0
149 -165 296 0
-84 -274 299 0
-49 149 -276 0
121 -243 -287 0
-58 304 333 0
34 299 339 0
63 -260 -341 0
-60 -230 -366 0
68 -312 330 0
-139 287 362 0
-122 149 311 0
325 -339 -380 0
143 -167 -336 0
19 -107 352 0
10 -70 -248 0
-43 376 -383 0
5 -31 -144 0
-47 78 387 0
-71 -105 353 0
-185 -202 -264 0
250 -322 362 0
-63 -119 341 0
-178 -241 -355 0
99 259 335 0
-121 153 237 0
-301 324 355 0
-1 -136 221 0
-164 194 205 0
93 -225 269 0
98 142 -392 0
111 -211 260 0
-139 220 -380 0
-170 236 -385 0
88 107 383 0
141 225 339 0
-16 -41 174 0
142 297 -351 0
102 127 309 0
-162 -298 -300 0
85 -130 206 0
115 -150 -245 0
-39 -63 -91 0
-170 -218 341 0
-61 82 -167 0
-8 -243 -371 0
-189 -277 -321 0
-9 -57 -363 0
159 -285 302 0
-95 -115 316 0
-159 361 -384 0
127 151 165 0
81 -203 291 0
-30 229 -311 0
23 26 -222 0
-239 -310 -362 0
53 251 289 0
13 256 286 0
-52 -343 -347 0
64 282 396 0
-55 125 319 0
-295 -308 -348 0
153 -199 -376 0
-5 40 -162 0
50 109 367 0
-63 -127 313 0
-12 193 278 0
-143 -326 340 0
86 261 -395 0
-107 -239 -368 0
-122 124 -264 0
244 -350 397 0
201 354 -359 0
248 -322 347 0
-236 -288 388 0
76 210 -301 0
60 -173 -189 0
31 -121 -343 0
-6 -222 352 0
45 178 -317 0
43 -169 -277 0
196 -220 291 0
281 331 356 0
119 -263 -328 0
24 80 -192 0
29 179 -344 0
-224 -251 394 0
143 194 338 0
-78 340 382 0
65 134 -160 0
5 237 324 0
47 -146 206 0
224 -276 361 0
61 -143 -326 0
185 -251 -366 0
-80 -165 215 0
-53 -60 228 0
-54 -131 147 0
198 234 -376 0
-165 -185 325 0
99 -186 228 0
-310 -365 372 0
-10 -63 364 0
44 -157 -187 0
61 -63 246 0
-7 -83 -124 0
151 -192 351 0
146 239 366 0
76 -334 -381 0
-118 -271 -380 0
-203 295 365 0
236 297 -346 0
-32 -143 297 0
-44 275 -342 0
11 142 179 0
-26 100 109 0
63 -234 -318 0
140 193 -250 0
-221 323 366 0
-38 -72 -286 0
52 -255 333 0
-62 67 268 0
63 165 -334 0
-73 -279 364 0
-3 169 -315 0
5 95 -206 0
-163 -332 -362 0
-295 -345 -377 0
-118 -189 -204 0
-106 129 315 0
-250 287 303 0
32 105 -339 0
-234 -309 -316 0
107 191 -310 0
-194 207 357 0
-9 180 342 0
-135 149 390 0
-69 84 -266 0
-262 -323 -325 0
-18 116 -128 0
58 -169 -387 0
207 211 267 0
-227 -246 291 0
38 -42 294 0
18 48 234 0
16 31 -218 0
-52 55 -211 0
-60 -75 -114 0
-20 81 204 0
-102 -245 391 0
151 258 266 0
-115 -271 -318 0
174 286 327 0
153 -161 -217 0
-135 -145 361 0
-165 173 -333 0
192 -219 301 0
154 158 -335 0
-89 225 369 0
63 80 -104 0
68 269 388 0
20 -274 -281 0
-16 128 -188 0
-1 -238 400 0
62 281 -392 0
-103 -118 145 0
68 -155 -285 0
-244 347 348 0
59 197 -268 0
-19 138 273 0
56 -264 289 0
-62 205 372 0
80 171 235 0
-34 -99 -202 0
105 217 292 0
289 328 -356 0
-219 250 -318 0
132 -291 -365 0
-136 244 317 0
-93 -337 360 0
-71 73 -351 0
174 -190 215 0
11 -232 -270 0
-271 277 283 0
-154 177 -292 0
-75 207 383 0
40 352 -362 0
-156 -327 354 0
146 158 -170 0
53 -62 -203 0
38 -119 -384 0
181 -216 304 0
106 -190 -318 0
273 299 303 0
22 67 369 0
-2 -274 374 0
66 261 333 0
151 -188 -376 0
20 247 -353 0
-158 -194 380 0
-119 219 -233 0
159 207 -262 0
-99 291 -314 0
-167 270 -346 0
224 -270 -302 0
232 252 -304 0
30 -46 -98 0
306 -346 375 0
-39 -320 331 0
42 64 317 0
-9 -254 328 0
-115 -331 338 0
-109 134 377 0
43 163 -376 0
-204 -307 395 0
54 265 -363 0
118 -187 -332 0
28 -165 342 0
-169 -172 373 0
37 113 271 0
-91 137 268 0
10 12 -277 0
90 108 124 0
-2 338 -359 0
-93 -133 326 0
157 232 301 0
-123 -230 -308 0
127 -251 -391 0
161 239 -281 0
-28 -138 179 0
-153 -363 -391 0
-70 -144 -160 0
-259 -388 -390 0
-83 -181 -352 0
-31 -123 -326 0
-82 -337 338 0
245 322 -350 0
63 -161 -184 0
137 -287 324 0
235 304 363 0
-62 144 -224 0
-33 -276 -362 0
98 168 255 0
-12 346 364 0
-224 -274 326 0
-75 201 270 0
-26 131 209 0
-6 -210 -294 0
-221 252 366 0
-2 63 235 0
14 -165 221 0
9 -83 303 0
147 226 347 0
-6 71 -319 0
-123 254 -283 0
180 -196 266 0
-188 -189 -375 0
-55 -177 -191 0
-38 153 165 0
-64 -96 -234 0
44 48 -383 0
32 217 352 0
146 -232 -340 0
22 -220 -263 0
156 323 355 0
147 185 293 0
-20 118 247 0
-140 -181 -205 0
-34 113 226 0
268 345 -397 0
-44 -75 -253 0
-47 -249 341 0
-65 286 -399 0
-3 -59 218 0
74 282 -287 0
37 270 -278 0
-17 -147 -206 0
-157 169 257 0
-11 -93 381 0
153 203 376 0
59 295 -363 0
-98 -190 303 0
60 69 292 0
-79 351 378 0
-285 -318 395 0
-21 34 -246 0
95 -321 378 0
-362 -372 399 0
213 -234 400 0
-93 164 229 0
56 -84 -301 0
-194 -319 346 0
-161 -190 -319 0
43 -330 -337 0
-136 154 178 0
-165 364 397 0
73 -195 310 0
10 -331 -333 0
-273 299 337 0
21 242 -327 0
-58 -93 153 0
48 143 298 0
4 9 -166 0
181 218 387 0
253 298 -367 0
-142 175 392 0
64 276 298 0
123 -126 136 0
-1 -323 -395 0
-88 -219 264 0
-49 72 386 0
17 121 373 0
-53 -116 -367 0
-66 357 -393 0
-187 -192 -315 0
89 -93 -268 0
-15 141 -178 0
89 242 384 0
-62 128 374 0
-121 164 307 0
256 -272 381 0
100 -175 294 0
-225 269 -293 0
275 344 387 0
-156 157 -331 0
51 -186 245 0
35 -73 -186 0
-241 242 -323 0
243 357 387 0
41 156 333 0
94 -95 369 0
-55 245 266 0
195 344 366 0
121 269 352 0
27 260 394 0
-233 373 -393 0
-20 177 -303 0
-156 178 -307 0
118 151 -180 0
61 120 -342 0
181 314 317 0
-102 -214 344 0
-101 -191 -343 0
319 -336 372 0
162 163 -323 0
-136 -231 397 0
-193 266 345 0
3 291 360 0
-209 250 312 0
40 -220 -252 0
74 123 -367 0
45 48 244 0
-59 -257 379 0
-63 133 206 0
257 261 314 0
-163 351 365 0
288 311 328 0
-254 281 -323 0
73 306 345 0
238 239 362 0
-72 -233 390 0
121 216 380 0
99 130 -280 0
86 216 -250 0
15 70 -395 0
-144 243 294 0
-26 -138 -144 0
43 181 -261 0
-141 318 359 0
47 -116 230 0
197 275 -391 0
231 -252 -370 0
1 134 225 0
69 -163 -191 0
129 141 -322 0
28 139 312 0
-114 285 352 0
37 -120 -385 0
-45 289 374 0
2 -346 -388 0
36 346 374 0
53 148 242 0
-58 269 280 0
-126 -289 -309 0
-18 226 282 0
-43 279 -372 0
-57 -90 -399 0
172 290 -341 0
153 -185 -320 0
-25 -204 -372 0
98 -302 374 0
138 -161 -165 0
-77 119 -326 0
-84 121 -321 0
44 134 192 0
44 -252 372 0
-14 214 -349 0
9 -113 117 0
-74 311 316 0
33 -122 163 0
-202 -342 368 0
31 148 197 0
-17 -131 -173 0
173 -264 -277 0
-18 -43 64 0
-89 255 -315 0
-44 -160 178 0
202 250 -375 0
-29 -243 399 0
150 -310 382 0
19 -39 -73 0
-11 -365 397 0
-115 212 -352 0
255 -285 373 0
-88 -202 -271 0
-122 -134 -169 0
131 -182 306 0
149 -222 368 0
-99 201 -238 0
-19 -47 130 0
104 -171 -253 0
-47 106 257 0
40 -201 -362 0
102 -250 309 0
144 -342 -379 0
15 172 -192 0
167 -356 -369 0
-78 -267 307 0
123 186 236 0
182 234 373 0
243 -257 316 0
-181 291 342 0
-145 215 293 0
82 -147 269 0
-156 -208 231 0
-38 296 -318 0
175 -241 -309 0
160 233 376 0
143 -239 384 0
125 -288 -330 0
94 -219 -321 0
125 156 371 0
80 -311 373 0
-47 159 -325 0
36 53 -261 0
-213 -379 -384 0
49 -99 106 0
4 82 209 0
-85 -120 -158 0
-36 70 227 0
-23 116 -193 0
-150 -257 345 0
-38 -354 -396 0
168 -191 -206 0
-21 -130 -363 0
14 159 213 0
-267 367 -393 0
-51 -163 -280 0
-6 82 111 0
-213 -243 388 0
235 -279 -300 0
-12 122 137 0
19 -64 238 0
-123 166 -307 0
-84 311 380 0
-88 -105 -300 0
-248 264 -393 0
43 -142 292 0
100 244 337 0
-128 190 388 0
26 -28 -267 0
-115 -297 316 0
111 340 395 0
101 131 -376 0
-42 187 -266 0
-145 -248 -290 0
-107 -214 -385 0
-116 -132 -305 0
-94 138 -343 0
22 168 -378 0
11 -199 212 0
124 146 329 0
-21 43 172 0
-123 -285 -313 0
-74 -178 -380 0
-108 208 -357 0
-16 46 -220 0
118 174 -223 0
-52 125 -262 0
-75 -325 377 0
-311 -324 -388 0
15 -148 250 0
44 -113 224 0
-121 290 -363 0
44 92 -376 0
-7 235 -387 0
-22 217 287 0
18 -118 -251 0
210 -228 362 0
272 -385 -400 0
233 266 392 0
-21 165 259 0
153 -293 372 0
83 -187 -300 0
116 -254 -396 0
133 186 -302 0
-25 -56 342 0
-50 157 -383 0
39 293 -303 0
125 -279 382 0
-92 -104 -138 0
46 270 277 0
59 -83 -95 0
70 -213 -350 0
36 -44 -247 0
36 156 312 0
15 182 -353 0
-82 -285 -369 0
82 111 -288 0
-84 233 245 0
62 -113 -217 0
-343 365 386 0
-3 -242 293 0
109 -176 296 0
-105 -227 278 0
149 -261 304 0
-177 311 367 0
-188 -318 -386 0
9 152 175 0
344 364 370 0
6 -124 -234 0
-53 181 -343 0
33 187 271 0
92 328 -391 0
11 -329 -394 0
-14 375 -385 0
-51 -250 332 0
