c Phase 3 generated performance instance
c family=exact_r_allocation
c scale=12
c variant=tune
c noise_percent=0
c expected=UNSATISFIABLE
p cnf 84 1876
-1 -2 -3 0
-1 -2 -4 0
-1 -2 -5 0
-1 -2 -6 0
-1 -2 -7 0
-1 -2 -8 0
-1 -2 -9 0
-1 -2 -10 0
-1 -2 -11 0
-1 -2 -12 0
-1 -3 -4 0
-1 -3 -5 0
-1 -3 -6 0
-1 -3 -7 0
-1 -3 -8 0
-1 -3 -9 0
-1 -3 -10 0
-1 -3 -11 0
-1 -3 -12 0
-1 -4 -5 0
-1 -4 -6 0
-1 -4 -7 0
-1 -4 -8 0
-1 -4 -9 0
-1 -4 -10 0
-1 -4 -11 0
-1 -4 -12 0
-1 -5 -6 0
-1 -5 -7 0
-1 -5 -8 0
-1 -5 -9 0
-1 -5 -10 0
-1 -5 -11 0
-1 -5 -12 0
-1 -6 -7 0
-1 -6 -8 0
-1 -6 -9 0
-1 -6 -10 0
-1 -6 -11 0
-1 -6 -12 0
-1 -7 -8 0
-1 -7 -9 0
-1 -7 -10 0
-1 -7 -11 0
-1 -7 -12 0
-1 -8 -9 0
-1 -8 -10 0
-1 -8 -11 0
-1 -8 -12 0
-1 -9 -10 0
-1 -9 -11 0
-1 -9 -12 0
-1 -10 -11 0
-1 -10 -12 0
-1 -11 -12 0
-2 -3 -4 0
-2 -3 -5 0
-2 -3 -6 0
-2 -3 -7 0
-2 -3 -8 0
-2 -3 -9 0
-2 -3 -10 0
-2 -3 -11 0
-2 -3 -12 0
-2 -4 -5 0
-2 -4 -6 0
-2 -4 -7 0
-2 -4 -8 0
-2 -4 -9 0
-2 -4 -10 0
-2 -4 -11 0
-2 -4 -12 0
-2 -5 -6 0
-2 -5 -7 0
-2 -5 -8 0
-2 -5 -9 0
-2 -5 -10 0
-2 -5 -11 0
-2 -5 -12 0
-2 -6 -7 0
-2 -6 -8 0
-2 -6 -9 0
-2 -6 -10 0
-2 -6 -11 0
-2 -6 -12 0
-2 -7 -8 0
-2 -7 -9 0
-2 -7 -10 0
-2 -7 -11 0
-2 -7 -12 0
-2 -8 -9 0
-2 -8 -10 0
-2 -8 -11 0
-2 -8 -12 0
-2 -9 -10 0
-2 -9 -11 0
-2 -9 -12 0
-2 -10 -11 0
-2 -10 -12 0
-2 -11 -12 0
-3 -4 -5 0
-3 -4 -6 0
-3 -4 -7 0
-3 -4 -8 0
-3 -4 -9 0
-3 -4 -10 0
-3 -4 -11 0
-3 -4 -12 0
-3 -5 -6 0
-3 -5 -7 0
-3 -5 -8 0
-3 -5 -9 0
-3 -5 -10 0
-3 -5 -11 0
-3 -5 -12 0
-3 -6 -7 0
-3 -6 -8 0
-3 -6 -9 0
-3 -6 -10 0
-3 -6 -11 0
-3 -6 -12 0
-3 -7 -8 0
-3 -7 -9 0
-3 -7 -10 0
-3 -7 -11 0
-3 -7 -12 0
-3 -8 -9 0
-3 -8 -10 0
-3 -8 -11 0
-3 -8 -12 0
-3 -9 -10 0
-3 -9 -11 0
-3 -9 -12 0
-3 -10 -11 0
-3 -10 -12 0
-3 -11 -12 0
-4 -5 -6 0
-4 -5 -7 0
-4 -5 -8 0
-4 -5 -9 0
-4 -5 -10 0
-4 -5 -11 0
-4 -5 -12 0
-4 -6 -7 0
-4 -6 -8 0
-4 -6 -9 0
-4 -6 -10 0
-4 -6 -11 0
-4 -6 -12 0
-4 -7 -8 0
-4 -7 -9 0
-4 -7 -10 0
-4 -7 -11 0
-4 -7 -12 0
-4 -8 -9 0
-4 -8 -10 0
-4 -8 -11 0
-4 -8 -12 0
-4 -9 -10 0
-4 -9 -11 0
-4 -9 -12 0
-4 -10 -11 0
-4 -10 -12 0
-4 -11 -12 0
-5 -6 -7 0
-5 -6 -8 0
-5 -6 -9 0
-5 -6 -10 0
-5 -6 -11 0
-5 -6 -12 0
-5 -7 -8 0
-5 -7 -9 0
-5 -7 -10 0
-5 -7 -11 0
-5 -7 -12 0
-5 -8 -9 0
-5 -8 -10 0
-5 -8 -11 0
-5 -8 -12 0
-5 -9 -10 0
-5 -9 -11 0
-5 -9 -12 0
-5 -10 -11 0
-5 -10 -12 0
-5 -11 -12 0
-6 -7 -8 0
-6 -7 -9 0
-6 -7 -10 0
-6 -7 -11 0
-6 -7 -12 0
-6 -8 -9 0
-6 -8 -10 0
-6 -8 -11 0
-6 -8 -12 0
-6 -9 -10 0
-6 -9 -11 0
-6 -9 -12 0
-6 -10 -11 0
-6 -10 -12 0
-6 -11 -12 0
-7 -8 -9 0
-7 -8 -10 0
-7 -8 -11 0
-7 -8 -12 0
-7 -9 -10 0
-7 -9 -11 0
-7 -9 -12 0
-7 -10 -11 0
-7 -10 -12 0
-7 -11 -12 0
-8 -9 -10 0
-8 -9 -11 0
-8 -9 -12 0
-8 -10 -11 0
-8 -10 -12 0
-8 -11 -12 0
-9 -10 -11 0
-9 -10 -12 0
-9 -11 -12 0
-10 -11 -12 0
1 2 3 4 5 6 7 8 9 10 11 0
1 2 3 4 5 6 7 8 9 10 12 0
1 2 3 4 5 6 7 8 9 11 12 0
1 2 3 4 5 6 7 8 10 11 12 0
1 2 3 4 5 6 7 9 10 11 12 0
1 2 3 4 5 6 8 9 10 11 12 0
1 2 3 4 5 7 8 9 10 11 12 0
1 2 3 4 6 7 8 9 10 11 12 0
1 2 3 5 6 7 8 9 10 11 12 0
1 2 4 5 6 7 8 9 10 11 12 0
1 3 4 5 6 7 8 9 10 11 12 0
2 3 4 5 6 7 8 9 10 11 12 0
-13 -14 -15 0
-13 -14 -16 0
-13 -14 -17 0
-13 -14 -18 0
-13 -14 -19 0
-13 -14 -20 0
-13 -14 -21 0
-13 -14 -22 0
-13 -14 -23 0
-13 -14 -24 0
-13 -15 -16 0
-13 -15 -17 0
-13 -15 -18 0
-13 -15 -19 0
-13 -15 -20 0
-13 -15 -21 0
-13 -15 -22 0
-13 -15 -23 0
-13 -15 -24 0
-13 -16 -17 0
-13 -16 -18 0
-13 -16 -19 0
-13 -16 -20 0
-13 -16 -21 0
-13 -16 -22 0
-13 -16 -23 0
-13 -16 -24 0
-13 -17 -18 0
-13 -17 -19 0
-13 -17 -20 0
-13 -17 -21 0
-13 -17 -22 0
-13 -17 -23 0
-13 -17 -24 0
-13 -18 -19 0
-13 -18 -20 0
-13 -18 -21 0
-13 -18 -22 0
-13 -18 -23 0
-13 -18 -24 0
-13 -19 -20 0
-13 -19 -21 0
-13 -19 -22 0
-13 -19 -23 0
-13 -19 -24 0
-13 -20 -21 0
-13 -20 -22 0
-13 -20 -23 0
-13 -20 -24 0
-13 -21 -22 0
-13 -21 -23 0
-13 -21 -24 0
-13 -22 -23 0
-13 -22 -24 0
-13 -23 -24 0
-14 -15 -16 0
-14 -15 -17 0
-14 -15 -18 0
-14 -15 -19 0
-14 -15 -20 0
-14 -15 -21 0
-14 -15 -22 0
-14 -15 -23 0
-14 -15 -24 0
-14 -16 -17 0
-14 -16 -18 0
-14 -16 -19 0
-14 -16 -20 0
-14 -16 -21 0
-14 -16 -22 0
-14 -16 -23 0
-14 -16 -24 0
-14 -17 -18 0
-14 -17 -19 0
-14 -17 -20 0
-14 -17 -21 0
-14 -17 -22 0
-14 -17 -23 0
-14 -17 -24 0
-14 -18 -19 0
-14 -18 -20 0
-14 -18 -21 0
-14 -18 -22 0
-14 -18 -23 0
-14 -18 -24 0
-14 -19 -20 0
-14 -19 -21 0
-14 -19 -22 0
-14 -19 -23 0
-14 -19 -24 0
-14 -20 -21 0
-14 -20 -22 0
-14 -20 -23 0
-14 -20 -24 0
-14 -21 -22 0
-14 -21 -23 0
-14 -21 -24 0
-14 -22 -23 0
-14 -22 -24 0
-14 -23 -24 0
-15 -16 -17 0
-15 -16 -18 0
-15 -16 -19 0
-15 -16 -20 0
-15 -16 -21 0
-15 -16 -22 0
-15 -16 -23 0
-15 -16 -24 0
-15 -17 -18 0
-15 -17 -19 0
-15 -17 -20 0
-15 -17 -21 0
-15 -17 -22 0
-15 -17 -23 0
-15 -17 -24 0
-15 -18 -19 0
-15 -18 -20 0
-15 -18 -21 0
-15 -18 -22 0
-15 -18 -23 0
-15 -18 -24 0
-15 -19 -20 0
-15 -19 -21 0
-15 -19 -22 0
-15 -19 -23 0
-15 -19 -24 0
-15 -20 -21 0
-15 -20 -22 0
-15 -20 -23 0
-15 -20 -24 0
-15 -21 -22 0
-15 -21 -23 0
-15 -21 -24 0
-15 -22 -23 0
-15 -22 -24 0
-15 -23 -24 0
-16 -17 -18 0
-16 -17 -19 0
-16 -17 -20 0
-16 -17 -21 0
-16 -17 -22 0
-16 -17 -23 0
-16 -17 -24 0
-16 -18 -19 0
-16 -18 -20 0
-16 -18 -21 0
-16 -18 -22 0
-16 -18 -23 0
-16 -18 -24 0
-16 -19 -20 0
-16 -19 -21 0
-16 -19 -22 0
-16 -19 -23 0
-16 -19 -24 0
-16 -20 -21 0
-16 -20 -22 0
-16 -20 -23 0
-16 -20 -24 0
-16 -21 -22 0
-16 -21 -23 0
-16 -21 -24 0
-16 -22 -23 0
-16 -22 -24 0
-16 -23 -24 0
-17 -18 -19 0
-17 -18 -20 0
-17 -18 -21 0
-17 -18 -22 0
-17 -18 -23 0
-17 -18 -24 0
-17 -19 -20 0
-17 -19 -21 0
-17 -19 -22 0
-17 -19 -23 0
-17 -19 -24 0
-17 -20 -21 0
-17 -20 -22 0
-17 -20 -23 0
-17 -20 -24 0
-17 -21 -22 0
-17 -21 -23 0
-17 -21 -24 0
-17 -22 -23 0
-17 -22 -24 0
-17 -23 -24 0
-18 -19 -20 0
-18 -19 -21 0
-18 -19 -22 0
-18 -19 -23 0
-18 -19 -24 0
-18 -20 -21 0
-18 -20 -22 0
-18 -20 -23 0
-18 -20 -24 0
-18 -21 -22 0
-18 -21 -23 0
-18 -21 -24 0
-18 -22 -23 0
-18 -22 -24 0
-18 -23 -24 0
-19 -20 -21 0
-19 -20 -22 0
-19 -20 -23 0
-19 -20 -24 0
-19 -21 -22 0
-19 -21 -23 0
-19 -21 -24 0
-19 -22 -23 0
-19 -22 -24 0
-19 -23 -24 0
-20 -21 -22 0
-20 -21 -23 0
-20 -21 -24 0
-20 -22 -23 0
-20 -22 -24 0
-20 -23 -24 0
-21 -22 -23 0
-21 -22 -24 0
-21 -23 -24 0
-22 -23 -24 0
13 14 15 16 17 18 19 20 21 22 23 0
13 14 15 16 17 18 19 20 21 22 24 0
13 14 15 16 17 18 19 20 21 23 24 0
13 14 15 16 17 18 19 20 22 23 24 0
13 14 15 16 17 18 19 21 22 23 24 0
13 14 15 16 17 18 20 21 22 23 24 0
13 14 15 16 17 19 20 21 22 23 24 0
13 14 15 16 18 19 20 21 22 23 24 0
13 14 15 17 18 19 20 21 22 23 24 0
13 14 16 17 18 19 20 21 22 23 24 0
13 15 16 17 18 19 20 21 22 23 24 0
14 15 16 17 18 19 20 21 22 23 24 0
-25 -26 -27 0
-25 -26 -28 0
-25 -26 -29 0
-25 -26 -30 0
-25 -26 -31 0
-25 -26 -32 0
-25 -26 -33 0
-25 -26 -34 0
-25 -26 -35 0
-25 -26 -36 0
-25 -27 -28 0
-25 -27 -29 0
-25 -27 -30 0
-25 -27 -31 0
-25 -27 -32 0
-25 -27 -33 0
-25 -27 -34 0
-25 -27 -35 0
-25 -27 -36 0
-25 -28 -29 0
-25 -28 -30 0
-25 -28 -31 0
-25 -28 -32 0
-25 -28 -33 0
-25 -28 -34 0
-25 -28 -35 0
-25 -28 -36 0
-25 -29 -30 0
-25 -29 -31 0
-25 -29 -32 0
-25 -29 -33 0
-25 -29 -34 0
-25 -29 -35 0
-25 -29 -36 0
-25 -30 -31 0
-25 -30 -32 0
-25 -30 -33 0
-25 -30 -34 0
-25 -30 -35 0
-25 -30 -36 0
-25 -31 -32 0
-25 -31 -33 0
-25 -31 -34 0
-25 -31 -35 0
-25 -31 -36 0
-25 -32 -33 0
-25 -32 -34 0
-25 -32 -35 0
-25 -32 -36 0
-25 -33 -34 0
-25 -33 -35 0
-25 -33 -36 0
-25 -34 -35 0
-25 -34 -36 0
-25 -35 -36 0
-26 -27 -28 0
-26 -27 -29 0
-26 -27 -30 0
-26 -27 -31 0
-26 -27 -32 0
-26 -27 -33 0
-26 -27 -34 0
-26 -27 -35 0
-26 -27 -36 0
-26 -28 -29 0
-26 -28 -30 0
-26 -28 -31 0
-26 -28 -32 0
-26 -28 -33 0
-26 -28 -34 0
-26 -28 -35 0
-26 -28 -36 0
-26 -29 -30 0
-26 -29 -31 0
-26 -29 -32 0
-26 -29 -33 0
-26 -29 -34 0
-26 -29 -35 0
-26 -29 -36 0
-26 -30 -31 0
-26 -30 -32 0
-26 -30 -33 0
-26 -30 -34 0
-26 -30 -35 0
-26 -30 -36 0
-26 -31 -32 0
-26 -31 -33 0
-26 -31 -34 0
-26 -31 -35 0
-26 -31 -36 0
-26 -32 -33 0
-26 -32 -34 0
-26 -32 -35 0
-26 -32 -36 0
-26 -33 -34 0
-26 -33 -35 0
-26 -33 -36 0
-26 -34 -35 0
-26 -34 -36 0
-26 -35 -36 0
-27 -28 -29 0
-27 -28 -30 0
-27 -28 -31 0
-27 -28 -32 0
-27 -28 -33 0
-27 -28 -34 0
-27 -28 -35 0
-27 -28 -36 0
-27 -29 -30 0
-27 -29 -31 0
-27 -29 -32 0
-27 -29 -33 0
-27 -29 -34 0
-27 -29 -35 0
-27 -29 -36 0
-27 -30 -31 0
-27 -30 -32 0
-27 -30 -33 0
-27 -30 -34 0
-27 -30 -35 0
-27 -30 -36 0
-27 -31 -32 0
-27 -31 -33 0
-27 -31 -34 0
-27 -31 -35 0
-27 -31 -36 0
-27 -32 -33 0
-27 -32 -34 0
-27 -32 -35 0
-27 -32 -36 0
-27 -33 -34 0
-27 -33 -35 0
-27 -33 -36 0
-27 -34 -35 0
-27 -34 -36 0
-27 -35 -36 0
-28 -29 -30 0
-28 -29 -31 0
-28 -29 -32 0
-28 -29 -33 0
-28 -29 -34 0
-28 -29 -35 0
-28 -29 -36 0
-28 -30 -31 0
-28 -30 -32 0
-28 -30 -33 0
-28 -30 -34 0
-28 -30 -35 0
-28 -30 -36 0
-28 -31 -32 0
-28 -31 -33 0
-28 -31 -34 0
-28 -31 -35 0
-28 -31 -36 0
-28 -32 -33 0
-28 -32 -34 0
-28 -32 -35 0
-28 -32 -36 0
-28 -33 -34 0
-28 -33 -35 0
-28 -33 -36 0
-28 -34 -35 0
-28 -34 -36 0
-28 -35 -36 0
-29 -30 -31 0
-29 -30 -32 0
-29 -30 -33 0
-29 -30 -34 0
-29 -30 -35 0
-29 -30 -36 0
-29 -31 -32 0
-29 -31 -33 0
-29 -31 -34 0
-29 -31 -35 0
-29 -31 -36 0
-29 -32 -33 0
-29 -32 -34 0
-29 -32 -35 0
-29 -32 -36 0
-29 -33 -34 0
-29 -33 -35 0
-29 -33 -36 0
-29 -34 -35 0
-29 -34 -36 0
-29 -35 -36 0
-30 -31 -32 0
-30 -31 -33 0
-30 -31 -34 0
-30 -31 -35 0
-30 -31 -36 0
-30 -32 -33 0
-30 -32 -34 0
-30 -32 -35 0
-30 -32 -36 0
-30 -33 -34 0
-30 -33 -35 0
-30 -33 -36 0
-30 -34 -35 0
-30 -34 -36 0
-30 -35 -36 0
-31 -32 -33 0
-31 -32 -34 0
-31 -32 -35 0
-31 -32 -36 0
-31 -33 -34 0
-31 -33 -35 0
-31 -33 -36 0
-31 -34 -35 0
-31 -34 -36 0
-31 -35 -36 0
-32 -33 -34 0
-32 -33 -35 0
-32 -33 -36 0
-32 -34 -35 0
-32 -34 -36 0
-32 -35 -36 0
-33 -34 -35 0
-33 -34 -36 0
-33 -35 -36 0
-34 -35 -36 0
25 26 27 28 29 30 31 32 33 34 35 0
25 26 27 28 29 30 31 32 33 34 36 0
25 26 27 28 29 30 31 32 33 35 36 0
25 26 27 28 29 30 31 32 34 35 36 0
25 26 27 28 29 30 31 33 34 35 36 0
25 26 27 28 29 30 32 33 34 35 36 0
25 26 27 28 29 31 32 33 34 35 36 0
25 26 27 28 30 31 32 33 34 35 36 0
25 26 27 29 30 31 32 33 34 35 36 0
25 26 28 29 30 31 32 33 34 35 36 0
25 27 28 29 30 31 32 33 34 35 36 0
26 27 28 29 30 31 32 33 34 35 36 0
-37 -38 -39 0
-37 -38 -40 0
-37 -38 -41 0
-37 -38 -42 0
-37 -38 -43 0
-37 -38 -44 0
-37 -38 -45 0
-37 -38 -46 0
-37 -38 -47 0
-37 -38 -48 0
-37 -39 -40 0
-37 -39 -41 0
-37 -39 -42 0
-37 -39 -43 0
-37 -39 -44 0
-37 -39 -45 0
-37 -39 -46 0
-37 -39 -47 0
-37 -39 -48 0
-37 -40 -41 0
-37 -40 -42 0
-37 -40 -43 0
-37 -40 -44 0
-37 -40 -45 0
-37 -40 -46 0
-37 -40 -47 0
-37 -40 -48 0
-37 -41 -42 0
-37 -41 -43 0
-37 -41 -44 0
-37 -41 -45 0
-37 -41 -46 0
-37 -41 -47 0
-37 -41 -48 0
-37 -42 -43 0
-37 -42 -44 0
-37 -42 -45 0
-37 -42 -46 0
-37 -42 -47 0
-37 -42 -48 0
-37 -43 -44 0
-37 -43 -45 0
-37 -43 -46 0
-37 -43 -47 0
-37 -43 -48 0
-37 -44 -45 0
-37 -44 -46 0
-37 -44 -47 0
-37 -44 -48 0
-37 -45 -46 0
-37 -45 -47 0
-37 -45 -48 0
-37 -46 -47 0
-37 -46 -48 0
-37 -47 -48 0
-38 -39 -40 0
-38 -39 -41 0
-38 -39 -42 0
-38 -39 -43 0
-38 -39 -44 0
-38 -39 -45 0
-38 -39 -46 0
-38 -39 -47 0
-38 -39 -48 0
-38 -40 -41 0
-38 -40 -42 0
-38 -40 -43 0
-38 -40 -44 0
-38 -40 -45 0
-38 -40 -46 0
-38 -40 -47 0
-38 -40 -48 0
-38 -41 -42 0
-38 -41 -43 0
-38 -41 -44 0
-38 -41 -45 0
-38 -41 -46 0
-38 -41 -47 0
-38 -41 -48 0
-38 -42 -43 0
-38 -42 -44 0
-38 -42 -45 0
-38 -42 -46 0
-38 -42 -47 0
-38 -42 -48 0
-38 -43 -44 0
-38 -43 -45 0
-38 -43 -46 0
-38 -43 -47 0
-38 -43 -48 0
-38 -44 -45 0
-38 -44 -46 0
-38 -44 -47 0
-38 -44 -48 0
-38 -45 -46 0
-38 -45 -47 0
-38 -45 -48 0
-38 -46 -47 0
-38 -46 -48 0
-38 -47 -48 0
-39 -40 -41 0
-39 -40 -42 0
-39 -40 -43 0
-39 -40 -44 0
-39 -40 -45 0
-39 -40 -46 0
-39 -40 -47 0
-39 -40 -48 0
-39 -41 -42 0
-39 -41 -43 0
-39 -41 -44 0
-39 -41 -45 0
-39 -41 -46 0
-39 -41 -47 0
-39 -41 -48 0
-39 -42 -43 0
-39 -42 -44 0
-39 -42 -45 0
-39 -42 -46 0
-39 -42 -47 0
-39 -42 -48 0
-39 -43 -44 0
-39 -43 -45 0
-39 -43 -46 0
-39 -43 -47 0
-39 -43 -48 0
-39 -44 -45 0
-39 -44 -46 0
-39 -44 -47 0
-39 -44 -48 0
-39 -45 -46 0
-39 -45 -47 0
-39 -45 -48 0
-39 -46 -47 0
-39 -46 -48 0
-39 -47 -48 0
-40 -41 -42 0
-40 -41 -43 0
-40 -41 -44 0
-40 -41 -45 0
-40 -41 -46 0
-40 -41 -47 0
-40 -41 -48 0
-40 -42 -43 0
-40 -42 -44 0
-40 -42 -45 0
-40 -42 -46 0
-40 -42 -47 0
-40 -42 -48 0
-40 -43 -44 0
-40 -43 -45 0
-40 -43 -46 0
-40 -43 -47 0
-40 -43 -48 0
-40 -44 -45 0
-40 -44 -46 0
-40 -44 -47 0
-40 -44 -48 0
-40 -45 -46 0
-40 -45 -47 0
-40 -45 -48 0
-40 -46 -47 0
-40 -46 -48 0
-40 -47 -48 0
-41 -42 -43 0
-41 -42 -44 0
-41 -42 -45 0
-41 -42 -46 0
-41 -42 -47 0
-41 -42 -48 0
-41 -43 -44 0
-41 -43 -45 0
-41 -43 -46 0
-41 -43 -47 0
-41 -43 -48 0
-41 -44 -45 0
-41 -44 -46 0
-41 -44 -47 0
-41 -44 -48 0
-41 -45 -46 0
-41 -45 -47 0
-41 -45 -48 0
-41 -46 -47 0
-41 -46 -48 0
-41 -47 -48 0
-42 -43 -44 0
-42 -43 -45 0
-42 -43 -46 0
-42 -43 -47 0
-42 -43 -48 0
-42 -44 -45 0
-42 -44 -46 0
-42 -44 -47 0
-42 -44 -48 0
-42 -45 -46 0
-42 -45 -47 0
-42 -45 -48 0
-42 -46 -47 0
-42 -46 -48 0
-42 -47 -48 0
-43 -44 -45 0
-43 -44 -46 0
-43 -44 -47 0
-43 -44 -48 0
-43 -45 -46 0
-43 -45 -47 0
-43 -45 -48 0
-43 -46 -47 0
-43 -46 -48 0
-43 -47 -48 0
-44 -45 -46 0
-44 -45 -47 0
-44 -45 -48 0
-44 -46 -47 0
-44 -46 -48 0
-44 -47 -48 0
-45 -46 -47 0
-45 -46 -48 0
-45 -47 -48 0
-46 -47 -48 0
37 38 39 40 41 42 43 44 45 46 47 0
37 38 39 40 41 42 43 44 45 46 48 0
37 38 39 40 41 42 43 44 45 47 48 0
37 38 39 40 41 42 43 44 46 47 48 0
37 38 39 40 41 42 43 45 46 47 48 0
37 38 39 40 41 42 44 45 46 47 48 0
37 38 39 40 41 43 44 45 46 47 48 0
37 38 39 40 42 43 44 45 46 47 48 0
37 38 39 41 42 43 44 45 46 47 48 0
37 38 40 41 42 43 44 45 46 47 48 0
37 39 40 41 42 43 44 45 46 47 48 0
38 39 40 41 42 43 44 45 46 47 48 0
-49 -50 -51 0
-49 -50 -52 0
-49 -50 -53 0
-49 -50 -54 0
-49 -50 -55 0
-49 -50 -56 0
-49 -50 -57 0
-49 -50 -58 0
-49 -50 -59 0
-49 -50 -60 0
-49 -51 -52 0
-49 -51 -53 0
-49 -51 -54 0
-49 -51 -55 0
-49 -51 -56 0
-49 -51 -57 0
-49 -51 -58 0
-49 -51 -59 0
-49 -51 -60 0
-49 -52 -53 0
-49 -52 -54 0
-49 -52 -55 0
-49 -52 -56 0
-49 -52 -57 0
-49 -52 -58 0
-49 -52 -59 0
-49 -52 -60 0
-49 -53 -54 0
-49 -53 -55 0
-49 -53 -56 0
-49 -53 -57 0
-49 -53 -58 0
-49 -53 -59 0
-49 -53 -60 0
-49 -54 -55 0
-49 -54 -56 0
-49 -54 -57 0
-49 -54 -58 0
-49 -54 -59 0
-49 -54 -60 0
-49 -55 -56 0
-49 -55 -57 0
-49 -55 -58 0
-49 -55 -59 0
-49 -55 -60 0
-49 -56 -57 0
-49 -56 -58 0
-49 -56 -59 0
-49 -56 -60 0
-49 -57 -58 0
-49 -57 -59 0
-49 -57 -60 0
-49 -58 -59 0
-49 -58 -60 0
-49 -59 -60 0
-50 -51 -52 0
-50 -51 -53 0
-50 -51 -54 0
-50 -51 -55 0
-50 -51 -56 0
-50 -51 -57 0
-50 -51 -58 0
-50 -51 -59 0
-50 -51 -60 0
-50 -52 -53 0
-50 -52 -54 0
-50 -52 -55 0
-50 -52 -56 0
-50 -52 -57 0
-50 -52 -58 0
-50 -52 -59 0
-50 -52 -60 0
-50 -53 -54 0
-50 -53 -55 0
-50 -53 -56 0
-50 -53 -57 0
-50 -53 -58 0
-50 -53 -59 0
-50 -53 -60 0
-50 -54 -55 0
-50 -54 -56 0
-50 -54 -57 0
-50 -54 -58 0
-50 -54 -59 0
-50 -54 -60 0
-50 -55 -56 0
-50 -55 -57 0
-50 -55 -58 0
-50 -55 -59 0
-50 -55 -60 0
-50 -56 -57 0
-50 -56 -58 0
-50 -56 -59 0
-50 -56 -60 0
-50 -57 -58 0
-50 -57 -59 0
-50 -57 -60 0
-50 -58 -59 0
-50 -58 -60 0
-50 -59 -60 0
-51 -52 -53 0
-51 -52 -54 0
-51 -52 -55 0
-51 -52 -56 0
-51 -52 -57 0
-51 -52 -58 0
-51 -52 -59 0
-51 -52 -60 0
-51 -53 -54 0
-51 -53 -55 0
-51 -53 -56 0
-51 -53 -57 0
-51 -53 -58 0
-51 -53 -59 0
-51 -53 -60 0
-51 -54 -55 0
-51 -54 -56 0
-51 -54 -57 0
-51 -54 -58 0
-51 -54 -59 0
-51 -54 -60 0
-51 -55 -56 0
-51 -55 -57 0
-51 -55 -58 0
-51 -55 -59 0
-51 -55 -60 0
-51 -56 -57 0
-51 -56 -58 0
-51 -56 -59 0
-51 -56 -60 0
-51 -57 -58 0
-51 -57 -59 0
-51 -57 -60 0
-51 -58 -59 0
-51 -58 -60 0
-51 -59 -60 0
-52 -53 -54 0
-52 -53 -55 0
-52 -53 -56 0
-52 -53 -57 0
-52 -53 -58 0
-52 -53 -59 0
-52 -53 -60 0
-52 -54 -55 0
-52 -54 -56 0
-52 -54 -57 0
-52 -54 -58 0
-52 -54 -59 0
-52 -54 -60 0
-52 -55 -56 0
-52 -55 -57 0
-52 -55 -58 0
-52 -55 -59 0
-52 -55 -60 0
-52 -56 -57 0
-52 -56 -58 0
-52 -56 -59 0
-52 -56 -60 0
-52 -57 -58 0
-52 -57 -59 0
-52 -57 -60 0
-52 -58 -59 0
-52 -58 -60 0
-52 -59 -60 0
-53 -54 -55 0
-53 -54 -56 0
-53 -54 -57 0
-53 -54 -58 0
-53 -54 -59 0
-53 -54 -60 0
-53 -55 -56 0
-53 -55 -57 0
-53 -55 -58 0
-53 -55 -59 0
-53 -55 -60 0
-53 -56 -57 0
-53 -56 -58 0
-53 -56 -59 0
-53 -56 -60 0
-53 -57 -58 0
-53 -57 -59 0
-53 -57 -60 0
-53 -58 -59 0
-53 -58 -60 0
-53 -59 -60 0
-54 -55 -56 0
-54 -55 -57 0
-54 -55 -58 0
-54 -55 -59 0
-54 -55 -60 0
-54 -56 -57 0
-54 -56 -58 0
-54 -56 -59 0
-54 -56 -60 0
-54 -57 -58 0
-54 -57 -59 0
-54 -57 -60 0
-54 -58 -59 0
-54 -58 -60 0
-54 -59 -60 0
-55 -56 -57 0
-55 -56 -58 0
-55 -56 -59 0
-55 -56 -60 0
-55 -57 -58 0
-55 -57 -59 0
-55 -57 -60 0
-55 -58 -59 0
-55 -58 -60 0
-55 -59 -60 0
-56 -57 -58 0
-56 -57 -59 0
-56 -57 -60 0
-56 -58 -59 0
-56 -58 -60 0
-56 -59 -60 0
-57 -58 -59 0
-57 -58 -60 0
-57 -59 -60 0
-58 -59 -60 0
49 50 51 52 53 54 55 56 57 58 59 0
49 50 51 52 53 54 55 56 57 58 60 0
49 50 51 52 53 54 55 56 57 59 60 0
49 50 51 52 53 54 55 56 58 59 60 0
49 50 51 52 53 54 55 57 58 59 60 0
49 50 51 52 53 54 56 57 58 59 60 0
49 50 51 52 53 55 56 57 58 59 60 0
49 50 51 52 54 55 56 57 58 59 60 0
49 50 51 53 54 55 56 57 58 59 60 0
49 50 52 53 54 55 56 57 58 59 60 0
49 51 52 53 54 55 56 57 58 59 60 0
50 51 52 53 54 55 56 57 58 59 60 0
-61 -62 -63 0
-61 -62 -64 0
-61 -62 -65 0
-61 -62 -66 0
-61 -62 -67 0
-61 -62 -68 0
-61 -62 -69 0
-61 -62 -70 0
-61 -62 -71 0
-61 -62 -72 0
-61 -63 -64 0
-61 -63 -65 0
-61 -63 -66 0
-61 -63 -67 0
-61 -63 -68 0
-61 -63 -69 0
-61 -63 -70 0
-61 -63 -71 0
-61 -63 -72 0
-61 -64 -65 0
-61 -64 -66 0
-61 -64 -67 0
-61 -64 -68 0
-61 -64 -69 0
-61 -64 -70 0
-61 -64 -71 0
-61 -64 -72 0
-61 -65 -66 0
-61 -65 -67 0
-61 -65 -68 0
-61 -65 -69 0
-61 -65 -70 0
-61 -65 -71 0
-61 -65 -72 0
-61 -66 -67 0
-61 -66 -68 0
-61 -66 -69 0
-61 -66 -70 0
-61 -66 -71 0
-61 -66 -72 0
-61 -67 -68 0
-61 -67 -69 0
-61 -67 -70 0
-61 -67 -71 0
-61 -67 -72 0
-61 -68 -69 0
-61 -68 -70 0
-61 -68 -71 0
-61 -68 -72 0
-61 -69 -70 0
-61 -69 -71 0
-61 -69 -72 0
-61 -70 -71 0
-61 -70 -72 0
-61 -71 -72 0
-62 -63 -64 0
-62 -63 -65 0
-62 -63 -66 0
-62 -63 -67 0
-62 -63 -68 0
-62 -63 -69 0
-62 -63 -70 0
-62 -63 -71 0
-62 -63 -72 0
-62 -64 -65 0
-62 -64 -66 0
-62 -64 -67 0
-62 -64 -68 0
-62 -64 -69 0
-62 -64 -70 0
-62 -64 -71 0
-62 -64 -72 0
-62 -65 -66 0
-62 -65 -67 0
-62 -65 -68 0
-62 -65 -69 0
-62 -65 -70 0
-62 -65 -71 0
-62 -65 -72 0
-62 -66 -67 0
-62 -66 -68 0
-62 -66 -69 0
-62 -66 -70 0
-62 -66 -71 0
-62 -66 -72 0
-62 -67 -68 0
-62 -67 -69 0
-62 -67 -70 0
-62 -67 -71 0
-62 -67 -72 0
-62 -68 -69 0
-62 -68 -70 0
-62 -68 -71 0
-62 -68 -72 0
-62 -69 -70 0
-62 -69 -71 0
-62 -69 -72 0
-62 -70 -71 0
-62 -70 -72 0
-62 -71 -72 0
-63 -64 -65 0
-63 -64 -66 0
-63 -64 -67 0
-63 -64 -68 0
-63 -64 -69 0
-63 -64 -70 0
-63 -64 -71 0
-63 -64 -72 0
-63 -65 -66 0
-63 -65 -67 0
-63 -65 -68 0
-63 -65 -69 0
-63 -65 -70 0
-63 -65 -71 0
-63 -65 -72 0
-63 -66 -67 0
-63 -66 -68 0
-63 -66 -69 0
-63 -66 -70 0
-63 -66 -71 0
-63 -66 -72 0
-63 -67 -68 0
-63 -67 -69 0
-63 -67 -70 0
-63 -67 -71 0
-63 -67 -72 0
-63 -68 -69 0
-63 -68 -70 0
-63 -68 -71 0
-63 -68 -72 0
-63 -69 -70 0
-63 -69 -71 0
-63 -69 -72 0
-63 -70 -71 0
-63 -70 -72 0
-63 -71 -72 0
-64 -65 -66 0
-64 -65 -67 0
-64 -65 -68 0
-64 -65 -69 0
-64 -65 -70 0
-64 -65 -71 0
-64 -65 -72 0
-64 -66 -67 0
-64 -66 -68 0
-64 -66 -69 0
-64 -66 -70 0
-64 -66 -71 0
-64 -66 -72 0
-64 -67 -68 0
-64 -67 -69 0
-64 -67 -70 0
-64 -67 -71 0
-64 -67 -72 0
-64 -68 -69 0
-64 -68 -70 0
-64 -68 -71 0
-64 -68 -72 0
-64 -69 -70 0
-64 -69 -71 0
-64 -69 -72 0
-64 -70 -71 0
-64 -70 -72 0
-64 -71 -72 0
-65 -66 -67 0
-65 -66 -68 0
-65 -66 -69 0
-65 -66 -70 0
-65 -66 -71 0
-65 -66 -72 0
-65 -67 -68 0
-65 -67 -69 0
-65 -67 -70 0
-65 -67 -71 0
-65 -67 -72 0
-65 -68 -69 0
-65 -68 -70 0
-65 -68 -71 0
-65 -68 -72 0
-65 -69 -70 0
-65 -69 -71 0
-65 -69 -72 0
-65 -70 -71 0
-65 -70 -72 0
-65 -71 -72 0
-66 -67 -68 0
-66 -67 -69 0
-66 -67 -70 0
-66 -67 -71 0
-66 -67 -72 0
-66 -68 -69 0
-66 -68 -70 0
-66 -68 -71 0
-66 -68 -72 0
-66 -69 -70 0
-66 -69 -71 0
-66 -69 -72 0
-66 -70 -71 0
-66 -70 -72 0
-66 -71 -72 0
-67 -68 -69 0
-67 -68 -70 0
-67 -68 -71 0
-67 -68 -72 0
-67 -69 -70 0
-67 -69 -71 0
-67 -69 -72 0
-67 -70 -71 0
-67 -70 -72 0
-67 -71 -72 0
-68 -69 -70 0
-68 -69 -71 0
-68 -69 -72 0
-68 -70 -71 0
-68 -70 -72 0
-68 -71 -72 0
-69 -70 -71 0
-69 -70 -72 0
-69 -71 -72 0
-70 -71 -72 0
61 62 63 64 65 66 67 68 69 70 71 0
61 62 63 64 65 66 67 68 69 70 72 0
61 62 63 64 65 66 67 68 69 71 72 0
61 62 63 64 65 66 67 68 70 71 72 0
61 62 63 64 65 66 67 69 70 71 72 0
61 62 63 64 65 66 68 69 70 71 72 0
61 62 63 64 65 67 68 69 70 71 72 0
61 62 63 64 66 67 68 69 70 71 72 0
61 62 63 65 66 67 68 69 70 71 72 0
61 62 64 65 66 67 68 69 70 71 72 0
61 63 64 65 66 67 68 69 70 71 72 0
62 63 64 65 66 67 68 69 70 71 72 0
-73 -74 -75 0
-73 -74 -76 0
-73 -74 -77 0
-73 -74 -78 0
-73 -74 -79 0
-73 -74 -80 0
-73 -74 -81 0
-73 -74 -82 0
-73 -74 -83 0
-73 -74 -84 0
-73 -75 -76 0
-73 -75 -77 0
-73 -75 -78 0
-73 -75 -79 0
-73 -75 -80 0
-73 -75 -81 0
-73 -75 -82 0
-73 -75 -83 0
-73 -75 -84 0
-73 -76 -77 0
-73 -76 -78 0
-73 -76 -79 0
-73 -76 -80 0
-73 -76 -81 0
-73 -76 -82 0
-73 -76 -83 0
-73 -76 -84 0
-73 -77 -78 0
-73 -77 -79 0
-73 -77 -80 0
-73 -77 -81 0
-73 -77 -82 0
-73 -77 -83 0
-73 -77 -84 0
-73 -78 -79 0
-73 -78 -80 0
-73 -78 -81 0
-73 -78 -82 0
-73 -78 -83 0
-73 -78 -84 0
-73 -79 -80 0
-73 -79 -81 0
-73 -79 -82 0
-73 -79 -83 0
-73 -79 -84 0
-73 -80 -81 0
-73 -80 -82 0
-73 -80 -83 0
-73 -80 -84 0
-73 -81 -82 0
-73 -81 -83 0
-73 -81 -84 0
-73 -82 -83 0
-73 -82 -84 0
-73 -83 -84 0
-74 -75 -76 0
-74 -75 -77 0
-74 -75 -78 0
-74 -75 -79 0
-74 -75 -80 0
-74 -75 -81 0
-74 -75 -82 0
-74 -75 -83 0
-74 -75 -84 0
-74 -76 -77 0
-74 -76 -78 0
-74 -76 -79 0
-74 -76 -80 0
-74 -76 -81 0
-74 -76 -82 0
-74 -76 -83 0
-74 -76 -84 0
-74 -77 -78 0
-74 -77 -79 0
-74 -77 -80 0
-74 -77 -81 0
-74 -77 -82 0
-74 -77 -83 0
-74 -77 -84 0
-74 -78 -79 0
-74 -78 -80 0
-74 -78 -81 0
-74 -78 -82 0
-74 -78 -83 0
-74 -78 -84 0
-74 -79 -80 0
-74 -79 -81 0
-74 -79 -82 0
-74 -79 -83 0
-74 -79 -84 0
-74 -80 -81 0
-74 -80 -82 0
-74 -80 -83 0
-74 -80 -84 0
-74 -81 -82 0
-74 -81 -83 0
-74 -81 -84 0
-74 -82 -83 0
-74 -82 -84 0
-74 -83 -84 0
-75 -76 -77 0
-75 -76 -78 0
-75 -76 -79 0
-75 -76 -80 0
-75 -76 -81 0
-75 -76 -82 0
-75 -76 -83 0
-75 -76 -84 0
-75 -77 -78 0
-75 -77 -79 0
-75 -77 -80 0
-75 -77 -81 0
-75 -77 -82 0
-75 -77 -83 0
-75 -77 -84 0
-75 -78 -79 0
-75 -78 -80 0
-75 -78 -81 0
-75 -78 -82 0
-75 -78 -83 0
-75 -78 -84 0
-75 -79 -80 0
-75 -79 -81 0
-75 -79 -82 0
-75 -79 -83 0
-75 -79 -84 0
-75 -80 -81 0
-75 -80 -82 0
-75 -80 -83 0
-75 -80 -84 0
-75 -81 -82 0
-75 -81 -83 0
-75 -81 -84 0
-75 -82 -83 0
-75 -82 -84 0
-75 -83 -84 0
-76 -77 -78 0
-76 -77 -79 0
-76 -77 -80 0
-76 -77 -81 0
-76 -77 -82 0
-76 -77 -83 0
-76 -77 -84 0
-76 -78 -79 0
-76 -78 -80 0
-76 -78 -81 0
-76 -78 -82 0
-76 -78 -83 0
-76 -78 -84 0
-76 -79 -80 0
-76 -79 -81 0
-76 -79 -82 0
-76 -79 -83 0
-76 -79 -84 0
-76 -80 -81 0
-76 -80 -82 0
-76 -80 -83 0
-76 -80 -84 0
-76 -81 -82 0
-76 -81 -83 0
-76 -81 -84 0
-76 -82 -83 0
-76 -82 -84 0
-76 -83 -84 0
-77 -78 -79 0
-77 -78 -80 0
-77 -78 -81 0
-77 -78 -82 0
-77 -78 -83 0
-77 -78 -84 0
-77 -79 -80 0
-77 -79 -81 0
-77 -79 -82 0
-77 -79 -83 0
-77 -79 -84 0
-77 -80 -81 0
-77 -80 -82 0
-77 -80 -83 0
-77 -80 -84 0
-77 -81 -82 0
-77 -81 -83 0
-77 -81 -84 0
-77 -82 -83 0
-77 -82 -84 0
-77 -83 -84 0
-78 -79 -80 0
-78 -79 -81 0
-78 -79 -82 0
-78 -79 -83 0
-78 -79 -84 0
-78 -80 -81 0
-78 -80 -82 0
-78 -80 -83 0
-78 -80 -84 0
-78 -81 -82 0
-78 -81 -83 0
-78 -81 -84 0
-78 -82 -83 0
-78 -82 -84 0
-78 -83 -84 0
-79 -80 -81 0
-79 -80 -82 0
-79 -80 -83 0
-79 -80 -84 0
-79 -81 -82 0
-79 -81 -83 0
-79 -81 -84 0
-79 -82 -83 0
-79 -82 -84 0
-79 -83 -84 0
-80 -81 -82 0
-80 -81 -83 0
-80 -81 -84 0
-80 -82 -83 0
-80 -82 -84 0
-80 -83 -84 0
-81 -82 -83 0
-81 -82 -84 0
-81 -83 -84 0
-82 -83 -84 0
73 74 75 76 77 78 79 80 81 82 83 0
73 74 75 76 77 78 79 80 81 82 84 0
73 74 75 76 77 78 79 80 81 83 84 0
73 74 75 76 77 78 79 80 82 83 84 0
73 74 75 76 77 78 79 81 82 83 84 0
73 74 75 76 77 78 80 81 82 83 84 0
73 74 75 76 77 79 80 81 82 83 84 0
73 74 75 76 78 79 80 81 82 83 84 0
73 74 75 77 78 79 80 81 82 83 84 0
73 74 76 77 78 79 80 81 82 83 84 0
73 75 76 77 78 79 80 81 82 83 84 0
74 75 76 77 78 79 80 81 82 83 84 0
-1 -13 0
-1 -25 0
-1 -37 0
-1 -49 0
-1 -61 0
-1 -73 0
-13 -25 0
-13 -37 0
-13 -49 0
-13 -61 0
-13 -73 0
-25 -37 0
-25 -49 0
-25 -61 0
-25 -73 0
-37 -49 0
-37 -61 0
-37 -73 0
-49 -61 0
-49 -73 0
-61 -73 0
-2 -14 0
-2 -26 0
-2 -38 0
-2 -50 0
-2 -62 0
-2 -74 0
-14 -26 0
-14 -38 0
-14 -50 0
-14 -62 0
-14 -74 0
-26 -38 0
-26 -50 0
-26 -62 0
-26 -74 0
-38 -50 0
-38 -62 0
-38 -74 0
-50 -62 0
-50 -74 0
-62 -74 0
-3 -15 0
-3 -27 0
-3 -39 0
-3 -51 0
-3 -63 0
-3 -75 0
-15 -27 0
-15 -39 0
-15 -51 0
-15 -63 0
-15 -75 0
-27 -39 0
-27 -51 0
-27 -63 0
-27 -75 0
-39 -51 0
-39 -63 0
-39 -75 0
-51 -63 0
-51 -75 0
-63 -75 0
-4 -16 0
-4 -28 0
-4 -40 0
-4 -52 0
-4 -64 0
-4 -76 0
-16 -28 0
-16 -40 0
-16 -52 0
-16 -64 0
-16 -76 0
-28 -40 0
-28 -52 0
-28 -64 0
-28 -76 0
-40 -52 0
-40 -64 0
-40 -76 0
-52 -64 0
-52 -76 0
-64 -76 0
-5 -17 0
-5 -29 0
-5 -41 0
-5 -53 0
-5 -65 0
-5 -77 0
-17 -29 0
-17 -41 0
-17 -53 0
-17 -65 0
-17 -77 0
-29 -41 0
-29 -53 0
-29 -65 0
-29 -77 0
-41 -53 0
-41 -65 0
-41 -77 0
-53 -65 0
-53 -77 0
-65 -77 0
-6 -18 0
-6 -30 0
-6 -42 0
-6 -54 0
-6 -66 0
-6 -78 0
-18 -30 0
-18 -42 0
-18 -54 0
-18 -66 0
-18 -78 0
-30 -42 0
-30 -54 0
-30 -66 0
-30 -78 0
-42 -54 0
-42 -66 0
-42 -78 0
-54 -66 0
-54 -78 0
-66 -78 0
-7 -19 0
-7 -31 0
-7 -43 0
-7 -55 0
-7 -67 0
-7 -79 0
-19 -31 0
-19 -43 0
-19 -55 0
-19 -67 0
-19 -79 0
-31 -43 0
-31 -55 0
-31 -67 0
-31 -79 0
-43 -55 0
-43 -67 0
-43 -79 0
-55 -67 0
-55 -79 0
-67 -79 0
-8 -20 0
-8 -32 0
-8 -44 0
-8 -56 0
-8 -68 0
-8 -80 0
-20 -32 0
-20 -44 0
-20 -56 0
-20 -68 0
-20 -80 0
-32 -44 0
-32 -56 0
-32 -68 0
-32 -80 0
-44 -56 0
-44 -68 0
-44 -80 0
-56 -68 0
-56 -80 0
-68 -80 0
-9 -21 0
-9 -33 0
-9 -45 0
-9 -57 0
-9 -69 0
-9 -81 0
-21 -33 0
-21 -45 0
-21 -57 0
-21 -69 0
-21 -81 0
-33 -45 0
-33 -57 0
-33 -69 0
-33 -81 0
-45 -57 0
-45 -69 0
-45 -81 0
-57 -69 0
-57 -81 0
-69 -81 0
-10 -22 0
-10 -34 0
-10 -46 0
-10 -58 0
-10 -70 0
-10 -82 0
-22 -34 0
-22 -46 0
-22 -58 0
-22 -70 0
-22 -82 0
-34 -46 0
-34 -58 0
-34 -70 0
-34 -82 0
-46 -58 0
-46 -70 0
-46 -82 0
-58 -70 0
-58 -82 0
-70 -82 0
-11 -23 0
-11 -35 0
-11 -47 0
-11 -59 0
-11 -71 0
-11 -83 0
-23 -35 0
-23 -47 0
-23 -59 0
-23 -71 0
-23 -83 0
-35 -47 0
-35 -59 0
-35 -71 0
-35 -83 0
-47 -59 0
-47 -71 0
-47 -83 0
-59 -71 0
-59 -83 0
-71 -83 0
-12 -24 0
-12 -36 0
-12 -48 0
-12 -60 0
-12 -72 0
-12 -84 0
-24 -36 0
-24 -48 0
-24 -60 0
-24 -72 0
-24 -84 0
-36 -48 0
-36 -60 0
-36 -72 0
-36 -84 0
-48 -60 0
-48 -72 0
-48 -84 0
-60 -72 0
-60 -84 0
-72 -84 0
