c Phase 3 generated performance instance
c family=overlapping_hall_violation
c scale=5
c variant=tune
c noise_percent=0
c expected=UNSATISFIABLE
p cnf 60 281
-1 -2 0
-1 -3 0
-1 -4 0
-1 -5 0
-2 -3 0
-2 -4 0
-2 -5 0
-3 -4 0
-3 -5 0
-4 -5 0
1 2 3 4 5 0
-6 -7 0
-6 -8 0
-6 -9 0
-6 -10 0
-7 -8 0
-7 -9 0
-7 -10 0
-8 -9 0
-8 -10 0
-9 -10 0
6 7 8 9 10 0
-11 -12 0
-11 -13 0
-11 -14 0
-11 -15 0
-12 -13 0
-12 -14 0
-12 -15 0
-13 -14 0
-13 -15 0
-14 -15 0
11 12 13 14 15 0
-16 -17 0
-16 -18 0
-16 -19 0
-16 -20 0
-17 -18 0
-17 -19 0
-17 -20 0
-18 -19 0
-18 -20 0
-19 -20 0
16 17 18 19 20 0
-21 -22 0
-21 -23 0
-21 -24 0
-21 -25 0
-22 -23 0
-22 -24 0
-22 -25 0
-23 -24 0
-23 -25 0
-24 -25 0
21 22 23 24 25 0
-26 -27 0
-26 -28 0
-26 -29 0
-26 -30 0
-27 -28 0
-27 -29 0
-27 -30 0
-28 -29 0
-28 -30 0
-29 -30 0
26 27 28 29 30 0
-31 -32 0
-31 -33 0
-31 -34 0
-31 -35 0
-31 -36 0
-32 -33 0
-32 -34 0
-32 -35 0
-32 -36 0
-33 -34 0
-33 -35 0
-33 -36 0
-34 -35 0
-34 -36 0
-35 -36 0
31 32 33 34 35 36 0
-37 -38 0
-37 -39 0
-37 -40 0
-37 -41 0
-37 -42 0
-38 -39 0
-38 -40 0
-38 -41 0
-38 -42 0
-39 -40 0
-39 -41 0
-39 -42 0
-40 -41 0
-40 -42 0
-41 -42 0
37 38 39 40 41 42 0
-43 -44 0
-43 -45 0
-43 -46 0
-43 -47 0
-43 -48 0
-44 -45 0
-44 -46 0
-44 -47 0
-44 -48 0
-45 -46 0
-45 -47 0
-45 -48 0
-46 -47 0
-46 -48 0
-47 -48 0
43 44 45 46 47 48 0
-49 -50 0
-49 -51 0
-49 -52 0
-49 -53 0
-49 -54 0
-50 -51 0
-50 -52 0
-50 -53 0
-50 -54 0
-51 -52 0
-51 -53 0
-51 -54 0
-52 -53 0
-52 -54 0
-53 -54 0
49 50 51 52 53 54 0
-55 -56 0
-55 -57 0
-55 -58 0
-55 -59 0
-55 -60 0
-56 -57 0
-56 -58 0
-56 -59 0
-56 -60 0
-57 -58 0
-57 -59 0
-57 -60 0
-58 -59 0
-58 -60 0
-59 -60 0
55 56 57 58 59 60 0
-1 -6 0
-1 -11 0
-1 -16 0
-1 -21 0
-1 -26 0
-6 -11 0
-6 -16 0
-6 -21 0
-6 -26 0
-11 -16 0
-11 -21 0
-11 -26 0
-16 -21 0
-16 -26 0
-21 -26 0
-2 -7 0
-2 -12 0
-2 -17 0
-2 -22 0
-2 -27 0
-7 -12 0
-7 -17 0
-7 -22 0
-7 -27 0
-12 -17 0
-12 -22 0
-12 -27 0
-17 -22 0
-17 -27 0
-22 -27 0
-3 -8 0
-3 -13 0
-3 -18 0
-3 -23 0
-3 -28 0
-8 -13 0
-8 -18 0
-8 -23 0
-8 -28 0
-13 -18 0
-13 -23 0
-13 -28 0
-18 -23 0
-18 -28 0
-23 -28 0
-4 -9 0
-4 -14 0
-4 -19 0
-4 -24 0
-4 -29 0
-9 -14 0
-9 -19 0
-9 -24 0
-9 -29 0
-14 -19 0
-14 -24 0
-14 -29 0
-19 -24 0
-19 -29 0
-24 -29 0
-5 -10 0
-5 -15 0
-5 -20 0
-5 -25 0
-5 -30 0
-10 -15 0
-10 -20 0
-10 -25 0
-10 -30 0
-15 -20 0
-15 -25 0
-15 -30 0
-20 -25 0
-20 -30 0
-25 -30 0
-31 -37 0
-31 -43 0
-31 -49 0
-31 -55 0
-37 -43 0
-37 -49 0
-37 -55 0
-43 -49 0
-43 -55 0
-49 -55 0
-32 -38 0
-32 -44 0
-32 -50 0
-32 -56 0
-38 -44 0
-38 -50 0
-38 -56 0
-44 -50 0
-44 -56 0
-50 -56 0
-33 -39 0
-33 -45 0
-33 -51 0
-33 -57 0
-39 -45 0
-39 -51 0
-39 -57 0
-45 -51 0
-45 -57 0
-51 -57 0
-34 -40 0
-34 -46 0
-34 -52 0
-34 -58 0
-40 -46 0
-40 -52 0
-40 -58 0
-46 -52 0
-46 -58 0
-52 -58 0
-35 -41 0
-35 -47 0
-35 -53 0
-35 -59 0
-41 -47 0
-41 -53 0
-41 -59 0
-47 -53 0
-47 -59 0
-53 -59 0
-36 -42 0
-36 -48 0
-36 -54 0
-36 -60 0
-42 -48 0
-42 -54 0
-42 -60 0
-48 -54 0
-48 -60 0
-54 -60 0
