c Phase 3 generated performance instance
c family=capacity2_violation
c scale=6
c variant=tune
c noise_percent=0
c expected=UNSATISFIABLE
p cnf 78 1924
-1 -2 0
-1 -3 0
-1 -4 0
-1 -5 0
-1 -6 0
-2 -3 0
-2 -4 0
-2 -5 0
-2 -6 0
-3 -4 0
-3 -5 0
-3 -6 0
-4 -5 0
-4 -6 0
-5 -6 0
1 2 3 4 5 6 0
-7 -8 0
-7 -9 0
-7 -10 0
-7 -11 0
-7 -12 0
-8 -9 0
-8 -10 0
-8 -11 0
-8 -12 0
-9 -10 0
-9 -11 0
-9 -12 0
-10 -11 0
-10 -12 0
-11 -12 0
7 8 9 10 11 12 0
-13 -14 0
-13 -15 0
-13 -16 0
-13 -17 0
-13 -18 0
-14 -15 0
-14 -16 0
-14 -17 0
-14 -18 0
-15 -16 0
-15 -17 0
-15 -18 0
-16 -17 0
-16 -18 0
-17 -18 0
13 14 15 16 17 18 0
-19 -20 0
-19 -21 0
-19 -22 0
-19 -23 0
-19 -24 0
-20 -21 0
-20 -22 0
-20 -23 0
-20 -24 0
-21 -22 0
-21 -23 0
-21 -24 0
-22 -23 0
-22 -24 0
-23 -24 0
19 20 21 22 23 24 0
-25 -26 0
-25 -27 0
-25 -28 0
-25 -29 0
-25 -30 0
-26 -27 0
-26 -28 0
-26 -29 0
-26 -30 0
-27 -28 0
-27 -29 0
-27 -30 0
-28 -29 0
-28 -30 0
-29 -30 0
25 26 27 28 29 30 0
-31 -32 0
-31 -33 0
-31 -34 0
-31 -35 0
-31 -36 0
-32 -33 0
-32 -34 0
-32 -35 0
-32 -36 0
-33 -34 0
-33 -35 0
-33 -36 0
-34 -35 0
-34 -36 0
-35 -36 0
31 32 33 34 35 36 0
-37 -38 0
-37 -39 0
-37 -40 0
-37 -41 0
-37 -42 0
-38 -39 0
-38 -40 0
-38 -41 0
-38 -42 0
-39 -40 0
-39 -41 0
-39 -42 0
-40 -41 0
-40 -42 0
-41 -42 0
37 38 39 40 41 42 0
-43 -44 0
-43 -45 0
-43 -46 0
-43 -47 0
-43 -48 0
-44 -45 0
-44 -46 0
-44 -47 0
-44 -48 0
-45 -46 0
-45 -47 0
-45 -48 0
-46 -47 0
-46 -48 0
-47 -48 0
43 44 45 46 47 48 0
-49 -50 0
-49 -51 0
-49 -52 0
-49 -53 0
-49 -54 0
-50 -51 0
-50 -52 0
-50 -53 0
-50 -54 0
-51 -52 0
-51 -53 0
-51 -54 0
-52 -53 0
-52 -54 0
-53 -54 0
49 50 51 52 53 54 0
-55 -56 0
-55 -57 0
-55 -58 0
-55 -59 0
-55 -60 0
-56 -57 0
-56 -58 0
-56 -59 0
-56 -60 0
-57 -58 0
-57 -59 0
-57 -60 0
-58 -59 0
-58 -60 0
-59 -60 0
55 56 57 58 59 60 0
-61 -62 0
-61 -63 0
-61 -64 0
-61 -65 0
-61 -66 0
-62 -63 0
-62 -64 0
-62 -65 0
-62 -66 0
-63 -64 0
-63 -65 0
-63 -66 0
-64 -65 0
-64 -66 0
-65 -66 0
61 62 63 64 65 66 0
-67 -68 0
-67 -69 0
-67 -70 0
-67 -71 0
-67 -72 0
-68 -69 0
-68 -70 0
-68 -71 0
-68 -72 0
-69 -70 0
-69 -71 0
-69 -72 0
-70 -71 0
-70 -72 0
-71 -72 0
67 68 69 70 71 72 0
-73 -74 0
-73 -75 0
-73 -76 0
-73 -77 0
-73 -78 0
-74 -75 0
-74 -76 0
-74 -77 0
-74 -78 0
-75 -76 0
-75 -77 0
-75 -78 0
-76 -77 0
-76 -78 0
-77 -78 0
73 74 75 76 77 78 0
-1 -7 -13 0
-1 -7 -19 0
-1 -7 -25 0
-1 -7 -31 0
-1 -7 -37 0
-1 -7 -43 0
-1 -7 -49 0
-1 -7 -55 0
-1 -7 -61 0
-1 -7 -67 0
-1 -7 -73 0
-1 -13 -19 0
-1 -13 -25 0
-1 -13 -31 0
-1 -13 -37 0
-1 -13 -43 0
-1 -13 -49 0
-1 -13 -55 0
-1 -13 -61 0
-1 -13 -67 0
-1 -13 -73 0
-1 -19 -25 0
-1 -19 -31 0
-1 -19 -37 0
-1 -19 -43 0
-1 -19 -49 0
-1 -19 -55 0
-1 -19 -61 0
-1 -19 -67 0
-1 -19 -73 0
-1 -25 -31 0
-1 -25 -37 0
-1 -25 -43 0
-1 -25 -49 0
-1 -25 -55 0
-1 -25 -61 0
-1 -25 -67 0
-1 -25 -73 0
-1 -31 -37 0
-1 -31 -43 0
-1 -31 -49 0
-1 -31 -55 0
-1 -31 -61 0
-1 -31 -67 0
-1 -31 -73 0
-1 -37 -43 0
-1 -37 -49 0
-1 -37 -55 0
-1 -37 -61 0
-1 -37 -67 0
-1 -37 -73 0
-1 -43 -49 0
-1 -43 -55 0
-1 -43 -61 0
-1 -43 -67 0
-1 -43 -73 0
-1 -49 -55 0
-1 -49 -61 0
-1 -49 -67 0
-1 -49 -73 0
-1 -55 -61 0
-1 -55 -67 0
-1 -55 -73 0
-1 -61 -67 0
-1 -61 -73 0
-1 -67 -73 0
-7 -13 -19 0
-7 -13 -25 0
-7 -13 -31 0
-7 -13 -37 0
-7 -13 -43 0
-7 -13 -49 0
-7 -13 -55 0
-7 -13 -61 0
-7 -13 -67 0
-7 -13 -73 0
-7 -19 -25 0
-7 -19 -31 0
-7 -19 -37 0
-7 -19 -43 0
-7 -19 -49 0
-7 -19 -55 0
-7 -19 -61 0
-7 -19 -67 0
-7 -19 -73 0
-7 -25 -31 0
-7 -25 -37 0
-7 -25 -43 0
-7 -25 -49 0
-7 -25 -55 0
-7 -25 -61 0
-7 -25 -67 0
-7 -25 -73 0
-7 -31 -37 0
-7 -31 -43 0
-7 -31 -49 0
-7 -31 -55 0
-7 -31 -61 0
-7 -31 -67 0
-7 -31 -73 0
-7 -37 -43 0
-7 -37 -49 0
-7 -37 -55 0
-7 -37 -61 0
-7 -37 -67 0
-7 -37 -73 0
-7 -43 -49 0
-7 -43 -55 0
-7 -43 -61 0
-7 -43 -67 0
-7 -43 -73 0
-7 -49 -55 0
-7 -49 -61 0
-7 -49 -67 0
-7 -49 -73 0
-7 -55 -61 0
-7 -55 -67 0
-7 -55 -73 0
-7 -61 -67 0
-7 -61 -73 0
-7 -67 -73 0
-13 -19 -25 0
-13 -19 -31 0
-13 -19 -37 0
-13 -19 -43 0
-13 -19 -49 0
-13 -19 -55 0
-13 -19 -61 0
-13 -19 -67 0
-13 -19 -73 0
-13 -25 -31 0
-13 -25 -37 0
-13 -25 -43 0
-13 -25 -49 0
-13 -25 -55 0
-13 -25 -61 0
-13 -25 -67 0
-13 -25 -73 0
-13 -31 -37 0
-13 -31 -43 0
-13 -31 -49 0
-13 -31 -55 0
-13 -31 -61 0
-13 -31 -67 0
-13 -31 -73 0
-13 -37 -43 0
-13 -37 -49 0
-13 -37 -55 0
-13 -37 -61 0
-13 -37 -67 0
-13 -37 -73 0
-13 -43 -49 0
-13 -43 -55 0
-13 -43 -61 0
-13 -43 -67 0
-13 -43 -73 0
-13 -49 -55 0
-13 -49 -61 0
-13 -49 -67 0
-13 -49 -73 0
-13 -55 -61 0
-13 -55 -67 0
-13 -55 -73 0
-13 -61 -67 0
-13 -61 -73 0
-13 -67 -73 0
-19 -25 -31 0
-19 -25 -37 0
-19 -25 -43 0
-19 -25 -49 0
-19 -25 -55 0
-19 -25 -61 0
-19 -25 -67 0
-19 -25 -73 0
-19 -31 -37 0
-19 -31 -43 0
-19 -31 -49 0
-19 -31 -55 0
-19 -31 -61 0
-19 -31 -67 0
-19 -31 -73 0
-19 -37 -43 0
-19 -37 -49 0
-19 -37 -55 0
-19 -37 -61 0
-19 -37 -67 0
-19 -37 -73 0
-19 -43 -49 0
-19 -43 -55 0
-19 -43 -61 0
-19 -43 -67 0
-19 -43 -73 0
-19 -49 -55 0
-19 -49 -61 0
-19 -49 -67 0
-19 -49 -73 0
-19 -55 -61 0
-19 -55 -67 0
-19 -55 -73 0
-19 -61 -67 0
-19 -61 -73 0
-19 -67 -73 0
-25 -31 -37 0
-25 -31 -43 0
-25 -31 -49 0
-25 -31 -55 0
-25 -31 -61 0
-25 -31 -67 0
-25 -31 -73 0
-25 -37 -43 0
-25 -37 -49 0
-25 -37 -55 0
-25 -37 -61 0
-25 -37 -67 0
-25 -37 -73 0
-25 -43 -49 0
-25 -43 -55 0
-25 -43 -61 0
-25 -43 -67 0
-25 -43 -73 0
-25 -49 -55 0
-25 -49 -61 0
-25 -49 -67 0
-25 -49 -73 0
-25 -55 -61 0
-25 -55 -67 0
-25 -55 -73 0
-25 -61 -67 0
-25 -61 -73 0
-25 -67 -73 0
-31 -37 -43 0
-31 -37 -49 0
-31 -37 -55 0
-31 -37 -61 0
-31 -37 -67 0
-31 -37 -73 0
-31 -43 -49 0
-31 -43 -55 0
-31 -43 -61 0
-31 -43 -67 0
-31 -43 -73 0
-31 -49 -55 0
-31 -49 -61 0
-31 -49 -67 0
-31 -49 -73 0
-31 -55 -61 0
-31 -55 -67 0
-31 -55 -73 0
-31 -61 -67 0
-31 -61 -73 0
-31 -67 -73 0
-37 -43 -49 0
-37 -43 -55 0
-37 -43 -61 0
-37 -43 -67 0
-37 -43 -73 0
-37 -49 -55 0
-37 -49 -61 0
-37 -49 -67 0
-37 -49 -73 0
-37 -55 -61 0
-37 -55 -67 0
-37 -55 -73 0
-37 -61 -67 0
-37 -61 -73 0
-37 -67 -73 0
-43 -49 -55 0
-43 -49 -61 0
-43 -49 -67 0
-43 -49 -73 0
-43 -55 -61 0
-43 -55 -67 0
-43 -55 -73 0
-43 -61 -67 0
-43 -61 -73 0
-43 -67 -73 0
-49 -55 -61 0
-49 -55 -67 0
-49 -55 -73 0
-49 -61 -67 0
-49 -61 -73 0
-49 -67 -73 0
-55 -61 -67 0
-55 -61 -73 0
-55 -67 -73 0
-61 -67 -73 0
-2 -8 -14 0
-2 -8 -20 0
-2 -8 -26 0
-2 -8 -32 0
-2 -8 -38 0
-2 -8 -44 0
-2 -8 -50 0
-2 -8 -56 0
-2 -8 -62 0
-2 -8 -68 0
-2 -8 -74 0
-2 -14 -20 0
-2 -14 -26 0
-2 -14 -32 0
-2 -14 -38 0
-2 -14 -44 0
-2 -14 -50 0
-2 -14 -56 0
-2 -14 -62 0
-2 -14 -68 0
-2 -14 -74 0
-2 -20 -26 0
-2 -20 -32 0
-2 -20 -38 0
-2 -20 -44 0
-2 -20 -50 0
-2 -20 -56 0
-2 -20 -62 0
-2 -20 -68 0
-2 -20 -74 0
-2 -26 -32 0
-2 -26 -38 0
-2 -26 -44 0
-2 -26 -50 0
-2 -26 -56 0
-2 -26 -62 0
-2 -26 -68 0
-2 -26 -74 0
-2 -32 -38 0
-2 -32 -44 0
-2 -32 -50 0
-2 -32 -56 0
-2 -32 -62 0
-2 -32 -68 0
-2 -32 -74 0
-2 -38 -44 0
-2 -38 -50 0
-2 -38 -56 0
-2 -38 -62 0
-2 -38 -68 0
-2 -38 -74 0
-2 -44 -50 0
-2 -44 -56 0
-2 -44 -62 0
-2 -44 -68 0
-2 -44 -74 0
-2 -50 -56 0
-2 -50 -62 0
-2 -50 -68 0
-2 -50 -74 0
-2 -56 -62 0
-2 -56 -68 0
-2 -56 -74 0
-2 -62 -68 0
-2 -62 -74 0
-2 -68 -74 0
-8 -14 -20 0
-8 -14 -26 0
-8 -14 -32 0
-8 -14 -38 0
-8 -14 -44 0
-8 -14 -50 0
-8 -14 -56 0
-8 -14 -62 0
-8 -14 -68 0
-8 -14 -74 0
-8 -20 -26 0
-8 -20 -32 0
-8 -20 -38 0
-8 -20 -44 0
-8 -20 -50 0
-8 -20 -56 0
-8 -20 -62 0
-8 -20 -68 0
-8 -20 -74 0
-8 -26 -32 0
-8 -26 -38 0
-8 -26 -44 0
-8 -26 -50 0
-8 -26 -56 0
-8 -26 -62 0
-8 -26 -68 0
-8 -26 -74 0
-8 -32 -38 0
-8 -32 -44 0
-8 -32 -50 0
-8 -32 -56 0
-8 -32 -62 0
-8 -32 -68 0
-8 -32 -74 0
-8 -38 -44 0
-8 -38 -50 0
-8 -38 -56 0
-8 -38 -62 0
-8 -38 -68 0
-8 -38 -74 0
-8 -44 -50 0
-8 -44 -56 0
-8 -44 -62 0
-8 -44 -68 0
-8 -44 -74 0
-8 -50 -56 0
-8 -50 -62 0
-8 -50 -68 0
-8 -50 -74 0
-8 -56 -62 0
-8 -56 -68 0
-8 -56 -74 0
-8 -62 -68 0
-8 -62 -74 0
-8 -68 -74 0
-14 -20 -26 0
-14 -20 -32 0
-14 -20 -38 0
-14 -20 -44 0
-14 -20 -50 0
-14 -20 -56 0
-14 -20 -62 0
-14 -20 -68 0
-14 -20 -74 0
-14 -26 -32 0
-14 -26 -38 0
-14 -26 -44 0
-14 -26 -50 0
-14 -26 -56 0
-14 -26 -62 0
-14 -26 -68 0
-14 -26 -74 0
-14 -32 -38 0
-14 -32 -44 0
-14 -32 -50 0
-14 -32 -56 0
-14 -32 -62 0
-14 -32 -68 0
-14 -32 -74 0
-14 -38 -44 0
-14 -38 -50 0
-14 -38 -56 0
-14 -38 -62 0
-14 -38 -68 0
-14 -38 -74 0
-14 -44 -50 0
-14 -44 -56 0
-14 -44 -62 0
-14 -44 -68 0
-14 -44 -74 0
-14 -50 -56 0
-14 -50 -62 0
-14 -50 -68 0
-14 -50 -74 0
-14 -56 -62 0
-14 -56 -68 0
-14 -56 -74 0
-14 -62 -68 0
-14 -62 -74 0
-14 -68 -74 0
-20 -26 -32 0
-20 -26 -38 0
-20 -26 -44 0
-20 -26 -50 0
-20 -26 -56 0
-20 -26 -62 0
-20 -26 -68 0
-20 -26 -74 0
-20 -32 -38 0
-20 -32 -44 0
-20 -32 -50 0
-20 -32 -56 0
-20 -32 -62 0
-20 -32 -68 0
-20 -32 -74 0
-20 -38 -44 0
-20 -38 -50 0
-20 -38 -56 0
-20 -38 -62 0
-20 -38 -68 0
-20 -38 -74 0
-20 -44 -50 0
-20 -44 -56 0
-20 -44 -62 0
-20 -44 -68 0
-20 -44 -74 0
-20 -50 -56 0
-20 -50 -62 0
-20 -50 -68 0
-20 -50 -74 0
-20 -56 -62 0
-20 -56 -68 0
-20 -56 -74 0
-20 -62 -68 0
-20 -62 -74 0
-20 -68 -74 0
-26 -32 -38 0
-26 -32 -44 0
-26 -32 -50 0
-26 -32 -56 0
-26 -32 -62 0
-26 -32 -68 0
-26 -32 -74 0
-26 -38 -44 0
-26 -38 -50 0
-26 -38 -56 0
-26 -38 -62 0
-26 -38 -68 0
-26 -38 -74 0
-26 -44 -50 0
-26 -44 -56 0
-26 -44 -62 0
-26 -44 -68 0
-26 -44 -74 0
-26 -50 -56 0
-26 -50 -62 0
-26 -50 -68 0
-26 -50 -74 0
-26 -56 -62 0
-26 -56 -68 0
-26 -56 -74 0
-26 -62 -68 0
-26 -62 -74 0
-26 -68 -74 0
-32 -38 -44 0
-32 -38 -50 0
-32 -38 -56 0
-32 -38 -62 0
-32 -38 -68 0
-32 -38 -74 0
-32 -44 -50 0
-32 -44 -56 0
-32 -44 -62 0
-32 -44 -68 0
-32 -44 -74 0
-32 -50 -56 0
-32 -50 -62 0
-32 -50 -68 0
-32 -50 -74 0
-32 -56 -62 0
-32 -56 -68 0
-32 -56 -74 0
-32 -62 -68 0
-32 -62 -74 0
-32 -68 -74 0
-38 -44 -50 0
-38 -44 -56 0
-38 -44 -62 0
-38 -44 -68 0
-38 -44 -74 0
-38 -50 -56 0
-38 -50 -62 0
-38 -50 -68 0
-38 -50 -74 0
-38 -56 -62 0
-38 -56 -68 0
-38 -56 -74 0
-38 -62 -68 0
-38 -62 -74 0
-38 -68 -74 0
-44 -50 -56 0
-44 -50 -62 0
-44 -50 -68 0
-44 -50 -74 0
-44 -56 -62 0
-44 -56 -68 0
-44 -56 -74 0
-44 -62 -68 0
-44 -62 -74 0
-44 -68 -74 0
-50 -56 -62 0
-50 -56 -68 0
-50 -56 -74 0
-50 -62 -68 0
-50 -62 -74 0
-50 -68 -74 0
-56 -62 -68 0
-56 -62 -74 0
-56 -68 -74 0
-62 -68 -74 0
-3 -9 -15 0
-3 -9 -21 0
-3 -9 -27 0
-3 -9 -33 0
-3 -9 -39 0
-3 -9 -45 0
-3 -9 -51 0
-3 -9 -57 0
-3 -9 -63 0
-3 -9 -69 0
-3 -9 -75 0
-3 -15 -21 0
-3 -15 -27 0
-3 -15 -33 0
-3 -15 -39 0
-3 -15 -45 0
-3 -15 -51 0
-3 -15 -57 0
-3 -15 -63 0
-3 -15 -69 0
-3 -15 -75 0
-3 -21 -27 0
-3 -21 -33 0
-3 -21 -39 0
-3 -21 -45 0
-3 -21 -51 0
-3 -21 -57 0
-3 -21 -63 0
-3 -21 -69 0
-3 -21 -75 0
-3 -27 -33 0
-3 -27 -39 0
-3 -27 -45 0
-3 -27 -51 0
-3 -27 -57 0
-3 -27 -63 0
-3 -27 -69 0
-3 -27 -75 0
-3 -33 -39 0
-3 -33 -45 0
-3 -33 -51 0
-3 -33 -57 0
-3 -33 -63 0
-3 -33 -69 0
-3 -33 -75 0
-3 -39 -45 0
-3 -39 -51 0
-3 -39 -57 0
-3 -39 -63 0
-3 -39 -69 0
-3 -39 -75 0
-3 -45 -51 0
-3 -45 -57 0
-3 -45 -63 0
-3 -45 -69 0
-3 -45 -75 0
-3 -51 -57 0
-3 -51 -63 0
-3 -51 -69 0
-3 -51 -75 0
-3 -57 -63 0
-3 -57 -69 0
-3 -57 -75 0
-3 -63 -69 0
-3 -63 -75 0
-3 -69 -75 0
-9 -15 -21 0
-9 -15 -27 0
-9 -15 -33 0
-9 -15 -39 0
-9 -15 -45 0
-9 -15 -51 0
-9 -15 -57 0
-9 -15 -63 0
-9 -15 -69 0
-9 -15 -75 0
-9 -21 -27 0
-9 -21 -33 0
-9 -21 -39 0
-9 -21 -45 0
-9 -21 -51 0
-9 -21 -57 0
-9 -21 -63 0
-9 -21 -69 0
-9 -21 -75 0
-9 -27 -33 0
-9 -27 -39 0
-9 -27 -45 0
-9 -27 -51 0
-9 -27 -57 0
-9 -27 -63 0
-9 -27 -69 0
-9 -27 -75 0
-9 -33 -39 0
-9 -33 -45 0
-9 -33 -51 0
-9 -33 -57 0
-9 -33 -63 0
-9 -33 -69 0
-9 -33 -75 0
-9 -39 -45 0
-9 -39 -51 0
-9 -39 -57 0
-9 -39 -63 0
-9 -39 -69 0
-9 -39 -75 0
-9 -45 -51 0
-9 -45 -57 0
-9 -45 -63 0
-9 -45 -69 0
-9 -45 -75 0
-9 -51 -57 0
-9 -51 -63 0
-9 -51 -69 0
-9 -51 -75 0
-9 -57 -63 0
-9 -57 -69 0
-9 -57 -75 0
-9 -63 -69 0
-9 -63 -75 0
-9 -69 -75 0
-15 -21 -27 0
-15 -21 -33 0
-15 -21 -39 0
-15 -21 -45 0
-15 -21 -51 0
-15 -21 -57 0
-15 -21 -63 0
-15 -21 -69 0
-15 -21 -75 0
-15 -27 -33 0
-15 -27 -39 0
-15 -27 -45 0
-15 -27 -51 0
-15 -27 -57 0
-15 -27 -63 0
-15 -27 -69 0
-15 -27 -75 0
-15 -33 -39 0
-15 -33 -45 0
-15 -33 -51 0
-15 -33 -57 0
-15 -33 -63 0
-15 -33 -69 0
-15 -33 -75 0
-15 -39 -45 0
-15 -39 -51 0
-15 -39 -57 0
-15 -39 -63 0
-15 -39 -69 0
-15 -39 -75 0
-15 -45 -51 0
-15 -45 -57 0
-15 -45 -63 0
-15 -45 -69 0
-15 -45 -75 0
-15 -51 -57 0
-15 -51 -63 0
-15 -51 -69 0
-15 -51 -75 0
-15 -57 -63 0
-15 -57 -69 0
-15 -57 -75 0
-15 -63 -69 0
-15 -63 -75 0
-15 -69 -75 0
-21 -27 -33 0
-21 -27 -39 0
-21 -27 -45 0
-21 -27 -51 0
-21 -27 -57 0
-21 -27 -63 0
-21 -27 -69 0
-21 -27 -75 0
-21 -33 -39 0
-21 -33 -45 0
-21 -33 -51 0
-21 -33 -57 0
-21 -33 -63 0
-21 -33 -69 0
-21 -33 -75 0
-21 -39 -45 0
-21 -39 -51 0
-21 -39 -57 0
-21 -39 -63 0
-21 -39 -69 0
-21 -39 -75 0
-21 -45 -51 0
-21 -45 -57 0
-21 -45 -63 0
-21 -45 -69 0
-21 -45 -75 0
-21 -51 -57 0
-21 -51 -63 0
-21 -51 -69 0
-21 -51 -75 0
-21 -57 -63 0
-21 -57 -69 0
-21 -57 -75 0
-21 -63 -69 0
-21 -63 -75 0
-21 -69 -75 0
-27 -33 -39 0
-27 -33 -45 0
-27 -33 -51 0
-27 -33 -57 0
-27 -33 -63 0
-27 -33 -69 0
-27 -33 -75 0
-27 -39 -45 0
-27 -39 -51 0
-27 -39 -57 0
-27 -39 -63 0
-27 -39 -69 0
-27 -39 -75 0
-27 -45 -51 0
-27 -45 -57 0
-27 -45 -63 0
-27 -45 -69 0
-27 -45 -75 0
-27 -51 -57 0
-27 -51 -63 0
-27 -51 -69 0
-27 -51 -75 0
-27 -57 -63 0
-27 -57 -69 0
-27 -57 -75 0
-27 -63 -69 0
-27 -63 -75 0
-27 -69 -75 0
-33 -39 -45 0
-33 -39 -51 0
-33 -39 -57 0
-33 -39 -63 0
-33 -39 -69 0
-33 -39 -75 0
-33 -45 -51 0
-33 -45 -57 0
-33 -45 -63 0
-33 -45 -69 0
-33 -45 -75 0
-33 -51 -57 0
-33 -51 -63 0
-33 -51 -69 0
-33 -51 -75 0
-33 -57 -63 0
-33 -57 -69 0
-33 -57 -75 0
-33 -63 -69 0
-33 -63 -75 0
-33 -69 -75 0
-39 -45 -51 0
-39 -45 -57 0
-39 -45 -63 0
-39 -45 -69 0
-39 -45 -75 0
-39 -51 -57 0
-39 -51 -63 0
-39 -51 -69 0
-39 -51 -75 0
-39 -57 -63 0
-39 -57 -69 0
-39 -57 -75 0
-39 -63 -69 0
-39 -63 -75 0
-39 -69 -75 0
-45 -51 -57 0
-45 -51 -63 0
-45 -51 -69 0
-45 -51 -75 0
-45 -57 -63 0
-45 -57 -69 0
-45 -57 -75 0
-45 -63 -69 0
-45 -63 -75 0
-45 -69 -75 0
-51 -57 -63 0
-51 -57 -69 0
-51 -57 -75 0
-51 -63 -69 0
-51 -63 -75 0
-51 -69 -75 0
-57 -63 -69 0
-57 -63 -75 0
-57 -69 -75 0
-63 -69 -75 0
-4 -10 -16 0
-4 -10 -22 0
-4 -10 -28 0
-4 -10 -34 0
-4 -10 -40 0
-4 -10 -46 0
-4 -10 -52 0
-4 -10 -58 0
-4 -10 -64 0
-4 -10 -70 0
-4 -10 -76 0
-4 -16 -22 0
-4 -16 -28 0
-4 -16 -34 0
-4 -16 -40 0
-4 -16 -46 0
-4 -16 -52 0
-4 -16 -58 0
-4 -16 -64 0
-4 -16 -70 0
-4 -16 -76 0
-4 -22 -28 0
-4 -22 -34 0
-4 -22 -40 0
-4 -22 -46 0
-4 -22 -52 0
-4 -22 -58 0
-4 -22 -64 0
-4 -22 -70 0
-4 -22 -76 0
-4 -28 -34 0
-4 -28 -40 0
-4 -28 -46 0
-4 -28 -52 0
-4 -28 -58 0
-4 -28 -64 0
-4 -28 -70 0
-4 -28 -76 0
-4 -34 -40 0
-4 -34 -46 0
-4 -34 -52 0
-4 -34 -58 0
-4 -34 -64 0
-4 -34 -70 0
-4 -34 -76 0
-4 -40 -46 0
-4 -40 -52 0
-4 -40 -58 0
-4 -40 -64 0
-4 -40 -70 0
-4 -40 -76 0
-4 -46 -52 0
-4 -46 -58 0
-4 -46 -64 0
-4 -46 -70 0
-4 -46 -76 0
-4 -52 -58 0
-4 -52 -64 0
-4 -52 -70 0
-4 -52 -76 0
-4 -58 -64 0
-4 -58 -70 0
-4 -58 -76 0
-4 -64 -70 0
-4 -64 -76 0
-4 -70 -76 0
-10 -16 -22 0
-10 -16 -28 0
-10 -16 -34 0
-10 -16 -40 0
-10 -16 -46 0
-10 -16 -52 0
-10 -16 -58 0
-10 -16 -64 0
-10 -16 -70 0
-10 -16 -76 0
-10 -22 -28 0
-10 -22 -34 0
-10 -22 -40 0
-10 -22 -46 0
-10 -22 -52 0
-10 -22 -58 0
-10 -22 -64 0
-10 -22 -70 0
-10 -22 -76 0
-10 -28 -34 0
-10 -28 -40 0
-10 -28 -46 0
-10 -28 -52 0
-10 -28 -58 0
-10 -28 -64 0
-10 -28 -70 0
-10 -28 -76 0
-10 -34 -40 0
-10 -34 -46 0
-10 -34 -52 0
-10 -34 -58 0
-10 -34 -64 0
-10 -34 -70 0
-10 -34 -76 0
-10 -40 -46 0
-10 -40 -52 0
-10 -40 -58 0
-10 -40 -64 0
-10 -40 -70 0
-10 -40 -76 0
-10 -46 -52 0
-10 -46 -58 0
-10 -46 -64 0
-10 -46 -70 0
-10 -46 -76 0
-10 -52 -58 0
-10 -52 -64 0
-10 -52 -70 0
-10 -52 -76 0
-10 -58 -64 0
-10 -58 -70 0
-10 -58 -76 0
-10 -64 -70 0
-10 -64 -76 0
-10 -70 -76 0
-16 -22 -28 0
-16 -22 -34 0
-16 -22 -40 0
-16 -22 -46 0
-16 -22 -52 0
-16 -22 -58 0
-16 -22 -64 0
-16 -22 -70 0
-16 -22 -76 0
-16 -28 -34 0
-16 -28 -40 0
-16 -28 -46 0
-16 -28 -52 0
-16 -28 -58 0
-16 -28 -64 0
-16 -28 -70 0
-16 -28 -76 0
-16 -34 -40 0
-16 -34 -46 0
-16 -34 -52 0
-16 -34 -58 0
-16 -34 -64 0
-16 -34 -70 0
-16 -34 -76 0
-16 -40 -46 0
-16 -40 -52 0
-16 -40 -58 0
-16 -40 -64 0
-16 -40 -70 0
-16 -40 -76 0
-16 -46 -52 0
-16 -46 -58 0
-16 -46 -64 0
-16 -46 -70 0
-16 -46 -76 0
-16 -52 -58 0
-16 -52 -64 0
-16 -52 -70 0
-16 -52 -76 0
-16 -58 -64 0
-16 -58 -70 0
-16 -58 -76 0
-16 -64 -70 0
-16 -64 -76 0
-16 -70 -76 0
-22 -28 -34 0
-22 -28 -40 0
-22 -28 -46 0
-22 -28 -52 0
-22 -28 -58 0
-22 -28 -64 0
-22 -28 -70 0
-22 -28 -76 0
-22 -34 -40 0
-22 -34 -46 0
-22 -34 -52 0
-22 -34 -58 0
-22 -34 -64 0
-22 -34 -70 0
-22 -34 -76 0
-22 -40 -46 0
-22 -40 -52 0
-22 -40 -58 0
-22 -40 -64 0
-22 -40 -70 0
-22 -40 -76 0
-22 -46 -52 0
-22 -46 -58 0
-22 -46 -64 0
-22 -46 -70 0
-22 -46 -76 0
-22 -52 -58 0
-22 -52 -64 0
-22 -52 -70 0
-22 -52 -76 0
-22 -58 -64 0
-22 -58 -70 0
-22 -58 -76 0
-22 -64 -70 0
-22 -64 -76 0
-22 -70 -76 0
-28 -34 -40 0
-28 -34 -46 0
-28 -34 -52 0
-28 -34 -58 0
-28 -34 -64 0
-28 -34 -70 0
-28 -34 -76 0
-28 -40 -46 0
-28 -40 -52 0
-28 -40 -58 0
-28 -40 -64 0
-28 -40 -70 0
-28 -40 -76 0
-28 -46 -52 0
-28 -46 -58 0
-28 -46 -64 0
-28 -46 -70 0
-28 -46 -76 0
-28 -52 -58 0
-28 -52 -64 0
-28 -52 -70 0
-28 -52 -76 0
-28 -58 -64 0
-28 -58 -70 0
-28 -58 -76 0
-28 -64 -70 0
-28 -64 -76 0
-28 -70 -76 0
-34 -40 -46 0
-34 -40 -52 0
-34 -40 -58 0
-34 -40 -64 0
-34 -40 -70 0
-34 -40 -76 0
-34 -46 -52 0
-34 -46 -58 0
-34 -46 -64 0
-34 -46 -70 0
-34 -46 -76 0
-34 -52 -58 0
-34 -52 -64 0
-34 -52 -70 0
-34 -52 -76 0
-34 -58 -64 0
-34 -58 -70 0
-34 -58 -76 0
-34 -64 -70 0
-34 -64 -76 0
-34 -70 -76 0
-40 -46 -52 0
-40 -46 -58 0
-40 -46 -64 0
-40 -46 -70 0
-40 -46 -76 0
-40 -52 -58 0
-40 -52 -64 0
-40 -52 -70 0
-40 -52 -76 0
-40 -58 -64 0
-40 -58 -70 0
-40 -58 -76 0
-40 -64 -70 0
-40 -64 -76 0
-40 -70 -76 0
-46 -52 -58 0
-46 -52 -64 0
-46 -52 -70 0
-46 -52 -76 0
-46 -58 -64 0
-46 -58 -70 0
-46 -58 -76 0
-46 -64 -70 0
-46 -64 -76 0
-46 -70 -76 0
-52 -58 -64 0
-52 -58 -70 0
-52 -58 -76 0
-52 -64 -70 0
-52 -64 -76 0
-52 -70 -76 0
-58 -64 -70 0
-58 -64 -76 0
-58 -70 -76 0
-64 -70 -76 0
-5 -11 -17 0
-5 -11 -23 0
-5 -11 -29 0
-5 -11 -35 0
-5 -11 -41 0
-5 -11 -47 0
-5 -11 -53 0
-5 -11 -59 0
-5 -11 -65 0
-5 -11 -71 0
-5 -11 -77 0
-5 -17 -23 0
-5 -17 -29 0
-5 -17 -35 0
-5 -17 -41 0
-5 -17 -47 0
-5 -17 -53 0
-5 -17 -59 0
-5 -17 -65 0
-5 -17 -71 0
-5 -17 -77 0
-5 -23 -29 0
-5 -23 -35 0
-5 -23 -41 0
-5 -23 -47 0
-5 -23 -53 0
-5 -23 -59 0
-5 -23 -65 0
-5 -23 -71 0
-5 -23 -77 0
-5 -29 -35 0
-5 -29 -41 0
-5 -29 -47 0
-5 -29 -53 0
-5 -29 -59 0
-5 -29 -65 0
-5 -29 -71 0
-5 -29 -77 0
-5 -35 -41 0
-5 -35 -47 0
-5 -35 -53 0
-5 -35 -59 0
-5 -35 -65 0
-5 -35 -71 0
-5 -35 -77 0
-5 -41 -47 0
-5 -41 -53 0
-5 -41 -59 0
-5 -41 -65 0
-5 -41 -71 0
-5 -41 -77 0
-5 -47 -53 0
-5 -47 -59 0
-5 -47 -65 0
-5 -47 -71 0
-5 -47 -77 0
-5 -53 -59 0
-5 -53 -65 0
-5 -53 -71 0
-5 -53 -77 0
-5 -59 -65 0
-5 -59 -71 0
-5 -59 -77 0
-5 -65 -71 0
-5 -65 -77 0
-5 -71 -77 0
-11 -17 -23 0
-11 -17 -29 0
-11 -17 -35 0
-11 -17 -41 0
-11 -17 -47 0
-11 -17 -53 0
-11 -17 -59 0
-11 -17 -65 0
-11 -17 -71 0
-11 -17 -77 0
-11 -23 -29 0
-11 -23 -35 0
-11 -23 -41 0
-11 -23 -47 0
-11 -23 -53 0
-11 -23 -59 0
-11 -23 -65 0
-11 -23 -71 0
-11 -23 -77 0
-11 -29 -35 0
-11 -29 -41 0
-11 -29 -47 0
-11 -29 -53 0
-11 -29 -59 0
-11 -29 -65 0
-11 -29 -71 0
-11 -29 -77 0
-11 -35 -41 0
-11 -35 -47 0
-11 -35 -53 0
-11 -35 -59 0
-11 -35 -65 0
-11 -35 -71 0
-11 -35 -77 0
-11 -41 -47 0
-11 -41 -53 0
-11 -41 -59 0
-11 -41 -65 0
-11 -41 -71 0
-11 -41 -77 0
-11 -47 -53 0
-11 -47 -59 0
-11 -47 -65 0
-11 -47 -71 0
-11 -47 -77 0
-11 -53 -59 0
-11 -53 -65 0
-11 -53 -71 0
-11 -53 -77 0
-11 -59 -65 0
-11 -59 -71 0
-11 -59 -77 0
-11 -65 -71 0
-11 -65 -77 0
-11 -71 -77 0
-17 -23 -29 0
-17 -23 -35 0
-17 -23 -41 0
-17 -23 -47 0
-17 -23 -53 0
-17 -23 -59 0
-17 -23 -65 0
-17 -23 -71 0
-17 -23 -77 0
-17 -29 -35 0
-17 -29 -41 0
-17 -29 -47 0
-17 -29 -53 0
-17 -29 -59 0
-17 -29 -65 0
-17 -29 -71 0
-17 -29 -77 0
-17 -35 -41 0
-17 -35 -47 0
-17 -35 -53 0
-17 -35 -59 0
-17 -35 -65 0
-17 -35 -71 0
-17 -35 -77 0
-17 -41 -47 0
-17 -41 -53 0
-17 -41 -59 0
-17 -41 -65 0
-17 -41 -71 0
-17 -41 -77 0
-17 -47 -53 0
-17 -47 -59 0
-17 -47 -65 0
-17 -47 -71 0
-17 -47 -77 0
-17 -53 -59 0
-17 -53 -65 0
-17 -53 -71 0
-17 -53 -77 0
-17 -59 -65 0
-17 -59 -71 0
-17 -59 -77 0
-17 -65 -71 0
-17 -65 -77 0
-17 -71 -77 0
-23 -29 -35 0
-23 -29 -41 0
-23 -29 -47 0
-23 -29 -53 0
-23 -29 -59 0
-23 -29 -65 0
-23 -29 -71 0
-23 -29 -77 0
-23 -35 -41 0
-23 -35 -47 0
-23 -35 -53 0
-23 -35 -59 0
-23 -35 -65 0
-23 -35 -71 0
-23 -35 -77 0
-23 -41 -47 0
-23 -41 -53 0
-23 -41 -59 0
-23 -41 -65 0
-23 -41 -71 0
-23 -41 -77 0
-23 -47 -53 0
-23 -47 -59 0
-23 -47 -65 0
-23 -47 -71 0
-23 -47 -77 0
-23 -53 -59 0
-23 -53 -65 0
-23 -53 -71 0
-23 -53 -77 0
-23 -59 -65 0
-23 -59 -71 0
-23 -59 -77 0
-23 -65 -71 0
-23 -65 -77 0
-23 -71 -77 0
-29 -35 -41 0
-29 -35 -47 0
-29 -35 -53 0
-29 -35 -59 0
-29 -35 -65 0
-29 -35 -71 0
-29 -35 -77 0
-29 -41 -47 0
-29 -41 -53 0
-29 -41 -59 0
-29 -41 -65 0
-29 -41 -71 0
-29 -41 -77 0
-29 -47 -53 0
-29 -47 -59 0
-29 -47 -65 0
-29 -47 -71 0
-29 -47 -77 0
-29 -53 -59 0
-29 -53 -65 0
-29 -53 -71 0
-29 -53 -77 0
-29 -59 -65 0
-29 -59 -71 0
-29 -59 -77 0
-29 -65 -71 0
-29 -65 -77 0
-29 -71 -77 0
-35 -41 -47 0
-35 -41 -53 0
-35 -41 -59 0
-35 -41 -65 0
-35 -41 -71 0
-35 -41 -77 0
-35 -47 -53 0
-35 -47 -59 0
-35 -47 -65 0
-35 -47 -71 0
-35 -47 -77 0
-35 -53 -59 0
-35 -53 -65 0
-35 -53 -71 0
-35 -53 -77 0
-35 -59 -65 0
-35 -59 -71 0
-35 -59 -77 0
-35 -65 -71 0
-35 -65 -77 0
-35 -71 -77 0
-41 -47 -53 0
-41 -47 -59 0
-41 -47 -65 0
-41 -47 -71 0
-41 -47 -77 0
-41 -53 -59 0
-41 -53 -65 0
-41 -53 -71 0
-41 -53 -77 0
-41 -59 -65 0
-41 -59 -71 0
-41 -59 -77 0
-41 -65 -71 0
-41 -65 -77 0
-41 -71 -77 0
-47 -53 -59 0
-47 -53 -65 0
-47 -53 -71 0
-47 -53 -77 0
-47 -59 -65 0
-47 -59 -71 0
-47 -59 -77 0
-47 -65 -71 0
-47 -65 -77 0
-47 -71 -77 0
-53 -59 -65 0
-53 -59 -71 0
-53 -59 -77 0
-53 -65 -71 0
-53 -65 -77 0
-53 -71 -77 0
-59 -65 -71 0
-59 -65 -77 0
-59 -71 -77 0
-65 -71 -77 0
-6 -12 -18 0
-6 -12 -24 0
-6 -12 -30 0
-6 -12 -36 0
-6 -12 -42 0
-6 -12 -48 0
-6 -12 -54 0
-6 -12 -60 0
-6 -12 -66 0
-6 -12 -72 0
-6 -12 -78 0
-6 -18 -24 0
-6 -18 -30 0
-6 -18 -36 0
-6 -18 -42 0
-6 -18 -48 0
-6 -18 -54 0
-6 -18 -60 0
-6 -18 -66 0
-6 -18 -72 0
-6 -18 -78 0
-6 -24 -30 0
-6 -24 -36 0
-6 -24 -42 0
-6 -24 -48 0
-6 -24 -54 0
-6 -24 -60 0
-6 -24 -66 0
-6 -24 -72 0
-6 -24 -78 0
-6 -30 -36 0
-6 -30 -42 0
-6 -30 -48 0
-6 -30 -54 0
-6 -30 -60 0
-6 -30 -66 0
-6 -30 -72 0
-6 -30 -78 0
-6 -36 -42 0
-6 -36 -48 0
-6 -36 -54 0
-6 -36 -60 0
-6 -36 -66 0
-6 -36 -72 0
-6 -36 -78 0
-6 -42 -48 0
-6 -42 -54 0
-6 -42 -60 0
-6 -42 -66 0
-6 -42 -72 0
-6 -42 -78 0
-6 -48 -54 0
-6 -48 -60 0
-6 -48 -66 0
-6 -48 -72 0
-6 -48 -78 0
-6 -54 -60 0
-6 -54 -66 0
-6 -54 -72 0
-6 -54 -78 0
-6 -60 -66 0
-6 -60 -72 0
-6 -60 -78 0
-6 -66 -72 0
-6 -66 -78 0
-6 -72 -78 0
-12 -18 -24 0
-12 -18 -30 0
-12 -18 -36 0
-12 -18 -42 0
-12 -18 -48 0
-12 -18 -54 0
-12 -18 -60 0
-12 -18 -66 0
-12 -18 -72 0
-12 -18 -78 0
-12 -24 -30 0
-12 -24 -36 0
-12 -24 -42 0
-12 -24 -48 0
-12 -24 -54 0
-12 -24 -60 0
-12 -24 -66 0
-12 -24 -72 0
-12 -24 -78 0
-12 -30 -36 0
-12 -30 -42 0
-12 -30 -48 0
-12 -30 -54 0
-12 -30 -60 0
-12 -30 -66 0
-12 -30 -72 0
-12 -30 -78 0
-12 -36 -42 0
-12 -36 -48 0
-12 -36 -54 0
-12 -36 -60 0
-12 -36 -66 0
-12 -36 -72 0
-12 -36 -78 0
-12 -42 -48 0
-12 -42 -54 0
-12 -42 -60 0
-12 -42 -66 0
-12 -42 -72 0
-12 -42 -78 0
-12 -48 -54 0
-12 -48 -60 0
-12 -48 -66 0
-12 -48 -72 0
-12 -48 -78 0
-12 -54 -60 0
-12 -54 -66 0
-12 -54 -72 0
-12 -54 -78 0
-12 -60 -66 0
-12 -60 -72 0
-12 -60 -78 0
-12 -66 -72 0
-12 -66 -78 0
-12 -72 -78 0
-18 -24 -30 0
-18 -24 -36 0
-18 -24 -42 0
-18 -24 -48 0
-18 -24 -54 0
-18 -24 -60 0
-18 -24 -66 0
-18 -24 -72 0
-18 -24 -78 0
-18 -30 -36 0
-18 -30 -42 0
-18 -30 -48 0
-18 -30 -54 0
-18 -30 -60 0
-18 -30 -66 0
-18 -30 -72 0
-18 -30 -78 0
-18 -36 -42 0
-18 -36 -48 0
-18 -36 -54 0
-18 -36 -60 0
-18 -36 -66 0
-18 -36 -72 0
-18 -36 -78 0
-18 -42 -48 0
-18 -42 -54 0
-18 -42 -60 0
-18 -42 -66 0
-18 -42 -72 0
-18 -42 -78 0
-18 -48 -54 0
-18 -48 -60 0
-18 -48 -66 0
-18 -48 -72 0
-18 -48 -78 0
-18 -54 -60 0
-18 -54 -66 0
-18 -54 -72 0
-18 -54 -78 0
-18 -60 -66 0
-18 -60 -72 0
-18 -60 -78 0
-18 -66 -72 0
-18 -66 -78 0
-18 -72 -78 0
-24 -30 -36 0
-24 -30 -42 0
-24 -30 -48 0
-24 -30 -54 0
-24 -30 -60 0
-24 -30 -66 0
-24 -30 -72 0
-24 -30 -78 0
-24 -36 -42 0
-24 -36 -48 0
-24 -36 -54 0
-24 -36 -60 0
-24 -36 -66 0
-24 -36 -72 0
-24 -36 -78 0
-24 -42 -48 0
-24 -42 -54 0
-24 -42 -60 0
-24 -42 -66 0
-24 -42 -72 0
-24 -42 -78 0
-24 -48 -54 0
-24 -48 -60 0
-24 -48 -66 0
-24 -48 -72 0
-24 -48 -78 0
-24 -54 -60 0
-24 -54 -66 0
-24 -54 -72 0
-24 -54 -78 0
-24 -60 -66 0
-24 -60 -72 0
-24 -60 -78 0
-24 -66 -72 0
-24 -66 -78 0
-24 -72 -78 0
-30 -36 -42 0
-30 -36 -48 0
-30 -36 -54 0
-30 -36 -60 0
-30 -36 -66 0
-30 -36 -72 0
-30 -36 -78 0
-30 -42 -48 0
-30 -42 -54 0
-30 -42 -60 0
-30 -42 -66 0
-30 -42 -72 0
-30 -42 -78 0
-30 -48 -54 0
-30 -48 -60 0
-30 -48 -66 0
-30 -48 -72 0
-30 -48 -78 0
-30 -54 -60 0
-30 -54 -66 0
-30 -54 -72 0
-30 -54 -78 0
-30 -60 -66 0
-30 -60 -72 0
-30 -60 -78 0
-30 -66 -72 0
-30 -66 -78 0
-30 -72 -78 0
-36 -42 -48 0
-36 -42 -54 0
-36 -42 -60 0
-36 -42 -66 0
-36 -42 -72 0
-36 -42 -78 0
-36 -48 -54 0
-36 -48 -60 0
-36 -48 -66 0
-36 -48 -72 0
-36 -48 -78 0
-36 -54 -60 0
-36 -54 -66 0
-36 -54 -72 0
-36 -54 -78 0
-36 -60 -66 0
-36 -60 -72 0
-36 -60 -78 0
-36 -66 -72 0
-36 -66 -78 0
-36 -72 -78 0
-42 -48 -54 0
-42 -48 -60 0
-42 -48 -66 0
-42 -48 -72 0
-42 -48 -78 0
-42 -54 -60 0
-42 -54 -66 0
-42 -54 -72 0
-42 -54 -78 0
-42 -60 -66 0
-42 -60 -72 0
-42 -60 -78 0
-42 -66 -72 0
-42 -66 -78 0
-42 -72 -78 0
-48 -54 -60 0
-48 -54 -66 0
-48 -54 -72 0
-48 -54 -78 0
-48 -60 -66 0
-48 -60 -72 0
-48 -60 -78 0
-48 -66 -72 0
-48 -66 -78 0
-48 -72 -78 0
-54 -60 -66 0
-54 -60 -72 0
-54 -60 -78 0
-54 -66 -72 0
-54 -66 -78 0
-54 -72 -78 0
-60 -66 -72 0
-60 -66 -78 0
-60 -72 -78 0
-66 -72 -78 0
