c Phase 3 generated performance instance
c family=hidden_pigeonhole
c scale=6
c variant=tune
c noise_percent=100
c expected=UNSATISFIABLE
p cnf 321 576
-1 -2 31 0
-1 -2 -31 0
-1 -3 32 0
-1 -3 -32 0
-1 -4 33 0
-1 -4 -33 0
-1 -5 34 0
-1 -5 -34 0
-2 -3 35 0
-2 -3 -35 0
-2 -4 36 0
-2 -4 -36 0
-2 -5 37 0
-2 -5 -37 0
-3 -4 38 0
-3 -4 -38 0
-3 -5 39 0
-3 -5 -39 0
-4 -5 40 0
-4 -5 -40 0
1 2 41 0
3 -41 42 0
4 5 -42 0
-6 -7 43 0
-6 -7 -43 0
-6 -8 44 0
-6 -8 -44 0
-6 -9 45 0
-6 -9 -45 0
-6 -10 46 0
-6 -10 -46 0
-7 -8 47 0
-7 -8 -47 0
-7 -9 48 0
-7 -9 -48 0
-7 -10 49 0
-7 -10 -49 0
-8 -9 50 0
-8 -9 -50 0
-8 -10 51 0
-8 -10 -51 0
-9 -10 52 0
-9 -10 -52 0
6 7 53 0
8 -53 54 0
9 10 -54 0
-11 -12 55 0
-11 -12 -55 0
-11 -13 56 0
-11 -13 -56 0
-11 -14 57 0
-11 -14 -57 0
-11 -15 58 0
-11 -15 -58 0
-12 -13 59 0
-12 -13 -59 0
-12 -14 60 0
-12 -14 -60 0
-12 -15 61 0
-12 -15 -61 0
-13 -14 62 0
-13 -14 -62 0
-13 -15 63 0
-13 -15 -63 0
-14 -15 64 0
-14 -15 -64 0
11 12 65 0
13 -65 66 0
14 15 -66 0
-16 -17 67 0
-16 -17 -67 0
-16 -18 68 0
-16 -18 -68 0
-16 -19 69 0
-16 -19 -69 0
-16 -20 70 0
-16 -20 -70 0
-17 -18 71 0
-17 -18 -71 0
-17 -19 72 0
-17 -19 -72 0
-17 -20 73 0
-17 -20 -73 0
-18 -19 74 0
-18 -19 -74 0
-18 -20 75 0
-18 -20 -75 0
-19 -20 76 0
-19 -20 -76 0
16 17 77 0
18 -77 78 0
19 20 -78 0
-21 -22 79 0
-21 -22 -79 0
-21 -23 80 0
-21 -23 -80 0
-21 -24 81 0
-21 -24 -81 0
-21 -25 82 0
-21 -25 -82 0
-22 -23 83 0
-22 -23 -83 0
-22 -24 84 0
-22 -24 -84 0
-22 -25 85 0
-22 -25 -85 0
-23 -24 86 0
-23 -24 -86 0
-23 -25 87 0
-23 -25 -87 0
-24 -25 88 0
-24 -25 -88 0
21 22 89 0
23 -89 90 0
24 25 -90 0
-26 -27 91 0
-26 -27 -91 0
-26 -28 92 0
-26 -28 -92 0
-26 -29 93 0
-26 -29 -93 0
-26 -30 94 0
-26 -30 -94 0
-27 -28 95 0
-27 -28 -95 0
-27 -29 96 0
-27 -29 -96 0
-27 -30 97 0
-27 -30 -97 0
-28 -29 98 0
-28 -29 -98 0
-28 -30 99 0
-28 -30 -99 0
-29 -30 100 0
-29 -30 -100 0
26 27 101 0
28 -101 102 0
29 30 -102 0
-1 -6 103 0
-1 -6 -103 0
-1 -11 104 0
-1 -11 -104 0
-1 -16 105 0
-1 -16 -105 0
-1 -21 106 0
-1 -21 -106 0
-1 -26 107 0
-1 -26 -107 0
-6 -11 108 0
-6 -11 -108 0
-6 -16 109 0
-6 -16 -109 0
-6 -21 110 0
-6 -21 -110 0
-6 -26 111 0
-6 -26 -111 0
-11 -16 112 0
-11 -16 -112 0
-11 -21 113 0
-11 -21 -113 0
-11 -26 114 0
-11 -26 -114 0
-16 -21 115 0
-16 -21 -115 0
-16 -26 116 0
-16 -26 -116 0
-21 -26 117 0
-21 -26 -117 0
-2 -7 118 0
-2 -7 -118 0
-2 -12 119 0
-2 -12 -119 0
-2 -17 120 0
-2 -17 -120 0
-2 -22 121 0
-2 -22 -121 0
-2 -27 122 0
-2 -27 -122 0
-7 -12 123 0
-7 -12 -123 0
-7 -17 124 0
-7 -17 -124 0
-7 -22 125 0
-7 -22 -125 0
-7 -27 126 0
-7 -27 -126 0
-12 -17 127 0
-12 -17 -127 0
-12 -22 128 0
-12 -22 -128 0
-12 -27 129 0
-12 -27 -129 0
-17 -22 130 0
-17 -22 -130 0
-17 -27 131 0
-17 -27 -131 0
-22 -27 132 0
-22 -27 -132 0
-3 -8 133 0
-3 -8 -133 0
-3 -13 134 0
-3 -13 -134 0
-3 -18 135 0
-3 -18 -135 0
-3 -23 136 0
-3 -23 -136 0
-3 -28 137 0
-3 -28 -137 0
-8 -13 138 0
-8 -13 -138 0
-8 -18 139 0
-8 -18 -139 0
-8 -23 140 0
-8 -23 -140 0
-8 -28 141 0
-8 -28 -141 0
-13 -18 142 0
-13 -18 -142 0
-13 -23 143 0
-13 -23 -143 0
-13 -28 144 0
-13 -28 -144 0
-18 -23 145 0
-18 -23 -145 0
-18 -28 146 0
-18 -28 -146 0
-23 -28 147 0
-23 -28 -147 0
-4 -9 148 0
-4 -9 -148 0
-4 -14 149 0
-4 -14 -149 0
-4 -19 150 0
-4 -19 -150 0
-4 -24 151 0
-4 -24 -151 0
-4 -29 152 0
-4 -29 -152 0
-9 -14 153 0
-9 -14 -153 0
-9 -19 154 0
-9 -19 -154 0
-9 -24 155 0
-9 -24 -155 0
-9 -29 156 0
-9 -29 -156 0
-14 -19 157 0
-14 -19 -157 0
-14 -24 158 0
-14 -24 -158 0
-14 -29 159 0
-14 -29 -159 0
-19 -24 160 0
-19 -24 -160 0
-19 -29 161 0
-19 -29 -161 0
-24 -29 162 0
-24 -29 -162 0
-5 -10 163 0
-5 -10 -163 0
-5 -15 164 0
-5 -15 -164 0
-5 -20 165 0
-5 -20 -165 0
-5 -25 166 0
-5 -25 -166 0
-5 -30 167 0
-5 -30 -167 0
-10 -15 168 0
-10 -15 -168 0
-10 -20 169 0
-10 -20 -169 0
-10 -25 170 0
-10 -25 -170 0
-10 -30 171 0
-10 -30 -171 0
-15 -20 172 0
-15 -20 -172 0
-15 -25 173 0
-15 -25 -173 0
-15 -30 174 0
-15 -30 -174 0
-20 -25 175 0
-20 -25 -175 0
-20 -30 176 0
-20 -30 -176 0
-25 -30 177 0
-25 -30 -177 0
190 240 319 0
-232 273 293 0
-210 -222 274 0
-231 278 -294 0
-261 -274 -290 0
-221 222 286 0
-178 224 -312 0
178 208 223 0
261 -283 -320 0
-231 241 -293 0
192 -247 -294 0
-179 -214 269 0
202 -226 -321 0
266 281 -283 0
-192 224 320 0
240 261 -282 0
255 269 -309 0
-239 254 -284 0
243 263 307 0
252 -262 -283 0
-181 204 -250 0
-224 277 -300 0
-240 299 -305 0
-183 299 318 0
203 209 263 0
-187 196 237 0
243 304 -319 0
233 268 317 0
198 -205 266 0
-193 253 303 0
259 -269 -319 0
-198 252 272 0
-196 -270 310 0
-182 196 223 0
270 -309 -314 0
-207 265 318 0
251 266 289 0
-201 -236 -281 0
191 277 -306 0
203 -219 -288 0
219 -225 251 0
190 220 310 0
-192 -194 -263 0
220 233 234 0
-196 -251 -283 0
235 295 310 0
179 -255 -292 0
-251 256 288 0
-215 -242 295 0
214 -261 -270 0
-215 -276 -282 0
202 226 314 0
-180 -244 250 0
-209 -255 257 0
179 185 200 0
-211 -242 282 0
212 -292 304 0
-182 233 -299 0
236 -256 297 0
-190 219 232 0
222 256 -314 0
214 -232 -285 0
190 214 220 0
200 222 308 0
-190 236 286 0
208 -220 -273 0
-235 267 -312 0
-222 -228 231 0
-252 -256 301 0
-183 -265 277 0
222 226 -299 0
189 198 -291 0
-210 304 -320 0
178 -276 -292 0
241 -245 257 0
208 -282 305 0
-186 -213 -231 0
208 -222 -239 0
-183 281 285 0
235 -247 269 0
191 -296 309 0
180 -264 308 0
-209 -249 -297 0
-237 295 301 0
212 214 -227 0
-199 -260 265 0
-190 -199 237 0
206 234 308 0
-231 296 320 0
217 -265 -274 0
262 298 306 0
-217 -261 -275 0
187 -234 -244 0
214 -259 -272 0
180 259 290 0
222 -269 270 0
185 -187 -230 0
-204 -216 269 0
239 -295 315 0
182 305 -309 0
-234 -280 313 0
-210 -262 -316 0
-276 -281 -318 0
189 -233 -304 0
-192 254 -275 0
205 243 308 0
207 -246 256 0
221 -274 291 0
224 230 279 0
-198 -302 -321 0
230 -237 238 0
190 -254 -265 0
216 -237 -266 0
205 -301 315 0
198 266 -274 0
251 260 266 0
-224 -233 242 0
178 -249 -304 0
-179 -209 -283 0
188 -251 270 0
-276 283 286 0
-190 268 281 0
-209 258 275 0
189 -209 -235 0
-211 -216 -218 0
180 -181 196 0
-245 273 299 0
194 283 -300 0
213 -228 230 0
-197 -236 287 0
275 -306 319 0
-188 233 -280 0
282 301 -309 0
212 -220 305 0
228 232 316 0
-195 -217 -321 0
-270 -280 -311 0
-190 -215 -296 0
-198 -290 316 0
-278 304 315 0
205 290 -293 0
-226 276 301 0
-205 214 -219 0
-211 -214 305 0
-250 -256 287 0
199 255 -283 0
-226 251 -283 0
-222 236 -274 0
223 -235 -317 0
212 282 -286 0
193 198 -316 0
-214 258 263 0
-264 -265 -286 0
-179 -199 217 0
-226 249 -311 0
-209 -247 315 0
-189 209 296 0
227 281 317 0
211 235 316 0
-263 -305 316 0
-194 260 267 0
262 294 -315 0
242 259 302 0
260 266 -269 0
182 -245 -302 0
-186 -223 240 0
-185 192 -213 0
-224 238 -274 0
-235 250 292 0
201 236 277 0
-227 255 -319 0
219 317 -319 0
266 290 -305 0
204 -240 294 0
-192 215 -292 0
188 294 -303 0
234 -280 -302 0
197 -222 -274 0
186 213 247 0
181 -200 -302 0
250 -273 -294 0
182 -202 -228 0
-239 258 292 0
-193 -285 -295 0
-209 -285 293 0
-203 236 -245 0
261 -272 -285 0
-185 222 290 0
187 224 273 0
222 -247 -257 0
-222 229 -274 0
200 214 253 0
181 -228 255 0
186 -201 -277 0
-206 -249 -269 0
-190 297 -321 0
-225 -284 299 0
216 -253 287 0
-220 273 311 0
241 -265 -266 0
-209 -215 319 0
189 193 217 0
218 -223 -309 0
-260 306 -318 0
-199 224 229 0
-227 246 268 0
-236 -263 -309 0
214 225 314 0
205 256 -294 0
273 278 304 0
224 260 -279 0
210 251 -276 0
-223 241 -275 0
-212 -224 279 0
-229 284 290 0
225 248 -320 0
-203 -213 318 0
-242 249 -311 0
-211 212 217 0
239 308 315 0
303 312 -321 0
265 -298 308 0
221 -264 280 0
227 -244 -254 0
-200 240 -285 0
-250 273 288 0
-205 -304 -317 0
-199 -276 300 0
252 -282 -318 0
227 -256 -319 0
-215 -305 321 0
-193 -209 -280 0
199 214 -276 0
183 230 -317 0
-214 -231 274 0
208 -217 -295 0
-183 -266 -319 0
-219 -285 -300 0
-257 -306 307 0
-187 -222 -267 0
208 254 278 0
199 -222 258 0
-279 -295 311 0
187 198 292 0
-227 -294 308 0
-234 -261 305 0
-194 289 291 0
-243 299 317 0
207 266 -268 0
183 276 -307 0
205 -278 -296 0
191 -212 -321 0
213 225 232 0
248 250 -264 0
-191 192 -270 0
199 -279 297 0
181 -182 -194 0
279 -310 317 0
-282 -283 309 0
179 -199 -202 0
215 223 -271 0
-198 -209 -288 0
255 -273 302 0
-270 -271 -307 0
-199 -212 234 0
200 246 -308 0
213 -285 -290 0
194 -208 316 0
-200 -259 311 0
209 -210 -266 0
178 192 -239 0
-181 204 -228 0
-200 -251 -288 0
-237 -240 -248 0
-211 -267 304 0
-195 200 289 0
-199 270 320 0
-209 233 296 0
195 -233 -307 0
192 214 280 0
-191 -237 -259 0
196 278 -287 0
195 -279 308 0
-262 -304 -314 0
-181 -192 253 0
221 -265 299 0
-208 -282 -290 0
186 -236 257 0
