c Phase 3 generated performance instance
c family=hidden_pigeonhole
c scale=8
c variant=tune
c noise_percent=100
c expected=UNSATISFIABLE
p cnf 836 1536
-1 -2 57 0
-1 -2 -57 0
-1 -3 58 0
-1 -3 -58 0
-1 -4 59 0
-1 -4 -59 0
-1 -5 60 0
-1 -5 -60 0
-1 -6 61 0
-1 -6 -61 0
-1 -7 62 0
-1 -7 -62 0
-2 -3 63 0
-2 -3 -63 0
-2 -4 64 0
-2 -4 -64 0
-2 -5 65 0
-2 -5 -65 0
-2 -6 66 0
-2 -6 -66 0
-2 -7 67 0
-2 -7 -67 0
-3 -4 68 0
-3 -4 -68 0
-3 -5 69 0
-3 -5 -69 0
-3 -6 70 0
-3 -6 -70 0
-3 -7 71 0
-3 -7 -71 0
-4 -5 72 0
-4 -5 -72 0
-4 -6 73 0
-4 -6 -73 0
-4 -7 74 0
-4 -7 -74 0
-5 -6 75 0
-5 -6 -75 0
-5 -7 76 0
-5 -7 -76 0
-6 -7 77 0
-6 -7 -77 0
1 2 78 0
3 -78 79 0
4 -79 80 0
5 -80 81 0
6 7 -81 0
-8 -9 82 0
-8 -9 -82 0
-8 -10 83 0
-8 -10 -83 0
-8 -11 84 0
-8 -11 -84 0
-8 -12 85 0
-8 -12 -85 0
-8 -13 86 0
-8 -13 -86 0
-8 -14 87 0
-8 -14 -87 0
-9 -10 88 0
-9 -10 -88 0
-9 -11 89 0
-9 -11 -89 0
-9 -12 90 0
-9 -12 -90 0
-9 -13 91 0
-9 -13 -91 0
-9 -14 92 0
-9 -14 -92 0
-10 -11 93 0
-10 -11 -93 0
-10 -12 94 0
-10 -12 -94 0
-10 -13 95 0
-10 -13 -95 0
-10 -14 96 0
-10 -14 -96 0
-11 -12 97 0
-11 -12 -97 0
-11 -13 98 0
-11 -13 -98 0
-11 -14 99 0
-11 -14 -99 0
-12 -13 100 0
-12 -13 -100 0
-12 -14 101 0
-12 -14 -101 0
-13 -14 102 0
-13 -14 -102 0
8 9 103 0
10 -103 104 0
11 -104 105 0
12 -105 106 0
13 14 -106 0
-15 -16 107 0
-15 -16 -107 0
-15 -17 108 0
-15 -17 -108 0
-15 -18 109 0
-15 -18 -109 0
-15 -19 110 0
-15 -19 -110 0
-15 -20 111 0
-15 -20 -111 0
-15 -21 112 0
-15 -21 -112 0
-16 -17 113 0
-16 -17 -113 0
-16 -18 114 0
-16 -18 -114 0
-16 -19 115 0
-16 -19 -115 0
-16 -20 116 0
-16 -20 -116 0
-16 -21 117 0
-16 -21 -117 0
-17 -18 118 0
-17 -18 -118 0
-17 -19 119 0
-17 -19 -119 0
-17 -20 120 0
-17 -20 -120 0
-17 -21 121 0
-17 -21 -121 0
-18 -19 122 0
-18 -19 -122 0
-18 -20 123 0
-18 -20 -123 0
-18 -21 124 0
-18 -21 -124 0
-19 -20 125 0
-19 -20 -125 0
-19 -21 126 0
-19 -21 -126 0
-20 -21 127 0
-20 -21 -127 0
15 16 128 0
17 -128 129 0
18 -129 130 0
19 -130 131 0
20 21 -131 0
-22 -23 132 0
-22 -23 -132 0
-22 -24 133 0
-22 -24 -133 0
-22 -25 134 0
-22 -25 -134 0
-22 -26 135 0
-22 -26 -135 0
-22 -27 136 0
-22 -27 -136 0
-22 -28 137 0
-22 -28 -137 0
-23 -24 138 0
-23 -24 -138 0
-23 -25 139 0
-23 -25 -139 0
-23 -26 140 0
-23 -26 -140 0
-23 -27 141 0
-23 -27 -141 0
-23 -28 142 0
-23 -28 -142 0
-24 -25 143 0
-24 -25 -143 0
-24 -26 144 0
-24 -26 -144 0
-24 -27 145 0
-24 -27 -145 0
-24 -28 146 0
-24 -28 -146 0
-25 -26 147 0
-25 -26 -147 0
-25 -27 148 0
-25 -27 -148 0
-25 -28 149 0
-25 -28 -149 0
-26 -27 150 0
-26 -27 -150 0
-26 -28 151 0
-26 -28 -151 0
-27 -28 152 0
-27 -28 -152 0
22 23 153 0
24 -153 154 0
25 -154 155 0
26 -155 156 0
27 28 -156 0
-29 -30 157 0
-29 -30 -157 0
-29 -31 158 0
-29 -31 -158 0
-29 -32 159 0
-29 -32 -159 0
-29 -33 160 0
-29 -33 -160 0
-29 -34 161 0
-29 -34 -161 0
-29 -35 162 0
-29 -35 -162 0
-30 -31 163 0
-30 -31 -163 0
-30 -32 164 0
-30 -32 -164 0
-30 -33 165 0
-30 -33 -165 0
-30 -34 166 0
-30 -34 -166 0
-30 -35 167 0
-30 -35 -167 0
-31 -32 168 0
-31 -32 -168 0
-31 -33 169 0
-31 -33 -169 0
-31 -34 170 0
-31 -34 -170 0
-31 -35 171 0
-31 -35 -171 0
-32 -33 172 0
-32 -33 -172 0
-32 -34 173 0
-32 -34 -173 0
-32 -35 174 0
-32 -35 -174 0
-33 -34 175 0
-33 -34 -175 0
-33 -35 176 0
-33 -35 -176 0
-34 -35 177 0
-34 -35 -177 0
29 30 178 0
31 -178 179 0
32 -179 180 0
33 -180 181 0
34 35 -181 0
-36 -37 182 0
-36 -37 -182 0
-36 -38 183 0
-36 -38 -183 0
-36 -39 184 0
-36 -39 -184 0
-36 -40 185 0
-36 -40 -185 0
-36 -41 186 0
-36 -41 -186 0
-36 -42 187 0
-36 -42 -187 0
-37 -38 188 0
-37 -38 -188 0
-37 -39 189 0
-37 -39 -189 0
-37 -40 190 0
-37 -40 -190 0
-37 -41 191 0
-37 -41 -191 0
-37 -42 192 0
-37 -42 -192 0
-38 -39 193 0
-38 -39 -193 0
-38 -40 194 0
-38 -40 -194 0
-38 -41 195 0
-38 -41 -195 0
-38 -42 196 0
-38 -42 -196 0
-39 -40 197 0
-39 -40 -197 0
-39 -41 198 0
-39 -41 -198 0
-39 -42 199 0
-39 -42 -199 0
-40 -41 200 0
-40 -41 -200 0
-40 -42 201 0
-40 -42 -201 0
-41 -42 202 0
-41 -42 -202 0
36 37 203 0
38 -203 204 0
39 -204 205 0
40 -205 206 0
41 42 -206 0
-43 -44 207 0
-43 -44 -207 0
-43 -45 208 0
-43 -45 -208 0
-43 -46 209 0
-43 -46 -209 0
-43 -47 210 0
-43 -47 -210 0
-43 -48 211 0
-43 -48 -211 0
-43 -49 212 0
-43 -49 -212 0
-44 -45 213 0
-44 -45 -213 0
-44 -46 214 0
-44 -46 -214 0
-44 -47 215 0
-44 -47 -215 0
-44 -48 216 0
-44 -48 -216 0
-44 -49 217 0
-44 -49 -217 0
-45 -46 218 0
-45 -46 -218 0
-45 -47 219 0
-45 -47 -219 0
-45 -48 220 0
-45 -48 -220 0
-45 -49 221 0
-45 -49 -221 0
-46 -47 222 0
-46 -47 -222 0
-46 -48 223 0
-46 -48 -223 0
-46 -49 224 0
-46 -49 -224 0
-47 -48 225 0
-47 -48 -225 0
-47 -49 226 0
-47 -49 -226 0
-48 -49 227 0
-48 -49 -227 0
43 44 228 0
45 -228 229 0
46 -229 230 0
47 -230 231 0
48 49 -231 0
-50 -51 232 0
-50 -51 -232 0
-50 -52 233 0
-50 -52 -233 0
-50 -53 234 0
-50 -53 -234 0
-50 -54 235 0
-50 -54 -235 0
-50 -55 236 0
-50 -55 -236 0
-50 -56 237 0
-50 -56 -237 0
-51 -52 238 0
-51 -52 -238 0
-51 -53 239 0
-51 -53 -239 0
-51 -54 240 0
-51 -54 -240 0
-51 -55 241 0
-51 -55 -241 0
-51 -56 242 0
-51 -56 -242 0
-52 -53 243 0
-52 -53 -243 0
-52 -54 244 0
-52 -54 -244 0
-52 -55 245 0
-52 -55 -245 0
-52 -56 246 0
-52 -56 -246 0
-53 -54 247 0
-53 -54 -247 0
-53 -55 248 0
-53 -55 -248 0
-53 -56 249 0
-53 -56 -249 0
-54 -55 250 0
-54 -55 -250 0
-54 -56 251 0
-54 -56 -251 0
-55 -56 252 0
-55 -56 -252 0
50 51 253 0
52 -253 254 0
53 -254 255 0
54 -255 256 0
55 56 -256 0
-1 -8 257 0
-1 -8 -257 0
-1 -15 258 0
-1 -15 -258 0
-1 -22 259 0
-1 -22 -259 0
-1 -29 260 0
-1 -29 -260 0
-1 -36 261 0
-1 -36 -261 0
-1 -43 262 0
-1 -43 -262 0
-1 -50 263 0
-1 -50 -263 0
-8 -15 264 0
-8 -15 -264 0
-8 -22 265 0
-8 -22 -265 0
-8 -29 266 0
-8 -29 -266 0
-8 -36 267 0
-8 -36 -267 0
-8 -43 268 0
-8 -43 -268 0
-8 -50 269 0
-8 -50 -269 0
-15 -22 270 0
-15 -22 -270 0
-15 -29 271 0
-15 -29 -271 0
-15 -36 272 0
-15 -36 -272 0
-15 -43 273 0
-15 -43 -273 0
-15 -50 274 0
-15 -50 -274 0
-22 -29 275 0
-22 -29 -275 0
-22 -36 276 0
-22 -36 -276 0
-22 -43 277 0
-22 -43 -277 0
-22 -50 278 0
-22 -50 -278 0
-29 -36 279 0
-29 -36 -279 0
-29 -43 280 0
-29 -43 -280 0
-29 -50 281 0
-29 -50 -281 0
-36 -43 282 0
-36 -43 -282 0
-36 -50 283 0
-36 -50 -283 0
-43 -50 284 0
-43 -50 -284 0
-2 -9 285 0
-2 -9 -285 0
-2 -16 286 0
-2 -16 -286 0
-2 -23 287 0
-2 -23 -287 0
-2 -30 288 0
-2 -30 -288 0
-2 -37 289 0
-2 -37 -289 0
-2 -44 290 0
-2 -44 -290 0
-2 -51 291 0
-2 -51 -291 0
-9 -16 292 0
-9 -16 -292 0
-9 -23 293 0
-9 -23 -293 0
-9 -30 294 0
-9 -30 -294 0
-9 -37 295 0
-9 -37 -295 0
-9 -44 296 0
-9 -44 -296 0
-9 -51 297 0
-9 -51 -297 0
-16 -23 298 0
-16 -23 -298 0
-16 -30 299 0
-16 -30 -299 0
-16 -37 300 0
-16 -37 -300 0
-16 -44 301 0
-16 -44 -301 0
-16 -51 302 0
-16 -51 -302 0
-23 -30 303 0
-23 -30 -303 0
-23 -37 304 0
-23 -37 -304 0
-23 -44 305 0
-23 -44 -305 0
-23 -51 306 0
-23 -51 -306 0
-30 -37 307 0
-30 -37 -307 0
-30 -44 308 0
-30 -44 -308 0
-30 -51 309 0
-30 -51 -309 0
-37 -44 310 0
-37 -44 -310 0
-37 -51 311 0
-37 -51 -311 0
-44 -51 312 0
-44 -51 -312 0
-3 -10 313 0
-3 -10 -313 0
-3 -17 314 0
-3 -17 -314 0
-3 -24 315 0
-3 -24 -315 0
-3 -31 316 0
-3 -31 -316 0
-3 -38 317 0
-3 -38 -317 0
-3 -45 318 0
-3 -45 -318 0
-3 -52 319 0
-3 -52 -319 0
-10 -17 320 0
-10 -17 -320 0
-10 -24 321 0
-10 -24 -321 0
-10 -31 322 0
-10 -31 -322 0
-10 -38 323 0
-10 -38 -323 0
-10 -45 324 0
-10 -45 -324 0
-10 -52 325 0
-10 -52 -325 0
-17 -24 326 0
-17 -24 -326 0
-17 -31 327 0
-17 -31 -327 0
-17 -38 328 0
-17 -38 -328 0
-17 -45 329 0
-17 -45 -329 0
-17 -52 330 0
-17 -52 -330 0
-24 -31 331 0
-24 -31 -331 0
-24 -38 332 0
-24 -38 -332 0
-24 -45 333 0
-24 -45 -333 0
-24 -52 334 0
-24 -52 -334 0
-31 -38 335 0
-31 -38 -335 0
-31 -45 336 0
-31 -45 -336 0
-31 -52 337 0
-31 -52 -337 0
-38 -45 338 0
-38 -45 -338 0
-38 -52 339 0
-38 -52 -339 0
-45 -52 340 0
-45 -52 -340 0
-4 -11 341 0
-4 -11 -341 0
-4 -18 342 0
-4 -18 -342 0
-4 -25 343 0
-4 -25 -343 0
-4 -32 344 0
-4 -32 -344 0
-4 -39 345 0
-4 -39 -345 0
-4 -46 346 0
-4 -46 -346 0
-4 -53 347 0
-4 -53 -347 0
-11 -18 348 0
-11 -18 -348 0
-11 -25 349 0
-11 -25 -349 0
-11 -32 350 0
-11 -32 -350 0
-11 -39 351 0
-11 -39 -351 0
-11 -46 352 0
-11 -46 -352 0
-11 -53 353 0
-11 -53 -353 0
-18 -25 354 0
-18 -25 -354 0
-18 -32 355 0
-18 -32 -355 0
-18 -39 356 0
-18 -39 -356 0
-18 -46 357 0
-18 -46 -357 0
-18 -53 358 0
-18 -53 -358 0
-25 -32 359 0
-25 -32 -359 0
-25 -39 360 0
-25 -39 -360 0
-25 -46 361 0
-25 -46 -361 0
-25 -53 362 0
-25 -53 -362 0
-32 -39 363 0
-32 -39 -363 0
-32 -46 364 0
-32 -46 -364 0
-32 -53 365 0
-32 -53 -365 0
-39 -46 366 0
-39 -46 -366 0
-39 -53 367 0
-39 -53 -367 0
-46 -53 368 0
-46 -53 -368 0
-5 -12 369 0
-5 -12 -369 0
-5 -19 370 0
-5 -19 -370 0
-5 -26 371 0
-5 -26 -371 0
-5 -33 372 0
-5 -33 -372 0
-5 -40 373 0
-5 -40 -373 0
-5 -47 374 0
-5 -47 -374 0
-5 -54 375 0
-5 -54 -375 0
-12 -19 376 0
-12 -19 -376 0
-12 -26 377 0
-12 -26 -377 0
-12 -33 378 0
-12 -33 -378 0
-12 -40 379 0
-12 -40 -379 0
-12 -47 380 0
-12 -47 -380 0
-12 -54 381 0
-12 -54 -381 0
-19 -26 382 0
-19 -26 -382 0
-19 -33 383 0
-19 -33 -383 0
-19 -40 384 0
-19 -40 -384 0
-19 -47 385 0
-19 -47 -385 0
-19 -54 386 0
-19 -54 -386 0
-26 -33 387 0
-26 -33 -387 0
-26 -40 388 0
-26 -40 -388 0
-26 -47 389 0
-26 -47 -389 0
-26 -54 390 0
-26 -54 -390 0
-33 -40 391 0
-33 -40 -391 0
-33 -47 392 0
-33 -47 -392 0
-33 -54 393 0
-33 -54 -393 0
-40 -47 394 0
-40 -47 -394 0
-40 -54 395 0
-40 -54 -395 0
-47 -54 396 0
-47 -54 -396 0
-6 -13 397 0
-6 -13 -397 0
-6 -20 398 0
-6 -20 -398 0
-6 -27 399 0
-6 -27 -399 0
-6 -34 400 0
-6 -34 -400 0
-6 -41 401 0
-6 -41 -401 0
-6 -48 402 0
-6 -48 -402 0
-6 -55 403 0
-6 -55 -403 0
-13 -20 404 0
-13 -20 -404 0
-13 -27 405 0
-13 -27 -405 0
-13 -34 406 0
-13 -34 -406 0
-13 -41 407 0
-13 -41 -407 0
-13 -48 408 0
-13 -48 -408 0
-13 -55 409 0
-13 -55 -409 0
-20 -27 410 0
-20 -27 -410 0
-20 -34 411 0
-20 -34 -411 0
-20 -41 412 0
-20 -41 -412 0
-20 -48 413 0
-20 -48 -413 0
-20 -55 414 0
-20 -55 -414 0
-27 -34 415 0
-27 -34 -415 0
-27 -41 416 0
-27 -41 -416 0
-27 -48 417 0
-27 -48 -417 0
-27 -55 418 0
-27 -55 -418 0
-34 -41 419 0
-34 -41 -419 0
-34 -48 420 0
-34 -48 -420 0
-34 -55 421 0
-34 -55 -421 0
-41 -48 422 0
-41 -48 -422 0
-41 -55 423 0
-41 -55 -423 0
-48 -55 424 0
-48 -55 -424 0
-7 -14 425 0
-7 -14 -425 0
-7 -21 426 0
-7 -21 -426 0
-7 -28 427 0
-7 -28 -427 0
-7 -35 428 0
-7 -35 -428 0
-7 -42 429 0
-7 -42 -429 0
-7 -49 430 0
-7 -49 -430 0
-7 -56 431 0
-7 -56 -431 0
-14 -21 432 0
-14 -21 -432 0
-14 -28 433 0
-14 -28 -433 0
-14 -35 434 0
-14 -35 -434 0
-14 -42 435 0
-14 -42 -435 0
-14 -49 436 0
-14 -49 -436 0
-14 -56 437 0
-14 -56 -437 0
-21 -28 438 0
-21 -28 -438 0
-21 -35 439 0
-21 -35 -439 0
-21 -42 440 0
-21 -42 -440 0
-21 -49 441 0
-21 -49 -441 0
-21 -56 442 0
-21 -56 -442 0
-28 -35 443 0
-28 -35 -443 0
-28 -42 444 0
-28 -42 -444 0
-28 -49 445 0
-28 -49 -445 0
-28 -56 446 0
-28 -56 -446 0
-35 -42 447 0
-35 -42 -447 0
-35 -49 448 0
-35 -49 -448 0
-35 -56 449 0
-35 -56 -449 0
-42 -49 450 0
-42 -49 -450 0
-42 -56 451 0
-42 -56 -451 0
-49 -56 452 0
-49 -56 -452 0
476 -658 -776 0
-520 -595 631 0
-685 701 790 0
-492 -548 738 0
519 590 -786 0
819 -821 -827 0
662 -671 -805 0
-466 -517 -544 0
-506 539 733 0
577 -595 -630 0
-537 705 719 0
499 -653 -702 0
-501 502 685 0
592 627 -703 0
-557 573 645 0
622 -688 -743 0
588 682 747 0
-473 -710 752 0
-554 -643 -785 0
491 501 -587 0
605 -655 -770 0
-580 -594 -669 0
524 -554 -575 0
-493 -550 717 0
-453 633 652 0
-473 -574 -657 0
590 656 -724 0
599 782 831 0
784 801 -828 0
600 -675 -697 0
540 -630 -656 0
523 -607 -637 0
456 536 675 0
-521 544 711 0
455 732 797 0
497 629 645 0
537 -636 -667 0
-473 -693 -740 0
-714 717 -833 0
611 -638 -650 0
580 803 809 0
506 574 -723 0
559 575 -788 0
-503 601 818 0
574 -720 754 0
-558 -605 -790 0
476 483 -776 0
-588 -726 -813 0
-477 -501 800 0
-655 -677 -808 0
-552 589 681 0
628 -782 -800 0
-574 666 763 0
460 -605 -618 0
530 686 835 0
-466 -708 -715 0
505 -529 -711 0
-566 597 -768 0
-644 -765 -783 0
736 -742 -773 0
-672 -726 775 0
694 -706 791 0
-645 652 -730 0
-455 -676 -755 0
493 -597 599 0
-517 607 -646 0
518 -646 -687 0
-520 658 -827 0
499 513 599 0
-521 -586 725 0
482 553 674 0
-611 636 806 0
-512 -617 737 0
484 -552 682 0
-487 -581 798 0
607 -649 -712 0
-529 -767 -790 0
-567 -629 -795 0
473 -583 598 0
529 683 750 0
510 -606 -673 0
542 -583 -812 0
495 -635 781 0
501 541 -830 0
-545 640 -722 0
-721 -742 -811 0
-472 -646 768 0
542 -581 831 0
501 582 778 0
514 533 -695 0
-625 -686 -728 0
-723 759 -796 0
507 750 830 0
454 -493 -558 0
-486 -621 -659 0
-566 691 736 0
605 -617 -651 0
-508 580 -811 0
-499 730 830 0
517 -646 826 0
545 763 828 0
463 -612 707 0
-689 717 799 0
-465 769 -786 0
591 -624 714 0
482 693 -795 0
497 541 -723 0
584 -743 -751 0
-665 710 778 0
-550 572 -637 0
630 749 -836 0
659 691 756 0
-594 -631 -707 0
637 746 -835 0
524 -697 831 0
-499 -741 -754 0
600 -617 742 0
574 -736 -790 0
-562 -597 738 0
519 -721 -808 0
-560 -677 719 0
680 764 -794 0
-724 -773 -826 0
548 606 -798 0
459 -547 604 0
591 -652 -706 0
-656 710 819 0
648 741 -769 0
484 616 -826 0
484 -518 671 0
-517 -595 829 0
485 -513 601 0
595 -600 -689 0
472 555 761 0
-612 632 797 0
-542 -589 738 0
551 -596 674 0
-548 768 784 0
493 -639 -700 0
599 755 828 0
593 613 -708 0
551 647 -724 0
-667 708 -740 0
-463 477 704 0
493 -600 787 0
-709 -740 774 0
-500 -734 -764 0
-482 754 836 0
-582 684 810 0
468 583 751 0
717 765 828 0
461 664 665 0
-508 605 761 0
-503 -581 741 0
-530 -719 -791 0
466 767 799 0
694 -747 767 0
-480 491 557 0
-655 -753 805 0
-519 -740 -811 0
561 694 -778 0
453 464 600 0
692 818 -822 0
475 517 -567 0
524 581 -681 0
-559 -616 823 0
583 680 -737 0
-455 457 -692 0
-462 474 765 0
648 670 -775 0
-681 -737 -828 0
-551 653 -685 0
-651 -674 -717 0
-592 -731 820 0
-569 -576 -789 0
503 -693 -797 0
-498 -542 568 0
464 -567 575 0
464 -509 -531 0
-492 -683 -835 0
554 790 831 0
518 705 -737 0
-484 -614 -753 0
-665 713 -741 0
641 656 744 0
-463 467 -605 0
-466 -794 -821 0
667 797 -812 0
-606 623 -682 0
-513 539 799 0
573 -600 -776 0
-480 678 766 0
-556 582 -830 0
694 -701 727 0
-468 633 711 0
-494 -603 811 0
-469 -680 683 0
-634 686 -792 0
-487 589 746 0
574 740 -755 0
-598 618 -747 0
-461 533 -712 0
-496 -669 716 0
633 -682 691 0
646 731 -748 0
-574 -696 -820 0
-476 -598 607 0
-508 784 816 0
-499 800 829 0
-555 -569 731 0
-502 -599 -821 0
519 -606 628 0
618 -635 693 0
-620 -688 -752 0
-470 539 738 0
571 -676 764 0
540 -593 655 0
-466 535 -585 0
501 -666 834 0
453 -681 -816 0
576 -675 -710 0
505 -540 768 0
577 -684 803 0
586 -608 -816 0
-511 669 707 0
-527 674 818 0
-512 -643 -656 0
697 733 -755 0
563 -675 -820 0
-587 -762 -814 0
-565 654 685 0
-540 -637 -656 0
574 -754 781 0
-469 -480 -505 0
620 711 -780 0
-459 -481 598 0
-476 -525 -539 0
-583 689 816 0
-500 -763 804 0
589 618 726 0
-767 788 799 0
623 717 789 0
-596 749 -834 0
-648 759 769 0
549 -611 775 0
-570 736 -773 0
-580 -811 819 0
520 -606 635 0
551 -587 -673 0
-675 -785 834 0
641 -669 785 0
-463 558 -693 0
-525 562 -827 0
542 736 -831 0
455 489 -715 0
528 -599 -772 0
-556 587 -708 0
508 -520 -646 0
521 -710 743 0
600 -656 -751 0
510 569 -806 0
-501 -551 616 0
606 -737 -757 0
-520 -556 833 0
-488 -664 -755 0
-565 -685 -799 0
547 -696 -831 0
-508 731 825 0
547 -552 711 0
-585 618 -692 0
498 539 -578 0
498 677 -833 0
461 706 799 0
531 -683 831 0
-548 -549 650 0
-657 -664 747 0
-616 -689 -699 0
-502 555 -609 0
-502 722 -758 0
488 -518 -827 0
-508 -599 -613 0
-455 509 587 0
695 -746 790 0
608 693 -744 0
516 -702 -750 0
694 -719 793 0
471 488 767 0
628 -688 -689 0
-479 -713 -830 0
546 566 -654 0
-494 721 -732 0
-548 -565 -801 0
488 667 -730 0
491 -693 811 0
506 801 -809 0
493 693 729 0
477 677 710 0
570 -774 791 0
-660 768 -803 0
-460 -515 656 0
-522 -622 -828 0
565 570 661 0
461 -733 825 0
-608 717 -825 0
-494 588 -811 0
-647 -662 -703 0
-523 545 -610 0
-604 -645 -712 0
541 647 -812 0
513 553 -751 0
-503 -552 -770 0
460 -758 -766 0
-550 -626 780 0
462 735 739 0
562 -634 665 0
508 509 720 0
621 -746 -776 0
564 -793 821 0
-585 608 783 0
480 515 -594 0
-499 -623 -762 0
-627 -655 803 0
537 -780 802 0
-508 -670 -766 0
461 508 -714 0
-555 -688 -696 0
463 793 835 0
-532 -756 785 0
-457 742 -786 0
524 -634 831 0
-534 -626 743 0
749 780 -791 0
-652 -653 828 0
-595 -617 -695 0
-491 519 631 0
-475 747 -830 0
-518 -642 -836 0
-517 674 706 0
522 -635 -637 0
542 605 -811 0
-544 -772 -811 0
504 785 800 0
573 625 834 0
550 -623 660 0
-495 -690 -811 0
-490 -617 674 0
454 -576 -584 0
543 741 813 0
-500 -559 625 0
526 558 -686 0
-493 -646 -734 0
454 -660 806 0
-771 779 -801 0
-602 795 -806 0
-546 601 722 0
-517 519 -522 0
-650 -799 -814 0
-479 -602 -701 0
611 -720 793 0
-497 -737 770 0
473 542 778 0
-514 -593 -608 0
-505 -761 -789 0
691 -720 -786 0
-581 -585 -836 0
-546 -597 -770 0
-541 -603 694 0
-520 -642 -712 0
468 -691 770 0
562 614 817 0
-658 -812 -829 0
-479 -750 810 0
-604 619 -644 0
-574 -719 -798 0
464 760 789 0
462 683 799 0
-753 -809 -823 0
562 722 -769 0
-770 783 835 0
-471 558 623 0
-647 -656 -697 0
-571 741 820 0
-516 -661 744 0
663 681 -775 0
-623 -689 749 0
669 691 -744 0
-526 -650 -706 0
596 -668 -800 0
510 683 730 0
-508 796 803 0
-531 542 -549 0
-690 -698 807 0
665 731 771 0
-510 -650 656 0
-489 -586 611 0
545 -586 -729 0
534 539 701 0
-503 -634 808 0
-531 533 644 0
517 -612 748 0
-481 -522 832 0
704 -715 -786 0
-523 576 809 0
-548 -619 -684 0
547 600 -605 0
-481 -545 634 0
-624 626 -818 0
478 678 -690 0
-584 -649 834 0
-544 -729 815 0
-575 -675 714 0
664 -711 756 0
-633 -652 737 0
553 589 -829 0
514 547 548 0
553 574 -609 0
480 -559 -600 0
482 648 737 0
-630 636 640 0
536 552 -660 0
-739 759 -772 0
654 718 771 0
-454 -646 649 0
495 -674 -727 0
-482 -550 -551 0
678 -761 -831 0
-584 644 -787 0
564 -571 613 0
464 484 -624 0
634 -834 -836 0
479 -559 719 0
-606 800 819 0
519 -614 713 0
571 -809 835 0
-538 594 805 0
567 -790 -809 0
-628 699 -768 0
517 -614 765 0
-631 639 725 0
-621 705 744 0
466 -566 755 0
-498 581 621 0
-472 -546 792 0
-608 629 -705 0
-620 -626 728 0
490 -652 -807 0
509 -667 -700 0
574 755 803 0
508 -822 835 0
477 -544 724 0
-457 544 -585 0
481 483 810 0
666 733 -757 0
-541 -603 823 0
721 730 -757 0
-590 821 835 0
526 635 801 0
-564 -576 -585 0
482 654 -675 0
-536 826 827 0
-516 -630 -822 0
-466 499 -822 0
-571 678 -696 0
-756 829 -836 0
660 -732 -733 0
583 702 752 0
605 675 -681 0
-486 -569 -731 0
-458 480 764 0
473 -811 -832 0
-478 -599 809 0
-456 515 -652 0
497 -517 550 0
453 -531 -666 0
-498 626 825 0
468 -548 -558 0
-580 -604 -656 0
525 592 775 0
462 -561 -569 0
464 -716 -828 0
505 -525 595 0
-627 632 -730 0
608 797 -822 0
538 731 -824 0
479 -524 712 0
-564 -565 -785 0
-605 710 786 0
-493 -516 -689 0
470 -720 757 0
475 -576 -784 0
463 -544 785 0
-453 -590 752 0
520 523 690 0
455 -674 -775 0
508 583 -664 0
677 -692 -713 0
465 599 683 0
490 572 771 0
-559 628 762 0
-542 -627 693 0
620 661 -712 0
-599 -783 -805 0
-474 -544 -677 0
-497 -510 712 0
467 725 751 0
537 -690 -789 0
-461 -475 617 0
505 -599 752 0
-566 -587 -804 0
-472 508 755 0
-490 -492 600 0
541 631 -789 0
599 622 729 0
628 -744 827 0
494 534 -573 0
591 723 763 0
548 578 -716 0
460 469 -781 0
-476 523 597 0
-527 -690 812 0
469 731 -797 0
-457 -470 734 0
-476 516 -828 0
-493 -645 704 0
-484 503 795 0
543 743 -775 0
-552 -674 756 0
-538 -603 764 0
-543 619 -732 0
-485 -804 -813 0
-534 -658 675 0
-459 547 633 0
-460 -594 800 0
-644 738 816 0
-661 -705 -724 0
-568 696 735 0
636 -651 -719 0
453 461 -726 0
-700 -804 -812 0
-605 -623 -633 0
-569 -655 713 0
-600 653 -695 0
-482 708 -811 0
453 559 -747 0
-556 -568 668 0
613 -643 -798 0
-656 672 -825 0
456 481 811 0
457 694 -770 0
542 -617 -642 0
636 -708 -711 0
462 -682 -691 0
-540 -588 735 0
-588 -633 828 0
-503 529 -820 0
464 486 539 0
-515 -579 -590 0
466 481 -559 0
-664 -774 836 0
-546 591 722 0
-463 474 753 0
-516 -557 712 0
-495 -593 685 0
634 714 -717 0
-662 685 770 0
-460 -462 -582 0
-523 599 654 0
705 757 -832 0
486 -623 -688 0
693 694 -731 0
-546 604 637 0
-492 687 -752 0
-462 544 -673 0
-563 -635 744 0
514 -643 753 0
-524 -716 719 0
521 695 704 0
-709 720 -820 0
515 568 663 0
494 532 749 0
-604 615 -816 0
496 -611 770 0
-553 -619 -745 0
606 -709 -795 0
573 -592 -777 0
637 698 -795 0
-541 -568 -730 0
-524 -630 -671 0
515 519 684 0
-576 738 780 0
715 -773 794 0
525 647 836 0
-508 -569 -667 0
-649 -751 757 0
522 -546 -547 0
546 -639 835 0
595 -728 -829 0
-547 -568 -654 0
463 473 765 0
497 505 635 0
-713 769 -772 0
535 -572 708 0
529 588 -722 0
-480 -559 570 0
743 -778 -782 0
478 -765 -785 0
504 685 742 0
570 -766 -770 0
-495 725 805 0
-551 -619 -662 0
-544 552 -564 0
-558 593 -642 0
668 -798 -812 0
-485 712 713 0
536 -667 727 0
453 623 660 0
492 -624 671 0
483 588 -649 0
-516 -644 688 0
-516 -675 686 0
-502 636 -657 0
-480 769 795 0
469 -621 -802 0
-522 604 -833 0
583 -652 -744 0
519 596 710 0
-579 -712 -780 0
-464 523 731 0
-567 -580 719 0
602 -647 -678 0
515 689 756 0
533 -540 -727 0
-520 699 -763 0
-580 733 758 0
496 -551 -706 0
576 639 771 0
563 -654 772 0
531 765 -832 0
-470 532 801 0
-527 -532 730 0
-593 607 791 0
571 -608 799 0
-455 -542 -739 0
707 788 -817 0
-509 -754 788 0
712 727 -786 0
548 -606 -825 0
-521 610 -667 0
490 526 646 0
-514 532 824 0
-465 535 612 0
588 -598 817 0
-454 -651 -755 0
-581 612 673 0
-514 583 634 0
495 -757 -787 0
-497 -671 806 0
-598 -698 -733 0
510 -718 -751 0
-522 645 680 0
453 -578 634 0
-589 797 817 0
-506 -583 772 0
-628 -763 779 0
-555 628 648 0
554 573 709 0
628 751 -828 0
-518 543 636 0
531 767 821 0
-461 -590 -792 0
600 647 -825 0
-548 -698 -778 0
-593 706 -734 0
-557 714 -746 0
-581 600 783 0
497 -561 725 0
-462 -568 -778 0
-480 532 -827 0
573 599 668 0
508 -600 637 0
-521 639 -652 0
-523 579 -775 0
-554 -688 798 0
-482 520 -658 0
487 -526 -622 0
600 720 758 0
531 -705 763 0
-625 636 -775 0
611 613 750 0
460 614 761 0
472 644 675 0
522 -557 687 0
518 522 695 0
-689 795 -801 0
458 487 -778 0
756 770 835 0
-492 591 619 0
567 -641 -669 0
498 -662 -772 0
-487 -546 -767 0
551 -653 -810 0
643 703 772 0
528 -554 -709 0
-681 771 -811 0
514 -673 -702 0
616 -625 651 0
482 730 749 0
493 -516 -549 0
454 491 -640 0
471 729 -830 0
467 -645 733 0
-651 716 813 0
-668 699 759 0
526 653 -704 0
594 -643 -822 0
559 604 -792 0
-492 652 658 0
-609 706 801 0
480 609 771 0
-466 754 -769 0
-673 -741 759 0
481 683 -696 0
-464 -579 -726 0
-672 688 723 0
-486 -512 -542 0
491 650 -681 0
523 559 -646 0
549 583 -624 0
509 525 538 0
604 -716 778 0
460 616 746 0
-499 -586 664 0
529 -595 -650 0
-462 -590 666 0
-642 -644 -707 0
-555 562 -757 0
-508 -643 -696 0
525 -620 776 0
-661 745 -810 0
-482 598 -822 0
-486 -741 822 0
-693 -703 -792 0
-468 546 -778 0
485 587 -818 0
-653 744 748 0
-534 593 834 0
-499 -645 697 0
607 -650 -663 0
540 599 -829 0
472 -734 -835 0
601 755 -805 0
479 727 748 0
-532 806 -835 0
-546 807 -822 0
-631 -699 790 0
542 613 648 0
509 530 607 0
-490 -526 -784 0
554 643 -804 0
739 740 759 0
-687 784 806 0
-645 -746 819 0
588 -632 675 0
471 -498 517 0
500 -662 -700 0
-578 -683 -785 0
505 619 -647 0
-633 -636 798 0
