c Phase 3 random 3-SAT negative control
c seed=71021
c ratio=4.26
c variant=uniform
c expected=TO_VALIDATE
p cnf 120 511
53 -68 86 0
8 43 67 0
-10 82 97 0
-1 67 116 0
69 85 86 0
-14 -81 -86 0
10 106 110 0
-48 106 111 0
8 -18 37 0
-19 38 70 0
-21 69 106 0
26 -101 113 0
-23 -91 107 0
10 96 109 0
-5 -59 -85 0
52 71 103 0
-29 -36 -63 0
67 -83 84 0
-5 33 49 0
-60 -62 -117 0
8 29 -68 0
-45 -57 -99 0
-5 7 -37 0
14 -33 99 0
-5 -61 105 0
-71 -89 114 0
-28 -43 55 0
-32 84 -116 0
-68 76 113 0
-26 87 103 0
1 67 83 0
-18 -76 -99 0
49 -61 -105 0
-25 54 -62 0
-35 -85 -108 0
-60 75 -86 0
-10 34 -114 0
-69 -70 -79 0
71 75 85 0
89 -96 -107 0
16 42 -72 0
14 25 -40 0
12 -33 -54 0
8 -72 82 0
13 -57 113 0
24 79 106 0
-16 -84 -93 0
-37 46 -82 0
-37 -43 110 0
8 -34 87 0
3 5 17 0
4 31 105 0
7 22 116 0
5 -70 90 0
49 -62 84 0
-46 53 78 0
25 69 -72 0
-4 47 62 0
-4 24 -98 0
31 106 -117 0
69 -76 -85 0
17 -55 -101 0
-34 -38 103 0
4 71 76 0
-100 101 -106 0
2 73 -112 0
14 85 105 0
-40 42 -55 0
9 52 82 0
48 -89 -95 0
35 -115 -119 0
35 38 55 0
-8 53 83 0
-31 -51 60 0
-44 65 66 0
2 25 -47 0
75 -81 -116 0
-6 38 -40 0
30 55 94 0
-16 -57 63 0
-1 -25 84 0
83 -92 97 0
-72 -74 -111 0
12 88 89 0
-20 27 -41 0
-57 -78 -82 0
-11 36 -87 0
10 -96 100 0
-95 -108 109 0
7 16 110 0
-48 -57 115 0
18 -23 66 0
-3 36 -58 0
7 95 114 0
51 -55 88 0
-15 -18 -117 0
-54 55 72 0
43 65 82 0
-45 51 115 0
6 -59 67 0
-11 84 -97 0
-39 53 -109 0
-36 -111 119 0
52 55 -82 0
-10 35 98 0
-96 109 -110 0
7 -48 -118 0
34 37 -117 0
-10 84 -86 0
-10 -55 57 0
54 57 -79 0
12 -46 -72 0
29 -42 -50 0
-50 62 -105 0
79 -101 -110 0
5 48 89 0
-24 82 -97 0
-68 74 -82 0
32 60 -105 0
77 -81 -94 0
-47 57 -85 0
-53 61 -78 0
7 49 -85 0
45 48 79 0
-30 47 -105 0
-14 -83 106 0
-8 28 -29 0
15 42 68 0
44 -47 76 0
34 94 -102 0
83 -92 -94 0
13 53 -90 0
15 83 113 0
-29 77 97 0
9 87 -100 0
-16 -32 -96 0
5 -61 101 0
-35 48 -93 0
-13 -22 -75 0
-10 -84 102 0
-52 -67 91 0
-19 21 88 0
13 61 111 0
-7 -38 -102 0
-41 60 95 0
74 81 -111 0
-55 -63 104 0
36 -44 99 0
-46 -67 101 0
9 61 -103 0
49 71 -82 0
4 36 84 0
-40 47 50 0
-60 -100 119 0
56 57 -60 0
26 -75 -82 0
86 90 113 0
6 45 81 0
54 76 -83 0
6 51 -83 0
14 44 -94 0
68 70 100 0
5 47 -115 0
33 -88 -109 0
-1 -68 -84 0
26 62 -87 0
-9 -63 -69 0
-10 -17 -42 0
33 54 -55 0
-26 -67 -100 0
4 91 -106 0
-96 99 -111 0
-13 72 78 0
6 18 31 0
-46 79 86 0
28 -29 40 0
2 -49 -59 0
-18 45 -70 0
-47 -63 88 0
15 -29 69 0
-45 -91 99 0
10 53 -101 0
-6 67 -74 0
50 -61 109 0
-61 -74 -120 0
-44 56 81 0
14 27 51 0
39 77 -110 0
-36 -67 107 0
38 -92 -102 0
-32 83 108 0
5 101 -103 0
-6 17 -25 0
45 -60 -78 0
71 108 -119 0
-37 -69 -76 0
19 80 108 0
42 -81 -107 0
-83 -100 -120 0
44 64 102 0
-37 -51 -91 0
51 -94 -97 0
-36 51 -99 0
-71 83 95 0
-21 32 79 0
-35 -46 -63 0
10 34 -85 0
-67 76 90 0
-26 47 -120 0
-14 113 116 0
-15 -38 92 0
-4 9 39 0
-4 -41 -83 0
-26 -41 44 0
-45 -81 -95 0
99 104 118 0
-34 55 -73 0
-7 71 -96 0
22 79 -112 0
-10 -64 72 0
7 -98 -117 0
-44 105 114 0
105 106 -116 0
42 81 100 0
3 23 84 0
-6 101 -105 0
7 97 112 0
16 -30 -109 0
13 64 -115 0
-29 42 59 0
26 90 -103 0
-37 101 -118 0
55 -73 -117 0
-36 51 -103 0
45 -111 -119 0
15 -33 -43 0
-55 59 -74 0
-11 -40 42 0
63 -89 101 0
67 109 110 0
-60 -98 -117 0
19 26 -103 0
-82 98 -101 0
-52 56 83 0
-32 85 -105 0
41 101 116 0
54 74 -104 0
-4 -57 -81 0
-27 33 74 0
6 44 -59 0
-59 -72 107 0
-2 -32 69 0
-33 64 -78 0
22 34 53 0
24 -33 -81 0
-21 -22 90 0
76 89 119 0
-38 63 -97 0
-10 49 70 0
10 48 61 0
-2 -74 -106 0
-36 54 -90 0
-56 74 78 0
47 -99 -103 0
5 91 -107 0
-8 -12 -81 0
4 44 103 0
-25 73 -101 0
-2 -62 -110 0
7 -60 87 0
-20 -109 -114 0
57 -95 -110 0
4 -57 -58 0
-1 100 114 0
61 -66 -110 0
-15 79 91 0
-34 -56 -117 0
-54 62 114 0
1 -108 -118 0
-28 43 -98 0
-5 6 110 0
-81 88 113 0
9 -52 -87 0
-47 111 -117 0
104 106 108 0
38 85 86 0
-61 -79 109 0
-8 -55 -96 0
-4 5 43 0
-36 51 -88 0
2 -67 -92 0
70 -77 -100 0
-4 54 -71 0
-4 61 63 0
31 46 -95 0
46 89 111 0
-22 33 -57 0
-12 -53 58 0
34 -99 101 0
-34 -66 -68 0
60 -83 -93 0
-20 100 -117 0
32 55 -117 0
-4 -20 -30 0
-65 83 109 0
-9 -28 35 0
21 56 91 0
-43 66 87 0
-8 44 102 0
14 -103 -108 0
-34 -48 64 0
30 49 75 0
-61 98 -108 0
67 72 -120 0
-1 25 -32 0
-6 95 -116 0
-14 -40 -111 0
29 -60 90 0
-24 38 -69 0
44 57 -90 0
-10 -64 101 0
35 45 72 0
37 62 112 0
-41 -59 -88 0
-6 29 -81 0
-24 -97 101 0
41 -114 -119 0
-17 -50 -102 0
38 39 62 0
31 -90 -114 0
36 85 118 0
-8 -59 -114 0
-58 82 -119 0
-23 -38 -45 0
-12 -35 47 0
-7 -11 102 0
-22 -27 114 0
-5 -9 -55 0
-35 -88 91 0
-5 -23 29 0
13 -104 -111 0
7 -20 -67 0
22 34 77 0
4 -36 -45 0
35 -36 -48 0
51 58 81 0
1 -11 -17 0
5 30 77 0
13 19 59 0
-60 86 97 0
50 -63 85 0
-31 42 -52 0
15 48 73 0
49 -56 118 0
-35 -74 -78 0
44 51 -108 0
-30 53 -77 0
37 -40 70 0
-49 -74 80 0
-31 81 -103 0
-65 -109 116 0
11 55 105 0
44 45 -63 0
9 -23 25 0
-37 69 -104 0
-2 -29 85 0
-25 61 66 0
56 75 -83 0
7 -15 -82 0
48 57 110 0
16 54 -80 0
-27 36 51 0
-29 -77 -117 0
13 89 -103 0
32 -37 59 0
13 86 94 0
40 52 -118 0
-1 4 47 0
22 48 -92 0
-54 -73 -96 0
-6 7 37 0
46 59 -81 0
24 67 -79 0
67 93 116 0
26 60 95 0
93 -99 -104 0
-7 -19 -26 0
-40 42 90 0
-5 43 120 0
34 -61 -112 0
-5 24 -29 0
-32 45 70 0
-45 53 84 0
70 100 107 0
-38 -69 112 0
-53 -64 -93 0
-34 36 86 0
-59 -80 -100 0
81 -84 -107 0
-5 -8 32 0
-4 29 -39 0
36 40 65 0
58 69 -120 0
-16 -55 95 0
-45 79 -86 0
35 -37 46 0
-16 39 -52 0
3 13 -93 0
21 -85 -98 0
-3 61 -83 0
-47 -52 -119 0
27 -29 74 0
5 -105 107 0
53 -68 -95 0
-1 44 -59 0
-22 -102 113 0
56 -82 84 0
83 91 -104 0
-2 -36 58 0
13 48 -112 0
66 -71 -88 0
56 -89 94 0
71 -91 -105 0
37 46 117 0
-51 73 -102 0
-47 71 -88 0
26 81 -110 0
-34 -89 102 0
53 -93 -98 0
-71 103 -118 0
13 -117 -118 0
40 -98 119 0
41 -95 -98 0
43 50 -75 0
9 -56 -102 0
14 -30 52 0
-3 29 -42 0
-41 -55 98 0
4 90 -100 0
49 -53 -64 0
-28 97 118 0
-11 52 82 0
15 90 97 0
14 69 118 0
-15 -64 113 0
-22 27 -90 0
25 -95 -102 0
-33 108 -115 0
-15 -55 96 0
38 57 109 0
-20 108 113 0
-17 94 111 0
12 -45 89 0
2 51 82 0
16 35 82 0
-28 -51 -62 0
-12 -48 62 0
-57 112 -115 0
-52 55 -113 0
41 -80 90 0
2 57 98 0
-8 14 -65 0
-64 100 114 0
-45 -79 -109 0
61 -107 109 0
51 61 63 0
-8 -62 -86 0
58 102 -107 0
29 -99 -106 0
-12 65 91 0
-42 -89 111 0
-2 -41 -116 0
25 -62 67 0
9 -89 -102 0
17 105 -118 0
56 86 -115 0
-16 -21 -95 0
-64 -68 116 0
12 23 46 0
-2 24 -120 0
-59 60 -110 0
-15 -45 -90 0
12 23 -48 0
-15 58 -106 0
-101 -107 116 0
11 30 70 0
33 80 92 0
78 80 -118 0
4 80 -109 0
-59 69 101 0
-26 -44 50 0
-9 80 95 0
-64 -106 -112 0
41 62 -68 0
-28 -71 -97 0
19 45 47 0
16 27 -32 0
-29 -50 63 0
-22 -105 -106 0
-7 25 47 0
81 -110 -120 0
13 61 113 0
-40 -57 77 0
24 94 -119 0
18 -21 -45 0
-13 66 93 0
-62 -78 117 0
-13 14 -34 0
18 -35 -102 0
64 90 -92 0
63 -65 -77 0
