c Phase 3 random 3-SAT negative control
c seed=71022
c ratio=4.26
c variant=uniform
c expected=TO_VALIDATE
p cnf 300 1278
-124 -199 -238 0
66 -275 -286 0
23 148 -190 0
-82 89 175 0
-99 109 -263 0
20 -255 -298 0
-108 146 199 0
183 -193 262 0
-59 107 116 0
-91 130 -133 0
49 -144 160 0
219 -263 281 0
20 -66 229 0
-94 -143 -235 0
58 -128 260 0
-87 150 156 0
45 -214 246 0
-4 -131 -168 0
-191 208 -298 0
6 223 255 0
-27 -192 281 0
-114 138 -282 0
55 -193 -197 0
64 172 -203 0
26 -250 272 0
-76 -175 -275 0
88 116 128 0
199 222 297 0
74 -129 -287 0
121 -258 284 0
37 -141 -271 0
14 76 160 0
15 -61 -141 0
106 -164 250 0
85 -147 300 0
-19 103 120 0
19 123 -162 0
-69 -195 238 0
184 -222 -229 0
-135 -145 175 0
-216 -251 256 0
-12 101 -107 0
-18 -134 239 0
31 -154 -221 0
-106 257 283 0
-117 142 143 0
-164 -281 297 0
89 -105 -293 0
23 131 -134 0
-30 -195 -266 0
80 -125 -190 0
99 124 -243 0
-15 -175 181 0
-14 80 -233 0
-28 92 112 0
49 -148 -235 0
-199 205 -300 0
-66 260 264 0
10 67 138 0
-126 263 -264 0
123 -201 234 0
222 250 -251 0
-36 -197 263 0
59 191 222 0
63 92 -263 0
-124 -192 251 0
-173 -196 -280 0
79 -167 -193 0
41 -104 138 0
-71 -177 291 0
84 -157 -207 0
-62 -204 -257 0
12 101 107 0
-17 -96 -155 0
-37 -78 94 0
24 -183 -257 0
46 65 -229 0
22 202 -212 0
-148 196 229 0
-72 122 194 0
136 237 -242 0
-51 -99 -215 0
101 160 -263 0
12 -74 157 0
51 142 -189 0
181 -202 263 0
46 150 249 0
-82 128 180 0
-168 174 -183 0
169 -230 231 0
85 104 -181 0
-90 -197 -200 0
2 53 139 0
66 -214 220 0
-121 187 -287 0
105 -249 -277 0
-26 262 294 0
-153 -294 297 0
107 176 300 0
64 -165 -169 0
-89 124 -210 0
140 172 -215 0
81 -173 178 0
28 -49 -69 0
15 228 -239 0
63 -97 145 0
-30 -175 291 0
169 -222 262 0
-163 190 231 0
-111 -122 248 0
122 -183 -270 0
77 206 -265 0
110 183 -278 0
-59 86 260 0
-70 -132 185 0
-51 -248 259 0
-118 203 204 0
133 -190 -234 0
44 -110 -120 0
-15 154 272 0
62 -152 163 0
9 52 280 0
8 -51 106 0
-40 126 -243 0
-69 181 238 0
-199 236 260 0
24 -146 223 0
80 -284 297 0
-89 145 165 0
71 -113 178 0
-144 154 -283 0
-118 -245 -269 0
22 40 230 0
73 -120 -267 0
-138 181 276 0
7 60 -131 0
-33 -127 203 0
67 175 -298 0
7 -29 -271 0
106 -138 -169 0
-207 250 261 0
29 69 -77 0
-87 -118 153 0
-137 156 -207 0
-60 131 -157 0
71 -78 97 0
-53 -232 266 0
-32 -38 236 0
-200 -202 262 0
-133 -260 -292 0
61 98 223 0
-5 126 171 0
82 255 278 0
-175 -185 270 0
-86 -169 175 0
11 -56 280 0
-29 -237 -264 0
-87 96 -182 0
-106 -150 -271 0
-94 -199 -207 0
14 60 94 0
-49 263 -264 0
-17 75 100 0
88 101 214 0
69 72 -174 0
-31 -120 131 0
55 169 -225 0
134 185 280 0
-15 57 265 0
-66 163 197 0
-41 223 -268 0
41 -87 -264 0
157 234 -272 0
25 30 -108 0
-56 -129 -226 0
-66 -102 142 0
26 -77 122 0
-45 128 -202 0
12 -51 276 0
143 -174 -281 0
-91 143 -235 0
-42 147 -231 0
-154 -218 -262 0
10 107 194 0
-86 -206 -265 0
122 131 -223 0
-31 -98 -207 0
28 56 -283 0
59 129 -194 0
-1 -138 -240 0
130 187 -278 0
-147 196 -200 0
-85 96 214 0
71 -97 -178 0
-67 98 200 0
57 -176 -215 0
-10 -58 77 0
-120 273 278 0
56 75 220 0
-17 75 -189 0
-1 -25 -147 0
-95 -122 295 0
55 -73 -195 0
146 221 -272 0
37 69 236 0
55 -82 266 0
-60 -70 -275 0
39 -112 -251 0
7 60 -143 0
110 139 256 0
-90 -148 197 0
-14 166 -239 0
6 17 -148 0
-35 214 247 0
-72 -231 295 0
113 183 -294 0
214 235 236 0
-41 -55 218 0
-81 155 161 0
-137 185 274 0
-23 -140 -221 0
-41 -83 -298 0
-3 -116 -141 0
69 -88 -276 0
-97 118 223 0
-117 -210 226 0
-3 52 106 0
-103 -236 299 0
-130 -177 193 0
-170 246 -258 0
-90 -184 -285 0
-93 -142 170 0
-134 -266 300 0
182 -204 272 0
-51 -74 103 0
37 127 -256 0
-56 -74 -254 0
-10 -87 107 0
-26 -49 154 0
-190 -205 -262 0
130 183 268 0
-16 -57 96 0
86 187 -237 0
-74 -121 142 0
94 -115 -135 0
-142 270 281 0
-129 236 261 0
-169 191 -254 0
-16 52 -89 0
127 209 -254 0
-66 109 -113 0
3 142 -250 0
-137 221 277 0
63 -268 293 0
16 61 236 0
56 -144 -178 0
-7 -51 235 0
-17 -203 -238 0
37 154 -255 0
13 20 182 0
28 141 -212 0
-131 135 277 0
97 203 -278 0
61 139 -159 0
3 227 256 0
-10 -216 -263 0
22 -197 294 0
22 -29 188 0
61 156 -222 0
-5 -100 -166 0
94 -118 -172 0
14 145 -161 0
-101 169 238 0
-22 28 92 0
48 -192 276 0
39 157 -163 0
50 278 -283 0
-39 133 -219 0
64 -152 -297 0
-169 180 -270 0
2 -23 25 0
18 -80 182 0
-9 104 228 0
-83 -114 271 0
39 239 293 0
-18 -179 -256 0
75 -78 -107 0
82 -140 203 0
-42 -125 201 0
16 66 68 0
-154 -208 -215 0
-18 198 -220 0
166 275 -279 0
57 -171 -279 0
90 -93 229 0
87 210 287 0
83 -133 252 0
-72 -136 -297 0
-35 120 -143 0
-13 -165 222 0
44 109 225 0
168 -236 -268 0
134 -171 -216 0
-55 -218 257 0
-117 240 291 0
181 235 289 0
65 -219 -227 0
244 279 282 0
-169 -280 -283 0
50 167 277 0
-13 215 229 0
25 -225 239 0
184 -211 298 0
-122 174 -179 0
28 -83 -240 0
-149 185 -196 0
-111 -125 -217 0
-101 -193 -220 0
125 216 283 0
-120 -180 -189 0
-57 106 -251 0
95 203 -269 0
-6 -98 211 0
-68 -158 -281 0
63 91 -284 0
-4 -145 292 0
51 126 194 0
-20 101 191 0
-125 214 -254 0
-38 191 -263 0
76 227 237 0
-121 -132 198 0
25 171 265 0
37 -58 233 0
-25 -76 165 0
34 162 268 0
19 250 259 0
109 165 -294 0
30 181 211 0
-10 -244 267 0
-141 -160 226 0
76 -189 -219 0
-13 62 161 0
117 -224 225 0
-12 56 -124 0
-80 -96 -244 0
18 153 175 0
-106 140 150 0
-45 61 -265 0
-129 -256 -276 0
-45 -144 -288 0
192 202 -216 0
-89 -118 -164 0
86 -251 289 0
90 194 -211 0
82 -113 238 0
-92 -96 145 0
31 -115 272 0
32 -70 100 0
-76 -101 197 0
-32 -245 288 0
-146 -205 -273 0
-42 -210 -254 0
21 -198 213 0
97 125 240 0
-16 -29 -60 0
70 -98 -136 0
-2 36 204 0
30 72 -131 0
48 -161 287 0
40 -209 -273 0
-66 -225 263 0
-114 213 264 0
-6 -220 239 0
78 -82 265 0
-65 78 190 0
-65 -77 -173 0
-65 124 260 0
-105 -142 233 0
-83 91 176 0
21 -46 178 0
96 192 -292 0
-101 219 -273 0
-68 94 -271 0
135 -244 258 0
127 -134 226 0
-25 -131 -223 0
-17 58 173 0
10 124 186 0
-198 247 -261 0
89 119 193 0
-169 215 294 0
-22 -176 299 0
-130 167 285 0
186 194 -255 0
-52 106 -207 0
-8 -169 -237 0
10 197 262 0
-112 -176 -272 0
43 67 178 0
24 175 -187 0
-136 -227 278 0
52 162 -173 0
67 127 165 0
74 -258 -269 0
-87 106 -267 0
-17 -65 75 0
40 -111 274 0
-188 -213 -261 0
11 38 259 0
-1 169 -239 0
66 171 278 0
-162 201 -236 0
36 217 -290 0
-11 -43 -218 0
-54 158 -199 0
62 -120 -244 0
-50 -58 241 0
-23 220 -291 0
33 -83 -263 0
7 -59 -105 0
63 -74 -286 0
34 118 238 0
117 -140 -220 0
-31 33 -273 0
-17 178 -240 0
38 167 -294 0
-63 -121 145 0
-19 147 197 0
-52 140 -232 0
-78 130 -287 0
-131 135 286 0
37 274 292 0
42 -48 96 0
-54 168 258 0
-63 -218 250 0
4 207 246 0
-42 78 157 0
93 111 -227 0
-197 -228 284 0
23 -63 -296 0
-125 -151 -179 0
-76 288 296 0
-13 -69 195 0
-23 31 51 0
-46 -194 238 0
-54 -89 -250 0
-75 -108 -150 0
20 36 260 0
54 -64 212 0
148 -150 257 0
36 250 -273 0
16 -62 297 0
-3 -198 -286 0
-111 122 -222 0
63 113 182 0
97 -161 251 0
-80 101 299 0
20 -94 -179 0
55 163 184 0
-78 -102 -235 0
66 -107 230 0
18 47 120 0
-11 58 -284 0
-168 -177 -269 0
21 30 260 0
-7 277 -291 0
-23 40 56 0
20 -145 263 0
81 194 203 0
236 -279 -290 0
17 -268 269 0
27 -61 -284 0
65 -115 -183 0
-106 134 -232 0
-52 124 -271 0
2 17 -192 0
-1 -116 -217 0
74 124 -129 0
83 107 172 0
53 -110 135 0
-19 87 -272 0
144 -217 -245 0
79 97 255 0
40 -122 269 0
53 174 288 0
-43 -104 145 0
-185 259 -287 0
35 117 -155 0
-30 -66 140 0
129 -137 -253 0
-201 -215 261 0
-31 -119 -193 0
240 -241 287 0
-130 -253 265 0
-43 74 -152 0
8 -183 -290 0
-89 207 -247 0
154 163 -190 0
29 -288 -299 0
39 -118 -280 0
27 35 -195 0
104 143 270 0
-102 -241 264 0
206 -219 -285 0
-164 -193 -220 0
166 197 293 0
-24 -67 165 0
-38 112 -176 0
-28 -72 238 0
-5 18 -264 0
175 -200 205 0
116 -130 219 0
-202 212 286 0
-98 -164 188 0
-26 28 -183 0
44 -54 81 0
2 40 169 0
40 -81 -228 0
-3 -32 -110 0
6 -246 -265 0
177 197 277 0
-67 103 -229 0
38 -41 -155 0
-41 46 -105 0
-24 66 206 0
-39 -89 -96 0
-7 92 -108 0
4 -5 -98 0
181 -274 -299 0
151 -184 222 0
1 -42 -201 0
166 -170 -237 0
39 -189 -291 0
45 84 -239 0
-54 146 -243 0
-11 -104 180 0
3 99 -244 0
-76 256 -268 0
-40 105 183 0
-43 62 119 0
54 100 -185 0
77 267 272 0
268 283 -285 0
-24 132 193 0
-126 -222 -254 0
-149 152 -273 0
72 -135 261 0
-77 -83 189 0
-12 -27 221 0
25 276 278 0
58 -99 -290 0
5 -55 64 0
92 -120 131 0
-32 50 -74 0
25 112 -176 0
-60 -234 256 0
-101 106 -108 0
72 100 -122 0
-185 232 240 0
28 151 204 0
-197 224 -232 0
1 46 -237 0
-46 216 -271 0
-59 114 -149 0
-26 35 -189 0
-159 252 271 0
15 -41 75 0
-108 -219 -298 0
97 239 -243 0
138 142 -188 0
157 246 294 0
-115 -158 -236 0
-115 146 -196 0
-135 -137 -202 0
-124 230 -285 0
-38 -85 -243 0
148 -253 -256 0
80 -85 100 0
-223 238 243 0
102 -205 -283 0
-46 -121 -136 0
-39 44 -213 0
-223 -269 286 0
-43 -147 -152 0
5 275 -277 0
-36 -135 -186 0
-192 207 271 0
63 127 -211 0
46 188 237 0
-132 166 242 0
77 -235 -264 0
146 217 -227 0
-25 -67 148 0
75 -121 -277 0
-118 -142 245 0
163 165 -202 0
66 280 294 0
-16 77 -89 0
-214 -233 -278 0
42 -154 254 0
-42 -57 -88 0
-48 -163 -204 0
13 -16 -230 0
79 131 173 0
137 227 246 0
-30 -68 193 0
-63 -211 215 0
205 -247 -296 0
-79 -204 208 0
155 182 -294 0
117 171 176 0
5 -14 -240 0
-216 245 -257 0
-23 -85 -255 0
-71 -246 290 0
-14 99 114 0
67 180 254 0
27 -124 -153 0
-51 261 287 0
131 265 -279 0
173 -232 -290 0
-87 -256 -293 0
126 147 161 0
-55 -104 -248 0
-76 -105 141 0
-186 200 -225 0
4 -27 151 0
-62 -145 -221 0
-96 122 -258 0
89 163 -178 0
4 -56 292 0
5 45 -57 0
-97 238 -240 0
-212 -255 -287 0
17 123 -293 0
76 -121 224 0
-153 168 -254 0
7 -66 -173 0
219 250 275 0
71 149 -238 0
37 -51 90 0
28 167 262 0
118 169 -224 0
-68 -92 -99 0
-108 111 -250 0
170 204 -209 0
57 160 189 0
-26 74 238 0
36 65 70 0
-32 119 -147 0
-16 -30 126 0
54 -100 -116 0
26 -110 271 0
11 -45 -189 0
43 54 155 0
15 -75 118 0
43 -124 -291 0
16 -120 157 0
82 164 236 0
51 121 281 0
123 -156 174 0
66 -156 -249 0
156 -159 222 0
-48 -120 249 0
196 236 239 0
89 108 181 0
-140 200 -244 0
-73 -103 141 0
-166 213 232 0
-3 49 -56 0
-19 -60 241 0
-46 -77 177 0
136 224 255 0
91 -179 -241 0
50 99 279 0
265 284 296 0
3 -123 -180 0
131 -159 -191 0
52 -136 277 0
197 -235 240 0
-54 121 220 0
17 -108 290 0
155 191 292 0
129 -134 254 0
-59 -63 -103 0
-15 196 -213 0
72 -91 -201 0
28 188 -268 0
8 16 46 0
-75 175 -271 0
-9 -184 -220 0
-109 -158 297 0
2 123 142 0
177 -252 -284 0
-42 121 -194 0
-139 -175 -256 0
-11 -220 255 0
81 135 -225 0
-75 163 285 0
161 185 202 0
-59 -89 119 0
23 -45 208 0
-31 200 279 0
-123 -179 -292 0
70 279 -294 0
45 87 -293 0
-85 -159 -210 0
-61 184 267 0
-181 -189 262 0
33 35 213 0
91 -96 -133 0
-10 -169 -216 0
69 93 155 0
5 109 -144 0
-29 -66 127 0
20 -61 77 0
189 -257 266 0
21 98 142 0
84 222 288 0
194 -238 -281 0
72 -169 -241 0
28 35 -255 0
-116 145 191 0
26 42 -44 0
-66 182 205 0
-20 -45 123 0
-136 140 -275 0
100 247 -267 0
-70 71 93 0
-6 -117 -213 0
-2 238 240 0
32 -73 215 0
116 188 -262 0
57 61 297 0
27 159 -258 0
-13 -113 -125 0
66 259 -288 0
-98 -104 206 0
-36 69 88 0
-4 104 147 0
-31 45 169 0
151 211 -293 0
1 27 -111 0
122 163 224 0
-73 98 172 0
56 170 -251 0
53 -81 132 0
-6 115 287 0
7 49 -70 0
-26 -41 294 0
-52 72 -170 0
66 -92 292 0
182 214 -216 0
-70 170 294 0
-39 -215 234 0
11 147 187 0
-148 -153 298 0
108 -132 166 0
-150 -164 -199 0
-24 -34 114 0
-76 -110 152 0
-1 54 74 0
17 64 -188 0
-53 -128 199 0
53 205 218 0
84 256 -283 0
-121 -215 279 0
-262 -264 268 0
-71 188 -253 0
59 96 144 0
-86 -149 268 0
48 -115 -272 0
141 185 -291 0
-47 121 -133 0
-25 87 -230 0
-54 -153 -225 0
108 138 298 0
-9 -75 248 0
-134 168 -182 0
-101 -257 -290 0
-47 160 -256 0
-51 -71 195 0
-233 278 286 0
-6 262 292 0
30 131 -268 0
32 198 246 0
176 196 295 0
183 -200 235 0
-35 75 -119 0
1 165 -189 0
-161 -196 218 0
108 -110 267 0
137 152 -185 0
-101 -167 249 0
-56 -81 218 0
-150 267 268 0
-1 -106 208 0
-77 84 250 0
-4 32 -239 0
53 190 -259 0
-11 -220 -236 0
3 135 -240 0
42 261 -265 0
-46 -144 -265 0
96 103 -156 0
-139 -145 178 0
8 -113 -140 0
-62 -172 221 0
10 236 -254 0
5 -161 -279 0
-129 145 176 0
45 118 252 0
-60 -120 -290 0
126 225 -245 0
-167 274 -286 0
5 -46 -102 0
41 156 -248 0
3 194 244 0
-6 24 283 0
13 130 -296 0
-129 155 233 0
-5 -114 -199 0
-178 213 -274 0
-10 -11 -205 0
102 203 -213 0
-38 -183 -259 0
158 -275 -288 0
86 94 -300 0
80 162 -281 0
45 110 194 0
67 -156 -236 0
-48 86 272 0
123 -210 -272 0
30 117 253 0
49 162 -167 0
56 -204 263 0
-57 -96 -254 0
96 -248 -282 0
-27 -174 -295 0
-5 84 150 0
-103 -215 -299 0
-15 96 -122 0
-20 -71 -130 0
-50 172 224 0
82 135 -186 0
-100 -167 -190 0
-102 -124 271 0
21 247 254 0
-94 -115 206 0
-150 171 -272 0
37 79 207 0
124 146 -184 0
81 113 207 0
103 -123 281 0
-28 75 -209 0
-20 244 -279 0
178 -192 -251 0
-69 -81 -86 0
40 154 239 0
-85 124 198 0
-31 47 175 0
148 253 277 0
67 -214 227 0
-18 62 241 0
127 165 -237 0
-222 -284 -293 0
-79 -255 285 0
-93 163 253 0
-19 199 -284 0
-24 -131 -168 0
-130 146 234 0
-26 -135 190 0
-17 49 -296 0
-43 116 -139 0
92 105 -196 0
30 66 -291 0
-61 115 195 0
-14 -183 201 0
-170 238 -276 0
126 -131 295 0
43 -112 298 0
-12 71 183 0
-167 283 -288 0
100 -161 -167 0
-16 122 266 0
114 137 -192 0
24 139 229 0
-42 138 280 0
-20 -197 293 0
42 -208 241 0
-4 -140 -266 0
89 -142 219 0
-114 -177 214 0
-18 147 -228 0
181 -182 242 0
40 191 231 0
33 -132 -237 0
26 -72 95 0
15 -60 164 0
-9 91 149 0
28 38 -235 0
20 -51 117 0
42 -92 -132 0
-27 37 102 0
-93 174 -196 0
105 -107 -273 0
-73 -84 278 0
-17 -53 249 0
70 -137 -170 0
115 166 211 0
-176 -189 -231 0
-8 248 -294 0
-47 -71 159 0
-92 110 -278 0
-48 51 -216 0
72 -151 -219 0
-40 41 198 0
23 46 -234 0
-175 -198 -298 0
-71 -102 -188 0
-204 286 296 0
-59 -232 278 0
-203 259 -266 0
-156 195 280 0
-33 140 -286 0
-22 -41 -68 0
49 -72 -175 0
-90 142 -169 0
-51 267 279 0
-23 120 161 0
42 228 -272 0
-71 105 -112 0
-79 -91 219 0
35 88 204 0
-81 249 284 0
132 -159 -200 0
-260 -283 -290 0
-26 -46 -123 0
10 -110 197 0
19 115 -204 0
177 -214 279 0
-53 -77 232 0
202 -230 260 0
60 179 -219 0
18 -103 -260 0
37 51 269 0
242 283 290 0
127 152 225 0
-17 172 -287 0
-43 -134 233 0
-3 192 240 0
11 66 174 0
54 158 -233 0
-10 -78 -85 0
-77 127 265 0
60 145 -300 0
24 101 111 0
-72 -145 246 0
66 -210 -297 0
-73 172 224 0
-66 -104 279 0
-109 -139 197 0
56 -127 142 0
-17 204 -214 0
103 278 -284 0
-42 -107 180 0
-104 122 126 0
-66 68 -162 0
-66 98 -189 0
-3 113 202 0
278 294 -295 0
-19 -69 278 0
-7 199 284 0
-13 -231 -247 0
-150 167 -276 0
-39 42 97 0
134 204 -212 0
122 -162 173 0
-24 58 92 0
141 -241 242 0
-96 -125 185 0
21 226 -284 0
34 -61 -214 0
-59 -188 262 0
177 -201 258 0
6 192 294 0
104 -161 -167 0
-52 125 -258 0
50 110 114 0
-23 144 -188 0
99 -102 227 0
7 -22 235 0
105 -197 282 0
182 233 262 0
174 186 215 0
83 -151 282 0
-32 -220 -277 0
54 81 -155 0
242 -271 -298 0
74 -113 193 0
6 -119 199 0
28 -62 125 0
109 119 -208 0
-16 -37 -191 0
-6 168 180 0
93 189 -227 0
115 131 268 0
141 159 -255 0
-60 -184 224 0
97 158 243 0
-114 -126 217 0
79 -94 -184 0
-124 -125 228 0
95 113 168 0
-196 218 -289 0
159 -172 -216 0
-146 -183 191 0
38 -199 208 0
-226 249 -294 0
-57 -174 196 0
134 -165 243 0
91 106 121 0
-159 -187 -241 0
-33 173 185 0
-33 47 -162 0
-21 -186 -274 0
-85 189 261 0
-103 194 -293 0
83 217 256 0
-60 62 116 0
-11 116 -244 0
-148 186 227 0
-232 248 -279 0
135 229 275 0
-18 -124 176 0
102 -175 -208 0
-135 239 257 0
-70 -199 266 0
61 -101 220 0
-36 -47 105 0
-136 205 284 0
99 165 266 0
-113 -225 276 0
39 75 -233 0
47 -132 292 0
28 -105 -137 0
-41 -43 -126 0
180 -231 -276 0
-6 -47 -192 0
18 73 82 0
208 228 253 0
-16 58 -91 0
40 70 -150 0
115 157 -260 0
5 -167 -201 0
-2 128 194 0
-18 -77 -213 0
197 -199 221 0
-102 129 255 0
68 95 148 0
-45 -241 296 0
-111 -177 -293 0
-50 55 108 0
-100 128 176 0
15 94 130 0
194 246 -286 0
-128 275 281 0
-55 -115 -196 0
6 119 126 0
-86 -228 229 0
70 -127 -199 0
32 -134 -222 0
1 53 86 0
-22 -119 -209 0
-124 133 209 0
6 96 -138 0
-36 82 150 0
183 -202 -228 0
212 -216 265 0
-153 281 300 0
65 208 -276 0
95 156 -196 0
-200 270 -288 0
-57 205 -211 0
-54 63 76 0
-124 148 -258 0
-54 165 -262 0
-90 -281 -285 0
-71 267 -273 0
-18 70 -243 0
-56 212 225 0
42 102 -237 0
-29 162 206 0
-133 -152 -187 0
115 167 225 0
13 120 -244 0
12 168 -180 0
88 148 -239 0
37 -111 -235 0
45 -102 134 0
-98 -151 -219 0
161 -184 273 0
19 173 -189 0
3 -47 -286 0
-12 91 -221 0
-11 167 234 0
-59 129 241 0
124 145 -241 0
-66 -111 188 0
-95 -233 256 0
50 -63 -249 0
32 -48 -153 0
68 167 195 0
-120 220 -266 0
-107 156 193 0
140 171 -253 0
-24 -150 -300 0
-78 202 -211 0
-5 97 -227 0
-145 231 291 0
-1 -51 90 0
1 17 -241 0
68 -212 -249 0
9 250 260 0
-94 210 -278 0
54 -73 157 0
34 -65 -291 0
111 217 225 0
27 -190 -221 0
-168 -182 205 0
94 165 294 0
-191 196 -222 0
100 117 -121 0
-2 -204 258 0
150 166 192 0
-49 -119 125 0
184 257 292 0
-59 -164 288 0
-22 -222 277 0
38 188 -299 0
73 116 135 0
-71 -150 -242 0
14 -74 -154 0
25 -137 140 0
40 232 241 0
76 -162 -173 0
150 -157 -243 0
-102 -106 -209 0
-9 -62 -276 0
-98 139 -285 0
215 253 -272 0
-88 -162 -207 0
43 136 257 0
-34 85 -110 0
-117 -134 291 0
-37 143 253 0
-82 -163 -167 0
-146 -198 224 0
5 54 111 0
-77 105 109 0
-61 190 -213 0
57 73 -296 0
20 -46 158 0
-43 62 -155 0
140 -161 188 0
-76 -77 -223 0
178 -204 224 0
122 242 294 0
153 -183 -218 0
30 -221 276 0
-2 -12 -248 0
172 231 -280 0
-80 -120 -197 0
2 -45 -188 0
-45 194 -248 0
166 -255 274 0
-51 -58 -208 0
39 246 -299 0
-34 270 297 0
62 -187 223 0
-24 -103 215 0
125 171 187 0
21 256 274 0
88 131 147 0
216 233 278 0
97 -149 -178 0
11 -85 204 0
-33 -116 -179 0
16 134 249 0
111 -186 226 0
149 244 284 0
-5 25 -271 0
-77 -156 238 0
120 223 267 0
89 147 -177 0
-29 -180 -269 0
-17 97 -265 0
-110 -174 229 0
151 191 -193 0
30 -40 252 0
-93 -139 -185 0
3 -9 -13 0
-251 254 295 0
-79 143 229 0
-88 -124 150 0
43 142 -194 0
-100 -103 215 0
1 135 146 0
41 -152 -202 0
87 -156 -226 0
-76 -118 166 0
-30 -192 -197 0
-53 227 243 0
-2 56 -269 0
-22 -148 235 0
21 -69 134 0
29 -85 -126 0
-175 -178 -188 0
-19 90 145 0
21 230 -249 0
4 217 -296 0
-199 273 -280 0
43 155 256 0
-128 -221 287 0
-103 228 264 0
-74 -272 281 0
-57 -245 262 0
187 215 257 0
-21 36 -116 0
-70 -100 296 0
38 -45 -300 0
-10 168 297 0
22 46 -207 0
-112 -247 273 0
-45 46 -124 0
85 -129 200 0
-66 78 -178 0
-130 134 180 0
61 -195 247 0
-77 -185 -200 0
-92 176 -295 0
-32 -47 -242 0
37 278 -290 0
-66 -123 -287 0
64 -195 205 0
-36 110 245 0
13 -55 -138 0
-176 -179 299 0
-102 269 292 0
-26 172 -222 0
-138 163 199 0
33 119 257 0
-39 -81 -184 0
84 -219 -300 0
134 247 -293 0
54 -119 241 0
15 -75 -164 0
14 -169 199 0
115 189 -292 0
60 -202 273 0
-148 -248 -280 0
169 227 273 0
27 -246 282 0
-31 -75 233 0
-102 244 291 0
65 68 -93 0
160 167 -254 0
-87 -201 209 0
-94 144 -217 0
9 17 -70 0
-98 -213 -226 0
-121 -163 172 0
83 161 -272 0
15 -119 132 0
81 -131 -188 0
59 134 -254 0
74 185 -241 0
